,Time,S11,S22,S33,S12,S13,S23,LE11,LE22,LE33,LE12,LE13,LE23,SDV_EPBAR,E11,E12,E13,E22,E23,E33
0,1e-05,0.139606,1.94446,-1.11022e-16,0.521016,1.03943e-17,6.00106e-18,-2.12914e-06,9.12912e-06,-3e-06,6.49996e-06,2.31945e-22,4.74637e-23,0.0,-2.1291377333421124e-06,6.499981124896692e-06,0.0,9.129161670617947e-06,0.0,-2.9999955000192813e-06
1,2e-05,0.27921,3.8889,1.11022e-16,1.04203,8.19771e-18,-2.19668e-18,-4.25827e-06,1.82581e-05,-5.99996e-06,1.29999e-05,8.14908e-38,-5.51668e-39,0.0,-4.258260933531766e-06,1.2999984499106887e-05,0.0,1.8258266680115653e-05,0.0,-5.9999420002343484e-06
2,3.5e-05,0.488615,6.80552,-5.55112e-16,1.82353,-1.25908e-17,-1.41987e-17,-7.45192e-06,3.19515e-05,-1.04998e-05,2.27496e-05,7.08564e-22,-6.2831e-22,0.0,-7.451892234500157e-06,2.2749858774151477e-05,0.0,3.19520104545834e-05,0.0,-1.0499744877323636e-05
3,5.75e-05,0.802715,11.1804,-4.32987e-15,2.99577,2.02003e-17,-2.29845e-17,-1.22423e-05,5.24912e-05,-1.72495e-05,3.73739e-05,4.09671e-27,1.52891e-26,0.0,-1.2242225063352485e-05,3.737459841279822e-05,0.0,5.249257768724647e-05,0.0,-1.7249351228265652e-05
4,9.125e-05,1.27385,17.7425,-2.83107e-14,4.75408,-2.78096e-17,6.01679e-17,-1.94277e-05,8.32998e-05,-2.73738e-05,5.93098e-05,-3.05355e-21,1.69506e-21,0.0,-1.9427511283476306e-05,5.931155886096384e-05,0.0,8.330326952465938e-05,0.0,-2.737342534098186e-05
5,0.00014188,1.98053,27.5852,-1.53544e-13,7.39143,-7.81729e-17,3.37333e-18,-3.02053e-05,0.000129511,-4.25596e-05,9.22122e-05,-3.27281e-21,8.76987e-22,0.0,-3.0204843824543914e-05,9.221645167567516e-05,0.0,0.0001295193869115252,0.0,-4.255869435310089e-05
6,0.00021781,3.04047,42.3484,-8.02802e-13,11.3472,-1.25906e-17,-1.41977e-17,-4.63708e-05,0.000198823,-6.53367e-05,0.000141563,1.30916e-20,-3.50782e-21,0.0,-4.636972489102664e-05,0.00014157302051431842,0.0,0.0001988427666026471,0.0,-6.533456560431361e-05
7,0.00033172,4.63024,64.491,-4.04998e-12,17.2803,-1.25899e-17,-1.41952e-17,-7.06166e-05,0.000302781,-9.94992e-05,0.000215581,1.3092e-20,-3.50791e-21,0.0,-7.061410670661239e-05,0.00021560423925381933,0.0,0.00030282684279359096,0.0,-9.949425011879232e-05
8,0.00050258,7.01456,97.7002,-2.05221e-11,26.1787,-3.83405e-17,4.14358e-16,-0.00010698,0.000458697,-0.000150736,0.000326594,1.75327e-21,6.54328e-21,0.0,-0.00010697427784389646,0.00032664733762688414,0.0,0.00045880221755600914,0.0,-0.00015072463989995732
9,0.00075887,10.5903,147.503,-1.03755e-10,39.5234,-1.96334e-17,1.53348e-15,-0.000161514,0.00069252,-0.000227574,0.000493077,-2.44379e-20,1.35462e-20,0.0,-0.00016150095731615188,0.0004931985824463414,0.0,0.0006927598473382979,0.0,-0.0002275481070015406
10,0.0011433,15.9521,222.184,-5.2473e-10,59.5341,1.72248e-16,1.20028e-15,-0.000243289,0.00104314,-0.000342794,0.000742721,-5.7803e-24,-2.15724e-23,0.0,-0.00024325940763114673,0.0007429968855396929,0.0,0.0010436842597596474,0.0,-0.00034273525284966855
11,0.00172,23.991,334.152,-2.65262e-09,89.5357,-1.15825e-15,4.3205e-16,-0.000365891,0.00156882,-0.000515542,0.00111701,-5.94097e-20,-1.21603e-20,0.0,-0.0003658240700513682,0.001117634088019237,0.0,0.0015700512418777013,0.0,-0.0005154091310572984
12,0.0025849,27.1499,359.814,0.295913,98.3434,0.15707,0.152082,-0.000693003,0.00235435,-0.00091851,0.00172551,-1.04754e-08,7.7226e-06,0.000763763,-0.0006927629288808745,0.001726999549000796,-1.0475399991882739e-08,0.0023571236582549115,7.722629819406635e-06,-0.0009180882988121253
13,0.0034499,27.8077,371.891,-0.280118,102.236,0.0965718,0.158071,-0.00104025,0.00314386,-0.00133783,0.00232157,-2.93086e-06,1.34184e-05,0.00160086,-0.0010397091275324843,0.0023242669302661056,-2.930855705018942e-06,0.003148807110832541,1.3418490027117258e-05,-0.0013369355043844067
14,0.0043149,28.735,382.979,-0.315362,105.541,0.11915,0.262071,-0.00138767,0.00393303,-0.0017569,0.00291595,-3.84037e-06,2.01381e-05,0.00244418,-0.0013867076311870896,0.0029202055174879504,-3.840362625795457e-06,0.00394077451229502,2.0138302772920724e-05,-0.001755357554634629
15,0.0051799,29.9897,393.455,0.148061,108.336,0.238188,0.426765,-0.00173499,0.00472219,-0.00217556,0.00350742,-1.97959e-06,2.82697e-05,0.00329192,-0.0017334857749141674,0.003513578195215583,-1.9795880406014987e-06,0.004733357110017211,2.8270099591720665e-05,-0.002173195184586696
16,0.0061799,31.0243,403.971,0.335974,111.37,0.304754,0.566113,-0.00213883,0.00563384,-0.00266111,0.00419073,-1.41654e-07,3.86472e-05,0.00427806,-0.002136544332957069,0.0041995233882474725,-1.416539899823377e-07,0.0056497399217541044,3.864794681263106e-05,-0.0026575723854734834
17,0.0071799,31.2994,412.569,-0.336126,114.315,0.207573,0.54652,-0.00254378,0.00654317,-0.00314997,0.00487907,-9.84865e-07,4.61503e-05,0.00526984,-0.002540547333301002,0.004890992043641518,-9.848645150523083e-07,0.006564623302167671,4.6151364941460216e-05,-0.003145014049563577
18,0.0081799,32.591,421.852,0.349532,116.655,0.358938,0.737689,-0.00294711,0.00745316,-0.0036352,0.00556058,3.07039e-06,5.75311e-05,0.00626234,-0.0029427715343489647,0.005576068720416494,3.070394713589053e-06,0.007481003929093344,5.753275494546628e-05,-0.0036286006595426246
19,0.0091799,32.6994,428.923,-0.357844,119.175,0.24249,0.694711,-0.00335221,0.00836015,-0.00412483,0.00624979,2.79262e-06,6.51765e-05,0.00725984,-0.003346597617104763,0.006269360687173986,2.792623899461333e-06,0.008395193642640963,6.517862403421226e-05,-0.004116334573479596
20,0.01018,33.9128,437.018,0.358319,121.13,0.40044,0.875269,-0.00375534,0.00926799,-0.00461042,0.00693144,7.60595e-06,7.68809e-05,0.00825668,-0.0037482975291245335,0.006955518029894359,7.605978925351309e-06,0.00931107080729654,7.688385541215759e-05,-0.004599808328063615
21,0.01118,33.9454,443.063,-0.32482,123.334,0.279937,0.823104,-0.00416017,0.0101728,-0.00510019,0.00762083,7.86714e-06,8.49268e-05,0.00925761,-0.004151528480335731,0.007649942431585677,7.867170946029844e-06,0.0102247188338771,8.493040638279936e-05,-0.005087206113789211
22,0.01218,35.0244,450.187,0.321128,125.035,0.424685,0.981676,-0.00456302,0.0110784,-0.00558604,0.00830297,1.28646e-05,9.67197e-05,0.0102573,-0.004552625240748065,0.008337535253937434,1.2864682749302858e-05,0.011139992712713154,9.67243775009674e-05,-0.0055704670890202035
23,0.01318,35.5491,456.223,0.325639,126.81,0.438381,1.03081,-0.00496666,0.0119822,-0.00607368,0.00898815,1.63857e-05,0.000107348,0.011259,-0.004954346538249443,0.009028664713345513,1.638583424634632e-05,0.01205427413966742,0.00010735376200265989,-0.00605527249158877
24,0.01418,35.6111,461.332,-0.197015,128.649,0.338425,0.994498,-0.0053706,0.012884,-0.00656275,0.00967675,1.75915e-05,0.000116387,0.0122625,-0.005356204110870677,0.009723721132327556,1.7591654731363704e-05,0.012967356330966906,0.00011639377322958389,-0.006541262188293873
25,0.01518,36.5303,467.385,0.355555,130.076,0.468439,1.12377,-0.00577282,0.0137864,-0.00704854,0.010359,2.28553e-05,0.000128379,0.0132644,-0.005756189292040914,0.01041284019007871,2.2855561184309536e-05,0.013881870640116922,0.00012838724093655607,-0.007023757303395661
26,0.01618,36.3952,471.744,-0.349641,131.803,0.328551,1.0469,-0.00617639,0.0146859,-0.0075378,0.0110485,2.35065e-05,0.000136992,0.0142691,-0.006157355311998125,0.01110976007891118,2.3506776279935693e-05,0.014794267671804251,0.00013700138383243576,-0.007509462032260772
27,0.01718,36.7996,476.648,-0.373554,133.259,0.33387,1.07999,-0.00657852,0.0155852,-0.00802488,0.0117345,2.60222e-05,0.000147078,0.0152727,-0.006556928909056681,0.011803619340841509,2.602253858041692e-05,0.01570728263236587,0.00014708881649938554,-0.007992766609942081
28,0.01818,37.8214,482.227,0.382125,134.425,0.502646,1.24399,-0.00697946,0.0164848,-0.00850942,0.0124154,3.20464e-05,0.000159979,0.0162749,-0.006955160135231231,0.012492791027124861,3.204691349134592e-05,0.016621424022969622,0.00015999179732273383,-0.00847331736237611
29,0.01918,37.5643,485.859,-0.406312,135.986,0.34163,1.14029,-0.00738214,0.0173811,-0.00899821,0.0131048,3.25596e-05,0.000168576,0.0172801,-0.007354958930456235,0.01319104421747852,3.2560130069470006e-05,0.01753303028063735,0.0001685902097323666,-0.008957847263250662
30,0.02018,37.9512,490.233,-0.38826,137.257,0.353728,1.17408,-0.00778319,0.0182775,-0.00948439,0.0137899,3.53298e-05,0.000179011,0.0182837,-0.007752979405786564,0.013885419232874119,3.53304241047514e-05,0.018445555821824833,0.0001790270234252045,-0.009439555029238877
31,0.02118,38.927,495.286,0.366144,138.264,0.524783,1.33309,-0.00818307,0.019174,-0.0099681,0.0144701,4.15168e-05,0.000192134,0.0192857,-0.008149679822814226,0.014575298696442918,4.151766183424499e-05,0.019359001653534103,0.00019215245891923693,-0.009918583157387695
32,0.02218,38.6664,498.484,-0.373239,139.669,0.369058,1.23149,-0.00858462,0.0200675,-0.0104559,0.0151585,4.23111e-05,0.000201104,0.0202904,-0.008547877365419176,0.01527397278809639,4.231199512716444e-05,0.02027020594140616,0.00020112422276508113,-0.010401427097312177
33,0.02318,39.027,502.427,-0.340144,140.803,0.383308,1.26291,-0.00898458,0.020961,-0.0109411,0.0158427,4.53311e-05,0.000211848,0.0212934,-0.008944339266652057,0.01596886093440464,4.5332127469821515e-05,0.021182224754143997,0.00021187044137227495,-0.010881463858548823
34,0.02418,39.8891,506.96,0.318963,141.712,0.535431,1.40278,-0.00938348,0.0218545,-0.0114241,0.0165225,5.13044e-05,0.000224906,0.0222948,-0.009339592531213858,0.016659751373121257,5.1305716093130727e-05,0.022095058819851188,0.00022493129325051875,-0.01135909275484126
35,0.02518,40.2798,510.732,0.411376,142.748,0.562207,1.43443,-0.00978296,0.0227464,-0.0119084,0.0172046,5.59125e-05,0.000236756,0.023297,-0.009735262514405152,0.017353451549082077,5.5914063132878056e-05,0.023007072054656907,0.00023678402891369466,-0.011837775623807278
36,0.02618,40.0184,513.485,-0.26709,144.006,0.411239,1.34849,-0.010183,0.0236361,-0.0123946,0.0178915,5.7064e-05,0.000246388,0.0243002,-0.010131328793529848,0.018052511699673257,5.7065628181085515e-05,0.023917646455621222,0.0002464183560162425,-0.012318103320173912
37,0.02718,40.8471,517.682,0.376544,144.805,0.567032,1.47183,-0.0105808,0.0245268,-0.0128767,0.0185701,6.32665e-05,0.000259436,0.0253005,-0.01052502024051527,0.018743596592696532,6.326850136728623e-05,0.0248300561846706,0.000259469656429534,-0.012794150002290228
38,0.02818,41.1755,521.087,0.424094,145.766,0.582821,1.49776,-0.0109792,0.0254158,-0.0133601,0.0192513,6.78275e-05,0.000271374,0.0263015,-0.010919148556877811,0.019437801149923217,6.782980033692709e-05,0.025741535197009835,0.00027141082525505844,-0.01327124998582263
39,0.02918,40.8927,523.552,-0.242966,146.939,0.430465,1.41272,-0.0113781,0.0263027,-0.0138452,0.0199372,6.9069e-05,0.00028121,0.0273033,-0.011313614227109858,0.02013727339431548,6.90713853181979e-05,0.026651668903709513,0.0002812495432387152,-0.0137497960217291
40,0.03018,41.6564,527.417,0.348659,147.669,0.575174,1.52372,-0.0117748,0.0271905,-0.0143263,0.0206149,7.51239e-05,0.000294193,0.0283022,-0.011705748331403809,0.020828854740365,7.512672187082181e-05,0.02756353497281694,0.0002942362790046005,-0.014224166875804412
41,0.03118,41.9431,530.534,0.373025,148.561,0.585337,1.54357,-0.012172,0.0280767,-0.0148087,0.0212952,7.95593e-05,0.000306104,0.0293017,-0.01209822085796286,0.02152356088774776,7.956246492502039e-05,0.028474565395466778,0.0003061508546100544,-0.014699590456316192
42,0.03218,41.7257,532.874,-0.187922,149.63,0.455042,1.47407,-0.0125696,0.0289608,-0.0152923,0.0219793,8.12173e-05,0.000316316,0.0303017,-0.012490932529096055,0.022222624243108724,8.122059821413785e-05,0.029384241821944546,0.0003163660331813034,-0.015175966537350982
43,0.03318,41.8004,535.562,-0.407945,150.548,0.412865,1.44824,-0.0129661,0.0298445,-0.0157747,0.0226612,8.36325e-05,0.000326793,0.0313004,-0.012882402260345316,0.02291991556503703,8.363599729510618e-05,0.030294310731165508,0.0003268464026495721,-0.015650931080434916
44,0.03418,42.0912,538.492,-0.355564,151.366,0.42962,1.47106,-0.0133618,0.0307277,-0.0162558,0.0233412,8.68944e-05,0.000337955,0.0322981,-0.013272927423271796,0.023615737660321434,8.68981754276188e-05,0.031204668621271026,0.00033801211322481706,-0.01612438751841383
45,0.03518,42.8624,542.048,0.30397,151.983,0.583391,1.60413,-0.0137565,0.0316109,-0.0167348,0.0240169,9.30072e-05,0.000351354,0.0332939,-0.013662311748766087,0.0243076285432684,9.301152530372114e-05,0.03211583089462855,0.00035141573204633403,-0.016595551084109816
46,0.03618,43.1412,544.851,0.35455,152.759,0.599608,1.61963,-0.0141518,0.0324925,-0.0172152,0.024695,9.75072e-05,0.000363328,0.0342903,-0.014052133983490922,0.025002447097790315,9.751195398144397e-05,0.03302614541882809,0.00036339401161211704,-0.017067865122453507
47,0.03718,42.9194,546.889,-0.18392,153.722,0.47323,1.54835,-0.0145474,0.0333721,-0.0176968,0.0253769,9.92668e-05,0.000373648,0.0352872,-0.014442097819354571,0.025701634627361747,9.927172711177157e-05,0.03393519495771491,0.00037371781510908697,-0.01754113126697554
48,0.03818,42.9877,549.29,-0.379045,154.54,0.435603,1.5242,-0.0149419,0.0342513,-0.0181771,0.0260564,0.000101836,0.000384304,0.0362827,-0.014830823730537346,0.02639883573534152,0.0001018411854614154,0.034844630510408425,0.0003843778542427234,-0.018012892958988558
49,0.03918,43.8916,552.827,0.461739,155.028,0.636814,1.68819,-0.0153348,0.0351311,-0.0186539,0.0267292,0.000108844,0.00039836,0.0372756,-0.01521782066936661,0.02708962922889757,0.00010884992372317548,0.03575548744354262,0.0003984393558817967,-0.018480992807753616
50,0.04018,43.4545,554.418,-0.333468,156.01,0.44864,1.5546,-0.0157295,0.0360077,-0.0191351,0.027411,0.000109604,0.000407734,0.0382709,-0.015606437496972325,0.02779013771431238,0.00010961000673792576,0.0366638287716734,0.0004078171348058657,-0.018953186135188482
51,0.04118,44.235,557.694,0.360088,156.504,0.618751,1.68552,-0.0161218,0.0368856,-0.0196117,0.0280836,0.000116048,0.000421212,0.0392627,-0.0159925393527115,0.028481661894451005,0.00011605473382969578,0.037574315546645254,0.00042130072223089954,-0.01942064164318047
52,0.04218,44.4605,560.136,0.38,157.2,0.62677,1.69909,-0.0165148,0.0377618,-0.0200897,0.0287592,0.000120511,0.000433263,0.0402551,-0.016379178305215403,0.029176738875793085,0.0001205182617423084,0.038483836564896734,0.0004333568719701031,-0.019889246570974795
53,0.04318,44.1919,561.837,-0.178857,158.084,0.491878,1.62292,-0.0169081,0.038636,-0.0205689,0.0294385,0.000122203,0.000443616,0.0412478,-0.01676596030872113,0.029876096144314523,0.00012221046709082195,0.039392076068467174,0.0004437144121296477,-0.020358803129281178
54,0.04418,44.2395,563.95,-0.367707,158.815,0.453157,1.59624,-0.0173003,0.0395098,-0.0210468,0.0301153,0.000124798,0.000454332,0.0422391,-0.017151509088030314,0.03057335221102253,0.00012480578759443972,0.04030069378180201,0.0004544352244151284,-0.020826861805736674
55,0.04518,45.0938,567.171,0.44061,159.226,0.649964,1.7531,-0.0176909,0.0403843,-0.0215213,0.0307855,0.000131712,0.000468314,0.0432278,-0.017535334742550313,0.03126427397369547,0.0001317206744062549,0.04121083463960162,0.00046842367612165425,-0.02129136924670416
56,0.04618,45.2933,569.429,0.445382,159.869,0.652583,1.75382,-0.0180823,0.0412569,-0.0219978,0.0314592,0.000136206,0.000480302,0.0442173,-0.017919796168522906,0.03195927079846528,0.0001362152764583513,0.042119791734212875,0.00048041736347470554,-0.021757612817905447
57,0.04718,44.9335,570.852,-0.208947,160.736,0.492456,1.65825,-0.0184742,0.0421274,-0.0224757,0.0321372,0.000137525,0.000490398,0.0452073,-0.018304597993561766,0.03265917642526284,0.00013753445699626887,0.043027351971200556,0.0004905182647576556,-0.02222500316292131
58,0.04818,44.9608,572.794,-0.407395,161.423,0.451901,1.62909,-0.0188649,0.0429977,-0.0229519,0.0328122,0.000140035,0.000501059,0.0461957,-0.01868807147070395,0.033356456674959345,0.0001400448053583414,0.04393549379621553,0.0005011845510294322,-0.022690508770733198
59,0.04918,45.8548,575.939,0.46493,161.767,0.666337,1.79657,-0.0192538,0.0438688,-0.0234246,0.0334801,0.000147199,0.000515202,0.0471813,-0.019069629480944927,0.0340468659888975,0.00014720983430449586,0.04484526219695972,0.0005153347393451746,-0.02315237379683821
60,0.05018,46.0399,578.047,0.467291,162.367,0.667906,1.79548,-0.0196438,0.0447379,-0.0238995,0.0341519,0.000151704,0.00052719,0.0481677,-0.019452117735389685,0.03474177206628504,0.00015171550763382058,0.04575373193267551,0.000527328989071485,-0.02361616859772997
61,0.05118,45.6414,579.287,-0.218844,163.204,0.498005,1.69293,-0.0200341,0.0456049,-0.0243758,0.0348281,0.000152882,0.000537192,0.0491548,-0.01983475089811848,0.03544170107188305,0.00015289368704851647,0.04666079357266306,0.0005373363134626441,-0.024081109482165464
62,0.05218,45.6611,581.097,-0.412294,163.85,0.45793,1.66344,-0.0204232,0.0464717,-0.0248503,0.0355012,0.000155387,0.000547848,0.0501401,-0.020216059008240417,0.036138891493988634,0.00015539907318529167,0.0475684324623975,0.0005479980961242692,-0.024544073148899836
63,0.05318,46.5429,584.109,0.458546,164.152,0.673982,1.83019,-0.0208107,0.0473393,-0.0253214,0.0361671,0.000162544,0.00056196,0.0511226,-0.02059565173453415,0.036829086156643376,0.00016255721099178722,0.04847769721641648,0.0005621179291026568,-0.025003502209027362
64,0.05418,46.7093,586.077,0.451545,164.718,0.673067,1.8267,-0.0211991,0.048205,-0.0257946,0.036837,0.000166975,0.000573883,0.052106,-0.02097597851915778,0.03752389066024442,0.00016698894110134255,0.049385757356017024,0.0005740477023539192,-0.02546476140924825
65,0.05518,46.3277,587.231,-0.200876,165.509,0.509728,1.72869,-0.0215879,0.0490685,-0.0262692,0.0375111,0.000168258,0.000583953,0.0530899,-0.021356549071000153,0.0382235212989519,0.00016827215617132296,0.05029229329805829,0.0005841235337460393,-0.02592716609617174
66,0.05618,46.3475,588.935,-0.381748,166.116,0.471841,1.70018,-0.0219754,0.0499319,-0.026742,0.0381821,0.000170835,0.000594644,0.0540721,-0.02173569994300939,0.03892040305942723,0.00017084959312962944,0.05119950725199818,0.0005948208357930973,-0.026387598877154916
67,0.05718,47.1673,591.758,0.425656,166.403,0.67384,1.85552,-0.0223614,0.050796,-0.0272116,0.0388464,0.000177741,0.000608551,0.0550516,-0.02211323709347368,0.039610787168872896,0.0001777567968674898,0.052108241308219894,0.0006087362047266787,-0.02684469992499605
68,0.05818,47.312,593.595,0.403876,166.941,0.669345,1.84905,-0.0227483,0.0516582,-0.0276832,0.0395145,0.000182028,0.000620359,0.0560319,-0.022491508300758523,0.040305583206552864,0.0001820445681015581,0.053015760209054186,0.0006205514624408881,-0.0273035317634599
69,0.05918,46.9936,594.742,-0.160535,167.672,0.526531,1.76522,-0.0231354,0.0525185,-0.0281559,0.0401861,0.000183626,0.000630627,0.0570124,-0.022869828609275333,0.04100448710189264,0.00018364286028593746,0.05392205945628592,0.000630825887012243,-0.027763216728894258
70,0.06018,47.7054,597.334,0.500425,167.97,0.707055,1.89325,-0.0235204,0.0533799,-0.0286247,0.0408494,0.000190431,0.000644273,0.0579898,-0.023245951316993696,0.04169521443258173,0.00019044913313392975,0.0548302990409304,0.0006444805884280314,-0.02821889451367343
71,0.06118,47.7571,598.977,0.383097,168.52,0.67164,1.8657,-0.0239063,0.0542394,-0.0290953,0.0415165,0.000194296,0.000655767,0.0589679,-0.02362280798520955,0.04239036115053785,0.00019431487669030467,0.05573731541740656,0.0006559820621867551,-0.028676107111353044
72,0.06218,47.502,600.151,-0.0913938,169.204,0.548313,1.79761,-0.0242923,0.0550973,-0.0295664,0.0421861,0.00019624,0.000666284,0.0599459,-0.023999616852537264,0.04308857947377076,0.0001962592563284904,0.05664342107875253,0.0006665060164903203,-0.029133590028730727
73,0.06318,48.0724,602.479,0.403356,169.534,0.687597,1.8947,-0.0246764,0.055956,-0.0300345,0.0428488,0.000202351,0.000679402,0.0609212,-0.024374426612881694,0.04378006337327145,0.00020237147434465363,0.05755115046226633,0.0006796328458149592,-0.02958794624486949
74,0.06418,47.4946,603.16,-0.45488,170.323,0.459719,1.74418,-0.025062,0.0568116,-0.0305059,0.0435199,0.000202388,0.000688469,0.0618983,-0.024750555311706224,0.04448077927272265,0.0002024084818330607,0.058456378427902855,0.0006887060491791441,-0.030045290682456538
75,0.06518,48.2891,605.779,0.326012,170.544,0.662767,1.88176,-0.0254449,0.0576689,-0.0309723,0.0441801,0.000209098,0.000701908,0.0628715,-0.02512390684136545,0.045170573159105665,0.0002091198625104873,0.0593641821555968,0.0007021543950658238,-0.030497572078661994
76,0.06618,48.446,607.463,0.341504,171.021,0.668327,1.88927,-0.0258287,0.0585244,-0.0314404,0.0448442,0.00021337,0.000713735,0.0638453,-0.025497992494290966,0.04586490146293576,0.0002133927649974332,0.060270855987864635,0.0007139897694341535,-0.030951289964216033
77,0.06718,48.1766,608.52,-0.140838,171.674,0.543489,1.81904,-0.0262127,0.0593781,-0.0319095,0.0455113,0.000215199,0.000724122,0.0648193,-0.025872129426284807,0.0465628307071182,0.0002152221569657886,0.06117639569224753,0.0007243842396293942,-0.0314057641088491
78,0.06818,48.798,610.829,0.430144,171.949,0.701731,1.92978,-0.0265948,0.0602326,-0.0323753,0.0461711,0.000221555,0.000737382,0.0657904,-0.026244272583153205,0.04725358071618779,0.0002215795451216973,0.06208355845245728,0.0007376539329424503,-0.03185683024246899
79,0.06918,48.15,611.315,-0.505664,172.734,0.452595,1.76312,-0.0269787,0.061084,-0.0328448,0.04684,0.000221228,0.000746141,0.0667637,-0.026618025660415046,0.04795432297344915,0.0002212524727185361,0.06298820144599926,0.0007464194324415807,-0.03231126677334695
80,0.07018,48.987,613.908,0.338859,172.903,0.673413,1.91287,-0.0273597,0.0619372,-0.033309,0.0474974,0.000228151,0.000759688,0.0677327,-0.0269888135530596,0.04864347464470664,0.00022817702841892995,0.06389552999078951,0.000759976636015125,-0.03276036363986368
81,0.07118,49.1382,615.498,0.357916,173.351,0.679616,1.92036,-0.0277416,0.0627886,-0.0337751,0.0481588,0.000232426,0.000771472,0.0687024,-0.02736033557851736,0.0493372768539353,0.00023245301301555443,0.0648017163538186,0.0007717696610642921,-0.03321108898466951
82,0.07218,48.8388,616.425,-0.151374,173.985,0.546756,1.84429,-0.0281238,0.0636381,-0.0342421,0.0488235,0.000234116,0.000781719,0.0696724,-0.027732007427244576,0.050035003205523676,0.00023414340728944438,0.06570664972789131,0.0007820246219292226,-0.03366247399950928
83,0.07318,49.4723,618.671,0.444418,174.223,0.712554,1.95947,-0.028504,0.0644886,-0.0347058,0.0494806,0.000240556,0.000794985,0.0706394,-0.02810159345526486,0.050725207948063344,0.00024058493591483376,0.06661341878236593,0.0007953010843302355,-0.03411046083654046
84,0.07418,48.7921,619.028,-0.521528,174.993,0.453387,1.78591,-0.028886,0.0653357,-0.0351733,0.0501472,0.000240061,0.000803587,0.0716087,-0.028472787743941907,0.051425854871356425,0.00024008981694767506,0.06751732980687875,0.0008039099625369861,-0.03456190866194786
85,0.07518,49.6305,621.547,0.334063,175.131,0.67881,1.93792,-0.0292651,0.0661849,-0.0356354,0.0508019,0.000247003,0.000817092,0.0725736,-0.028841023906533425,0.052114448765155696,0.00024703350775268085,0.06842425054739576,0.0008174259106072945,-0.03500793454173878
86,0.07618,49.772,623.046,0.350403,175.554,0.684205,1.94446,-0.0296452,0.0670321,-0.0360994,0.0514608,0.000251223,0.00082879,0.0735393,-0.02921009128764729,0.05280791541294527,0.00025125455914065675,0.06932980311036196,0.0008291335413332934,-0.035455586996710364
87,0.07718,49.4776,623.905,-0.144191,176.16,0.554006,1.87002,-0.0300255,0.0678776,-0.0365644,0.0521229,0.000252934,0.000839003,0.0745052,-0.02957921249708384,0.05350521034775513,0.000252965990501286,0.0702343037826676,0.0008393550614702594,-0.03590399588561044
88,0.07818,50.0824,626.038,0.425618,176.381,0.713893,1.98026,-0.0304039,0.068724,-0.037026,0.0527775,0.000259234,0.000852116,0.0754682,-0.02994635025623016,0.05419506062181001,0.0002592676040371611,0.07114053355972949,0.0008524791539812338,-0.03634891990474587
89,0.07918,49.4365,626.372,-0.490574,177.112,0.465862,1.81486,-0.0307841,0.0695671,-0.0374914,0.0534413,0.00025891,0.000860793,0.0764332,-0.03031509455113046,0.054895067609666226,0.0002589435200868184,0.0720439929433605,0.0008611635886202063,-0.03679729877156679
90,0.08018,49.5385,627.759,-0.518397,177.53,0.463488,1.812,-0.0311624,0.0704107,-0.0379539,0.0540994,0.000261625,0.000871434,0.0773958,-0.030681856973375554,0.055589522538990854,0.0002616592268052109,0.07294875082902696,0.0008718138089263139,-0.03724267701922612
91,0.08118,50.4069,630.241,0.395386,177.629,0.701681,1.98439,-0.0315393,0.0712551,-0.0384133,0.0547508,0.000268784,0.000885219,0.0783557,-0.03104712414256028,0.056277357557516394,0.00026882012565598856,0.07385513137423838,0.0008856109219761432,-0.03768486615478206
92,0.08218,50.5138,631.613,0.377175,178.032,0.697305,1.97748,-0.0319172,0.0720975,-0.0388749,0.0554067,0.00027288,0.000896697,0.0793165,-0.031413222255751494,0.05697039713382179,0.00027291723513411803,0.07476012806799703,0.0008970991529491101,-0.03812896831390111
93,0.08318,50.1955,632.356,-0.139675,178.619,0.560249,1.89721,-0.0322954,0.0729381,-0.0393375,0.0560658,0.000274478,0.000906761,0.0802776,-0.03177947251280522,0.05766727595375998,0.00027451567253300446,0.07566395125531589,0.000907172232042619,-0.03857382694942346
94,0.08418,50.7915,634.4,0.427732,178.813,0.721415,2.00709,-0.0326716,0.0737796,-0.0397967,0.0567173,0.000280757,0.000919783,0.0812357,-0.032143648569434635,0.058356570697425614,0.0002807964159352583,0.076569503427937,0.0009202061301027964,-0.03901521249821027
95,0.08518,50.1415,634.651,-0.484669,179.52,0.472189,1.8413,-0.0330496,0.074618,-0.0402596,0.0573779,0.000280403,0.000928385,0.0821958,-0.0325094291333935,0.05905595202824809,0.0002804423165958525,0.07747247777356381,0.000928816082747419,-0.03945994941404429
96,0.08618,50.247,635.969,-0.499657,179.908,0.472903,1.84013,-0.0334257,0.0754568,-0.0407196,0.0580329,0.000283162,0.000938992,0.0831534,-0.03287323391931796,0.05974986090717582,0.0002832020941434532,0.0783766408408979,0.0009394329910061838,-0.03990169622775719
97,0.08718,51.0727,638.319,0.370734,179.997,0.701701,2.00483,-0.0338005,0.0762963,-0.0411766,0.0586814,0.000290124,0.000952567,0.0841085,-0.033235645111145184,0.06043733158024667,0.0002901660900380687,0.07928231813573783,0.0009530208360364334,-0.04034036091006665
98,0.08818,51.1665,639.601,0.344818,180.378,0.695366,1.99642,-0.0341762,0.0771339,-0.0416358,0.0593343,0.000294107,0.000963904,0.0850645,-0.03359879025818957,0.06112991718400296,0.00029415025370393977,0.0801867037092121,0.0009643687047589111,-0.04078093545267991
99,0.08918,50.8877,640.332,-0.115975,180.924,0.571893,1.92525,-0.0345522,0.0779698,-0.0420958,0.05999,0.000295883,0.000974021,0.0860205,-0.03396208880864482,0.06182592823298583,0.0002959267776925234,0.08109000925879983,0.0009744955125035037,-0.04122207475255402
100,0.09018,51.4159,642.211,0.377652,181.12,0.71402,2.02127,-0.0349264,0.0788065,-0.0425528,0.0606388,0.000301801,0.000986724,0.0869739,-0.03432351256840982,0.06251506442683086,0.00030184654650367015,0.08199493579276984,0.0009872109722819378,-0.041660136159736405
101,0.09118,50.8611,642.531,-0.411686,181.765,0.496006,1.87759,-0.035302,0.0796402,-0.0430129,0.0612956,0.000301928,0.000995597,0.0879289,-0.03468615254903751,0.06321315354851853,0.0003019735848461824,0.08289737109862716,0.000996092771208934,-0.04210096691019849
102,0.09218,50.9627,643.779,-0.423799,182.13,0.496899,1.87586,-0.035676,0.0804743,-0.0434704,0.0619473,0.000304781,0.00100619,0.0888816,-0.03504711242428005,0.06390627538990645,0.00030482745044801973,0.08380099259881812,0.001006696378981653,-0.04253910548599582
103,0.09318,51.6769,645.905,0.319171,182.24,0.693586,2.01794,-0.0360488,0.081309,-0.0439254,0.0625935,0.000311222,0.00101934,0.0898321,-0.035406779814601164,0.06459399380295161,0.0003112704345911155,0.08470601894754082,0.0010198597035877555,-0.042974651098858674
104,0.09418,51.1167,646.175,-0.493834,182.875,0.477084,1.8692,-0.0364233,0.0821404,-0.0443844,0.0632488,0.000311231,0.001028,0.0907847,-0.03576795234178365,0.06529185087498757,0.0003112794373927308,0.08560821852408917,0.0010285285731088667,-0.04341382493589818
105,0.09518,51.2578,647.452,-0.448306,183.214,0.493436,1.88167,-0.0367962,0.0829722,-0.0448405,0.0638987,0.000314233,0.00103871,0.0917348,-0.036127447440328475,0.06598440907128089,0.00031428237636088596,0.08651160310581796,0.0010392496460611689,-0.04385002440749364
106,0.09618,51.9728,649.552,0.300697,183.312,0.692047,2.02498,-0.0371679,0.0838045,-0.0452943,0.0645433,0.000320654,0.00105181,0.0926828,-0.03648565229161915,0.06667176413210418,0.00032070541498918637,0.08741628314345617,0.0010523633461261284,-0.04428382682920351
107,0.09718,51.4321,649.822,-0.483676,183.929,0.481653,1.88128,-0.0375413,0.0846336,-0.045752,0.0651969,0.000320742,0.0010605,0.093633,-0.03684536138718586,0.06736916868412135,0.0003207934432152282,0.08831823383580284,0.0010610625289613207,-0.04472115803078358
108,0.09818,51.5765,651.076,-0.430745,184.256,0.499947,1.89496,-0.0379131,0.0854631,-0.0462069,0.0658452,0.000323782,0.0010712,0.0945807,-0.03720339571911535,0.06806136846849542,0.00032383442304939614,0.08922136833401773,0.0010717739396364223,-0.04515561555114045
109,0.09918,52.2612,653.104,0.284349,184.356,0.69032,2.03216,-0.0382838,0.086293,-0.0466596,0.0664884,0.000330057,0.00108416,0.0955263,-0.03756023827546806,0.06874856651989614,0.00033011147480466185,0.09012568834328283,0.0010847479138977878,-0.0455877757771328
110,0.1002,51.7549,653.396,-0.454892,184.949,0.491359,1.89661,-0.0386561,0.0871198,-0.0471159,0.0671402,0.000330321,0.00109295,0.0964739,-0.03791848790645136,0.06944540391018883,0.00033037556198900475,0.091027376969117,0.001093547487506008,-0.04602317473121975
111,0.1012,52.4099,655.366,0.222435,185.049,0.675124,2.02111,-0.0390262,0.0879481,-0.0475679,0.0677826,0.000336404,0.00110562,0.097418,-0.03827448839212366,0.07013263635308764,0.0003364605901712281,0.09193144931533381,0.0011062314231053971,-0.04645427482028153
112,0.1022,51.9912,655.768,-0.398607,185.605,0.504604,1.91282,-0.0393976,0.0887736,-0.0480231,0.0684327,0.000337084,0.00111477,0.0983637,-0.03863160692611811,0.07082855576407554,0.0003371408191956693,0.09283321087761975,0.0011153915870305564,-0.046888230058677816
113,0.1032,52.1315,656.971,-0.349962,185.916,0.523728,1.92551,-0.0397677,0.0895993,-0.048476,0.0690783,0.000340231,0.00112547,0.0993074,-0.038987343535274666,0.07152010588803703,0.00034028888513115696,0.09373593589857787,0.001126103579029536,-0.047319796643654266
114,0.1042,52.7069,658.799,0.236162,186.045,0.681158,2.0395,-0.0401369,0.0904251,-0.048927,0.0697197,0.000345989,0.00113802,0.100249,-0.03934208391893712,0.07220759933953436,0.0003460488610975698,0.09463951607134691,0.0011386677904696718,-0.047749358541878784
115,0.1052,52.3147,659.213,-0.360224,186.575,0.520483,1.9302,-0.0405072,0.0912484,-0.049381,0.0703679,0.000346859,0.00114716,0.101192,-0.03969774968968032,0.07290282960521277,0.0003469191625387058,0.09554110387262038,0.001147818239710885,-0.04818158221090385
116,0.1062,52.4393,660.371,-0.323538,186.885,0.533366,1.9389,-0.0408763,0.0920717,-0.0498328,0.071012,0.000349958,0.00115779,0.102134,-0.04005213184501988,0.073594108920366,0.0003500192424448212,0.09644343425677304,0.001158460497582281,-0.04861151664255958
117,0.1072,52.9807,662.126,0.226389,187.018,0.680651,2.04658,-0.0412445,0.0928953,-0.0502827,0.0716521,0.000355557,0.00117021,0.103073,-0.040405519587398686,0.07428153649721025,0.00035562021788249076,0.09734683703942659,0.0011708949628794763,-0.049039450050383904
118,0.1082,52.6157,662.555,-0.334731,187.529,0.529509,1.9437,-0.0416138,0.0937163,-0.0507353,0.0722986,0.000356573,0.00117941,0.104014,-0.04075983240112713,0.07497628406350842,0.0003566365797089688,0.09824812872224631,0.0011801057774827317,-0.04946975740939008
119,0.1092,53.4144,664.669,0.529308,187.548,0.766837,2.11207,-0.0419809,0.0945388,-0.0511836,0.0729355,0.000363757,0.00119287,0.104951,-0.04111190483980276,0.07566115453267841,0.00036382316760019684,0.09915180939585189,0.0011935817523995862,-0.049895784616010186
120,0.1102,53.3715,665.555,0.361264,187.911,0.719553,2.07267,-0.0423492,0.0953591,-0.0516343,0.0735778,0.000367117,0.0012035,0.10589,-0.04146499829909844,0.07635227362136998,0.00036718439569294326,0.1000538135315161,0.0012042244967398474,-0.05032390010281185
121,0.1112,53.1119,666.116,-0.0522619,188.378,0.605028,2.00821,-0.0427174,0.0961781,-0.0520854,0.0742217,0.000368989,0.00121344,0.106828,-0.04181786591980918,0.07704556002996066,0.0003690570848149388,0.1009551266421369,0.001214176516192822,-0.050752202380633715
122,0.1122,53.5037,667.609,0.297618,188.556,0.711076,2.07667,-0.0430841,0.0969976,-0.0525339,0.0748601,0.000374194,0.00122538,0.107764,-0.04216916689340633,0.07773336543961062,0.0003742640193080682,0.10185772915928726,0.0012261310848289408,-0.05117784456047225
123,0.1132,53.1025,667.958,-0.281913,189.07,0.544625,1.97008,-0.0434518,0.0978148,-0.0529846,0.0755042,0.000375065,0.00123453,0.1087,-0.04252129654773518,0.07842775710511951,0.00037513534567157336,0.10275853531482038,0.001235292345841188,-0.05160538235305012
124,0.1142,53.8514,669.957,0.507284,189.093,0.768134,2.12031,-0.0438172,0.0986336,-0.0534311,0.0761388,0.000382029,0.00124766,0.109634,-0.042871095353842814,0.07911234455640215,0.0003821019823719851,0.10366184376754939,0.001248438651535011,-0.0520287460268557
125,0.1152,53.7926,670.787,0.330207,189.45,0.715624,2.07981,-0.0441838,0.0994501,-0.0538799,0.0767786,0.000385251,0.00125816,0.110568,-0.04322191450120727,0.07980298154566312,0.0003853252186971634,0.10456335165349584,0.0012589518153347523,-0.052454100069052156
126,0.1162,53.5713,671.369,-0.0306226,189.888,0.61404,2.02477,-0.0445502,0.100265,-0.0543288,0.0774197,0.000387291,0.00126816,0.111502,-0.043572413776345686,0.08049546518904593,0.00038736600684208256,0.10546382717767955,0.0012689644549159773,-0.052879357967254736
127,0.1172,53.9072,672.748,0.256289,190.076,0.70275,2.0813,-0.0449153,0.101081,-0.0547756,0.0780559,0.000392184,0.00127983,0.112434,-0.04392154175088603,0.08118309511588562,0.000392260914199527,0.1063662538006449,0.001280649331912409,-0.05330243694723258
128,0.1182,53.5823,673.173,-0.226505,190.546,0.562352,1.99282,-0.0452812,0.101895,-0.055224,0.0786968,0.00039344,0.00128918,0.113367,-0.04427130686532943,0.08187624745848754,0.00039351740766813137,0.10726720256763977,0.0012900113497509302,-0.053726840976011214
129,0.1192,54.2132,674.968,0.423457,190.605,0.748209,2.1168,-0.0456451,0.102709,-0.055669,0.0793297,0.000399773,0.00130182,0.114296,-0.044619033264105545,0.08256118366070186,0.0003998529198754319,0.10816888500549426,0.0013026677354825988,-0.054147838852801944
130,0.1202,53.5361,674.866,-0.490103,191.219,0.490182,1.94618,-0.0460109,0.103521,-0.0561179,0.0799723,0.000399152,0.00130985,0.115228,-0.04496844770993913,0.08325706103877772,0.0003992316717595923,0.10906908357127487,0.0013107082281871296,-0.05457233660229266
131,0.1212,53.6738,675.936,-0.429393,191.483,0.511036,1.95849,-0.0463748,0.104333,-0.0565637,0.0806086,0.000402118,0.0013202,0.116158,-0.045315920465315296,0.0839465568465445,0.0004021988602811444,0.10997001339514134,0.001321071847648847,-0.05499371432256284
132,0.1222,54.3242,677.749,0.262214,191.527,0.700331,2.0915,-0.0467376,0.105145,-0.0570073,0.0812401,0.000408206,0.00133273,0.117085,-0.04566221702737561,0.0846312852774398,0.00040828932740710755,0.1108716750711165,0.0013336184792835937,-0.055412826145014416
133,0.1232,54.3752,678.682,0.219183,191.82,0.689307,2.0801,-0.0471013,0.105956,-0.0574526,0.0818752,0.000411725,0.00134337,0.118013,-0.04600924656789551,0.08532035339713961,0.000411809770371363,0.11177295742019244,0.0013442727256647302,-0.055833357175349096
134,0.1242,54.2613,679.371,-0.0141857,192.186,0.624727,2.04159,-0.0474648,0.106766,-0.0578981,0.0825112,0.00041422,0.00135345,0.11894,-0.04635595918793167,0.08601083669231313,0.00041430580095069836,0.11267385833131494,0.0013543663268054118,-0.05625388973414469
135,0.1252,54.3964,680.416,0.0508523,192.441,0.644492,2.05862,-0.0478275,0.107575,-0.0583423,0.0831449,0.000417867,0.00136429,0.119866,-0.04670178316256535,0.0866992598633689,0.00041795431857694076,0.11357437569286333,0.0013652210669690135,-0.056673008663119195
136,0.1262,54.4184,681.289,-0.0167415,192.746,0.626435,2.05503,-0.0481901,0.108384,-0.0587865,0.083779,0.000420937,0.00137482,0.120791,-0.04704738643433082,0.08738855438177939,0.00042102560641121833,0.11447562186772275,0.0013757654982631262,-0.057091941460808315
137,0.1272,54.5844,682.365,0.0838309,192.984,0.658575,2.07994,-0.0485522,0.109192,-0.0592299,0.0844114,0.000424797,0.00138581,0.121716,-0.04739238810938007,0.0880764363889357,0.0004248872390228975,0.11537648206870132,0.0013867706783994294,-0.057509934218122005
138,0.1282,54.546,683.141,-0.0546219,193.308,0.619335,2.05911,-0.0489142,0.109998,-0.0596735,0.0850449,0.000427549,0.0013961,0.12264,-0.04773716965565944,0.08876595119214215,0.00042764041210086035,0.11627583790496288,0.001397075001285275,-0.057927930092963376
139,0.1292,54.6063,684.054,-0.0808142,193.584,0.61453,2.05614,-0.0492757,0.110805,-0.0601164,0.0856772,0.000430697,0.00140657,0.123563,-0.04808135045440132,0.08945459559506541,0.00043078976327004526,0.1171770360907114,0.0014075596835478876,-0.058345081427743084
140,0.1302,54.8254,685.193,0.0965031,193.796,0.662873,2.09779,-0.0496367,0.11161,-0.0605584,0.0863077,0.000434759,0.00141778,0.124485,-0.048424931066855414,0.09014171330868481,0.0004348535213916094,0.11807672568123961,0.0014187855252125736,-0.05876120093256687
141,0.1312,54.8643,686.063,0.0439176,194.078,0.651236,2.08945,-0.0499976,0.112415,-0.0610006,0.086939,0.000438001,0.0014283,0.125406,-0.04876829254592763,0.090830137050387,0.0004380969364441434,0.1189771398134769,0.001429320506250109,-0.05917732471776482
142,0.1322,54.9348,686.974,0.0421458,194.351,0.650175,2.09878,-0.0503582,0.113219,-0.0614423,0.0875696,0.000441363,0.00143906,0.126327,-0.049111244861616776,0.09151823146817883,0.00044146041498005495,0.1198771591931953,0.0014400959437106398,-0.059592794330218246
143,0.1332,55.0003,687.868,0.0199027,194.619,0.649436,2.09956,-0.0507184,0.114023,-0.0618838,0.0881997,0.000444716,0.0014497,0.127247,-0.04945369331254912,0.09220621383190841,0.0004448149008207114,0.12077790247946663,0.0014507513230179736,-0.060007892471864
144,0.1342,55.0844,688.791,0.0372226,194.88,0.652565,2.10916,-0.0510782,0.114826,-0.0623246,0.0888292,0.000448127,0.00146046,0.128166,-0.0497956383540934,0.0928939740933461,0.0004482274239043793,0.12167824857573595,0.0014615269910751572,-0.06042214968386517
145,0.1352,55.1457,689.669,0.0127624,195.147,0.649441,2.10878,-0.0514378,0.115627,-0.0627653,0.0894583,0.000451435,0.00147108,0.129084,-0.050137270413415536,0.09358173000338721,0.0004515369121145252,0.1225770727838833,0.0014721625689666507,-0.06083613041514524
146,0.1362,55.2407,690.597,0.0426937,195.399,0.656958,2.12076,-0.051797,0.116429,-0.0632054,0.0900867,0.000454908,0.00148188,0.130002,-0.05047839983537106,0.09426915272812031,0.00045501148633597666,0.12347774071582052,0.0014829785267285178,-0.061249365495100294
147,0.1372,55.2875,691.444,0.00315062,195.669,0.649152,2.11787,-0.0521559,0.117229,-0.0636453,0.0907149,0.000458141,0.00149246,0.130919,-0.0508191219914218,0.09495678857366951,0.0004582459626165658,0.12437688251715961,0.0014935742726926993,-0.06166223108277513
148,0.1382,55.4006,692.387,0.0547546,195.91,0.663364,2.13393,-0.0525144,0.118029,-0.0640846,0.0913421,0.000461716,0.00150333,0.131834,-0.0511593423480452,0.09564376088345905,0.00046182260723903745,0.12527674391974175,0.0015044605670118116,-0.06207435233559955
149,0.1392,55.4215,693.186,-0.014173,196.187,0.646786,2.12554,-0.0528727,0.118828,-0.0645238,0.0919696,0.000464812,0.00151383,0.13275,-0.051499251057400164,0.09633149309682887,0.0004649200418367361,0.12617619932271595,0.0015149764190560688,-0.06248619883194284
150,0.1402,55.5676,694.167,0.0775749,196.41,0.672772,2.14926,-0.0532306,0.119627,-0.0649622,0.0925955,0.000468568,0.00152482,0.133664,-0.051838658734819854,0.09701790176754321,0.0004686777951334875,0.12707637367774027,0.0015259831291285497,-0.06289711480301274
151,0.1412,55.5423,694.89,-0.0457058,196.705,0.640445,2.1305,-0.0535883,0.120424,-0.0654009,0.0932223,0.00047142,0.00153516,0.134578,-0.05217775539553704,0.09770572813063394,0.0004715311358713947,0.1279750116072078,0.0015363389613336498,-0.06330813167560567
152,0.1422,55.5978,695.728,-0.0683782,196.961,0.635789,2.129,-0.0539456,0.121221,-0.0658388,0.093848,0.000474586,0.00154569,0.135491,-0.05251635178968628,0.09839277752571363,0.0004746986337531567,0.1288743660365923,0.0015468851945088513,-0.0637182192495176
153,0.1432,55.7905,696.763,0.0841037,197.161,0.677595,2.16636,-0.0543023,0.122018,-0.0662759,0.0944721,0.000478542,0.00155686,0.136402,-0.052854258937680254,0.0990784984151134,0.0004786565194896397,0.12977443753717188,0.0015580725356976188,-0.06412737858759587
154,0.1442,55.8253,697.56,0.0337319,197.422,0.666378,2.15894,-0.054659,0.122813,-0.0667132,0.0950968,0.000481769,0.00156741,0.137314,-0.053192045575688685,0.09976530725547916,0.0004818850693235621,0.1306729653324883,0.0015686390291009822,-0.06453654621391758
155,0.1452,55.9,698.411,0.043334,197.671,0.668651,2.17027,-0.0550153,0.123608,-0.06715,0.0957209,0.00048517,0.00157823,0.138224,-0.05352933315849906,0.10045188500803959,0.0004852877140006928,0.1315722077414232,0.0015794760604035396,-0.06494506742300399
156,0.1462,55.9513,699.22,0.0111519,197.923,0.664682,2.16935,-0.0553713,0.124402,-0.0675865,0.0963445,0.000488465,0.00158887,0.139134,-0.05386621674705794,0.10113834081820672,0.0004885843184549987,0.13247103286072126,0.001590132922723253,-0.06535312983497332
157,0.1472,56.0433,700.091,0.0436786,198.158,0.672566,2.18208,-0.055727,0.125195,-0.0680224,0.0969674,0.000491941,0.00159972,0.140043,-0.05420269668725597,0.10182445355833081,0.0004920620228183736,0.13336943856055972,0.0016010002346205088,-0.06576045362300909
158,0.1482,56.0827,700.874,-0.000357154,198.414,0.663599,2.17823,-0.0560824,0.125988,-0.0684582,0.0975902,0.000495154,0.00161031,0.140951,-0.054538773324497414,0.10251088356012183,0.0004952766089778571,0.13426855697867346,0.0016116072453769004,-0.0661675065140529
159,0.1492,56.1945,701.764,0.0556832,198.637,0.678978,2.19545,-0.0564373,0.12678,-0.0688933,0.0982119,0.000498742,0.00162123,0.141859,-0.05487425797857137,0.10319652768682386,0.0004988663924703207,0.13516725351265158,0.0016225449038476114,-0.0665737286519339
160,0.1502,56.2075,702.5,-0.0182123,198.901,0.661065,2.18617,-0.0567921,0.127571,-0.0693284,0.0988339,0.000501816,0.00163175,0.142766,-0.055209529111224565,0.10388292937584054,0.0005019419307126238,0.13606552603012467,0.001633082028445143,-0.06697977408100864
161,0.1512,56.3531,703.43,0.078566,199.106,0.688617,2.21121,-0.0571464,0.128362,-0.0697627,0.0994543,0.00050559,0.0016428,0.143671,-0.055544209083002394,0.1045679908293149,0.0005057178321667966,0.13696450936224935,0.0016441501351527332,-0.06738489678636206
162,0.1522,56.32,704.091,-0.0495508,199.387,0.654771,2.19154,-0.0575006,0.129152,-0.0701972,0.100076,0.000508419,0.00165316,0.144577,-0.05587867608654207,0.10525491425723588,0.0005085482668460983,0.13786306620786704,0.0016545272223014162,-0.06779003002713802
163,0.1532,56.3756,704.88,-0.066879,199.626,0.651621,2.1915,-0.0578544,0.129941,-0.0706311,0.100696,0.000511609,0.00166375,0.145481,-0.056212647127981796,0.10594038477797896,0.0005117398942056095,0.13876119443209745,0.001665134799911705,-0.06819442819258259
164,0.1542,56.5576,705.85,0.0772756,199.814,0.69158,2.22739,-0.0582076,0.13073,-0.0710641,0.101315,0.000515532,0.00167495,0.146385,-0.05654593395909702,0.10662517379649228,0.0005156649094602006,0.13966003155912232,0.0016763535122461537,-0.06859781266613418
165,0.1552,56.5905,706.596,0.0298226,200.059,0.681088,2.22093,-0.0585608,0.131518,-0.0714973,0.101934,0.000518764,0.00168555,0.147288,-0.05687910309408983,0.10731038683062755,0.0005188985813149305,0.1405584375894786,0.0016869713378677709,-0.06900120871179527
166,0.1562,56.663,707.396,0.0412098,200.292,0.683977,2.23253,-0.0589136,0.132305,-0.0719299,0.102553,0.000522172,0.00169642,0.14819,-0.05721177745930961,0.10799602414293141,0.0005223083555314645,0.1414564103858087,0.0016978597344246005,-0.06940387168662543
167,0.1572,56.71,708.152,0.00918413,200.531,0.679771,2.23181,-0.0592661,0.133091,-0.0723624,0.103171,0.000525462,0.0017071,0.149091,-0.057544051740972435,0.1086809773145816,0.0005256000793407711,0.14235394781037192,0.0017085579246947091,-0.06980626748775642
168,0.1582,56.7988,708.971,0.0420388,200.751,0.688073,2.24476,-0.0596183,0.133877,-0.0727942,0.103788,0.000528944,0.00171799,0.149992,-0.057875926279412404,0.10936524455231988,0.0005290839155456251,0.14325219097667108,0.001719466590287988,-0.07020783843604805
169,0.1592,56.8341,709.703,-0.00172961,200.993,0.678959,2.24121,-0.0599702,0.134662,-0.0732259,0.104406,0.000532156,0.00172864,0.150892,-0.058207401414483995,0.11005104416370615,0.0005322976201243002,0.14414999628906866,0.0017301349594163185,-0.0706091430843544
170,0.1602,56.9418,710.541,0.0534002,201.202,0.69444,2.25843,-0.0603217,0.135446,-0.073657,0.105022,0.000535745,0.00173961,0.15179,-0.05853838333940575,0.11073504625792707,0.0005358885369843858,0.14504736160739973,0.00174112399927151,-0.07100971713283077
171,0.1612,56.9523,711.229,-0.0183909,201.452,0.676836,2.24975,-0.060673,0.13623,-0.074088,0.105639,0.000538826,0.00175018,0.152689,-0.05886906071845621,0.1114205812472644,0.0005389711928058816,0.1459454307359982,0.0017517124589121469,-0.07141002567205956
172,0.1622,57.0913,712.105,0.0744135,201.645,0.703687,2.27423,-0.0610238,0.137013,-0.0745183,0.106254,0.00054259,0.00176127,0.153586,-0.05919915155063915,0.11210431513135033,0.0005427372285811138,0.14684305738323644,0.0017628219470051665,-0.07180951198236918
173,0.1632,57.0597,712.724,-0.046841,201.91,0.671408,2.25604,-0.0613745,0.137795,-0.0749487,0.10687,0.000545448,0.00177172,0.154483,-0.05952903256017428,0.11278958243013015,0.000545596783810387,0.14774023940656056,0.0017732904231924085,-0.07220891920981098
174,0.1642,57.1142,713.468,-0.0612518,202.135,0.669159,2.2569,-0.0617248,0.138577,-0.0753785,0.107485,0.000548663,0.00178238,0.15538,-0.05985842184416701,0.11347415850889209,0.0005488135430748997,0.14863812330062243,0.0017839693833869852,-0.07260759813409645
175,0.1652,57.2818,714.374,0.0696564,202.313,0.705829,2.2904,-0.0620746,0.139358,-0.0758075,0.108098,0.000552539,0.00179359,0.156275,-0.0601872258570314,0.11415692741534755,0.0005526916777920388,0.14953556007836522,0.0017951994446281372,-0.07300536414758663
176,0.1662,57.2434,714.971,-0.061119,202.578,0.6721,2.27077,-0.0624245,0.140138,-0.0762369,0.108713,0.000555363,0.00180402,0.157169,-0.06051600882276975,0.11484234466991028,0.0005555172425830701,0.15043254759488045,0.0018056482230486282,-0.07340333019479639
177,0.1672,57.3041,715.713,-0.0657722,202.796,0.672442,2.27397,-0.0627738,0.140918,-0.0766656,0.109326,0.000558608,0.00181473,0.158063,-0.060844113274109546,0.11552595253159592,0.0005587640505044789,0.1513302350345933,0.0018163776189970005,-0.07380047705263049
178,0.1682,57.472,716.61,0.0665008,202.971,0.709591,2.30768,-0.0631227,0.141697,-0.0770936,0.109938,0.000562488,0.00182596,0.158956,-0.06117172760734435,0.11620886336394487,0.0005626462260404086,0.15222747071560971,0.00182762808008885,-0.07419680562808673
179,0.1692,57.4355,717.199,-0.0603459,203.231,0.676728,2.2889,-0.0634716,0.142475,-0.0775219,0.110551,0.000565326,0.00183641,0.159849,-0.061499227655876454,0.11689330915839036,0.0005654858268597796,0.15312425249070305,0.0018380972335034773,-0.07459324223327701
180,0.1702,57.4963,717.931,-0.0638589,203.446,0.67746,2.29242,-0.06382,0.143252,-0.0779495,0.111163,0.000568581,0.00184715,0.16074,-0.06182614437276224,0.11757705706911481,0.0005687426728167022,0.15402057821233628,0.0018488570324477482,-0.07498886157345519
181,0.1712,57.6598,718.81,0.0640853,203.618,0.713507,2.32532,-0.0641679,0.144029,-0.0783763,0.111774,0.000572447,0.00185838,0.161631,-0.06215247828805892,0.11826010530096909,0.000572610879053137,0.1549176006496944,0.001860107858285609,-0.0753835720901197
182,0.1722,57.6266,719.394,-0.0575282,203.873,0.68205,2.30759,-0.0645159,0.144805,-0.0788035,0.112385,0.000575309,0.00186887,0.162521,-0.06247879244365839,0.11894357100281727,0.0005754745219632706,0.15581416452959318,0.0018706174259395247,-0.07577848386896091
183,0.1732,57.6865,720.114,-0.0611359,204.085,0.682769,2.31116,-0.0648634,0.145581,-0.07923,0.112996,0.000578571,0.00187963,0.163411,-0.06280452446406781,0.11962745442981126,0.0005787384044846355,0.15671142441307717,0.001881397611780411,-0.07617258029855323
184,0.1742,57.8452,720.977,0.0618998,204.256,0.717523,2.34317,-0.0652104,0.146356,-0.0796558,0.113605,0.00058242,0.00189087,0.164299,-0.06312967487721954,0.1203095152159881,0.0005825896394604513,0.1576082232316529,0.001892658821977422,-0.07656586227818662
185,0.1752,57.8153,721.555,-0.0546226,204.507,0.687455,2.32645,-0.0655575,0.14713,-0.0800819,0.114215,0.000585307,0.0019014,0.165187,-0.06345480613727517,0.12099311249624312,0.0005854783255665463,0.1585045588335643,0.0019032088072203912,-0.07695925374626555
186,0.1762,57.8741,722.264,-0.0584719,204.715,0.688108,2.33005,-0.0659041,0.147903,-0.0805074,0.114824,0.000588575,0.00191218,0.166074,-0.06377935645364907,0.12167600522148225,0.0005887482442528125,0.15940042906677876,0.0019140093820262383,-0.07735192403726776
187,0.1772,58.0281,723.11,0.059832,204.885,0.72161,2.36119,-0.0662502,0.148676,-0.0809321,0.115432,0.000592409,0.00192343,0.166961,-0.06410332635215565,0.1223581915962999,0.0005925845088676773,0.1602969920754067,0.0019252809780343494,-0.07774368947784926
188,0.1782,58.0012,723.683,-0.0518893,205.131,0.692853,2.34542,-0.0665963,0.149448,-0.0813572,0.116041,0.00059532,0.00193399,0.167846,-0.06442718414408155,0.12304191590790303,0.0005954972381205792,0.16119308720150283,0.0019358613648658984,-0.07813565731678529
189,0.1792,58.0591,724.381,-0.0559657,205.336,0.693443,2.34905,-0.066942,0.15022,-0.0817815,0.116648,0.000598594,0.0019448,0.168731,-0.06475055576851718,0.12372380928456206,0.0005987731931413887,0.162089874380134,0.0019466923500686129,-0.07852672138727623
190,0.1802,58.2086,725.21,0.0578444,205.505,0.725757,2.37938,-0.0672872,0.150991,-0.0822052,0.117255,0.000602414,0.00195606,0.169615,-0.06507334815949384,0.12440611669614765,0.0006025954877555417,0.1629861911589987,0.001957974333341994,-0.07891706691488487
191,0.1812,58.1846,725.778,-0.0493313,205.746,0.698241,2.36452,-0.0676324,0.151761,-0.0826292,0.117862,0.000605347,0.00196666,0.170499,-0.06539602914176723,0.12508883839405516,0.0006055302594718537,0.16388203538195478,0.0019685951441601457,-0.07930752329591062
192,0.1822,58.2414,726.466,-0.0536062,205.949,0.698779,2.36818,-0.0679772,0.15253,-0.0830525,0.118468,0.000608628,0.00197749,0.171382,-0.0657182250411541,0.12577084885842105,0.0006088132516024469,0.1647774048926165,0.0019794465228055724,-0.07969716994676768
193,0.1832,58.3867,727.28,0.055923,206.115,0.729959,2.39772,-0.0683215,0.153299,-0.0834751,0.119073,0.000612435,0.00198876,0.172264,-0.06603984288658316,0.12645214629367363,0.0006126225766054372,0.16567346320724297,0.0019907388948003923,-0.08008600775553221
194,0.1842,58.3654,727.843,-0.0469286,206.352,0.703624,2.38372,-0.0686658,0.154067,-0.083898,0.119679,0.00061539,0.00199939,0.173145,-0.06636135001804866,0.1271349831730051,0.0006155793912738794,0.16656904428610098,0.0020013901129658507,-0.08047495713370956
195,0.1852,58.5376,728.691,0.0950442,206.503,0.745255,2.41862,-0.0690095,0.154835,-0.0843198,0.120283,0.000619387,0.00201079,0.174025,-0.0666821864831425,0.12781597834267977,0.0006195788597376239,0.1674653134354125,0.0020128129939234185,-0.08086273100953101
196,0.1862,58.5497,729.3,0.0340792,206.721,0.729873,2.40972,-0.0693531,0.155602,-0.0847419,0.120888,0.000622591,0.00202156,0.174905,-0.06700281939597796,0.12849851345563001,0.000622784850004221,0.16836110282213212,0.002023604730032824,-0.08125061698167835
197,0.1872,58.6067,729.972,0.0376156,206.923,0.730641,2.41983,-0.0696964,0.156368,-0.0851634,0.121492,0.000625996,0.00203261,0.175785,-0.06732306235523022,0.1291803324463643,0.000626191976387247,0.16925641028587513,0.0020346771520400875,-0.0816377882445447
198,0.1882,58.6461,730.612,0.00806958,207.129,0.726692,2.42,-0.0700394,0.157133,-0.0855847,0.122095,0.000629316,0.0020435,0.176663,-0.0676429156868601,0.1298614335181647,0.0006295140608594263,0.17015123366604734,0.002045589369091161,-0.08202461275405282
199,0.1892,58.7207,731.306,0.0339046,207.319,0.733568,2.43204,-0.070382,0.157898,-0.0860054,0.122698,0.000632798,0.00205459,0.177541,-0.0679622865125995,0.13054294541776357,0.0006329982588932914,0.1710467418480086,0.002056702116297382,-0.0824107237753191
200,0.1902,58.754,731.932,-0.000689973,207.525,0.726712,2.43083,-0.0707244,0.158662,-0.086426,0.1233,0.000636069,0.00206547,0.178418,-0.06828136159692588,0.13122373716866198,0.0006362713347838334,0.17194176341348344,0.002067604552525637,-0.08279658067350515
201,0.1912,58.8423,732.64,0.0406579,207.707,0.73893,2.44587,-0.0710665,0.159426,-0.086846,0.123902,0.000639631,0.00207661,0.179294,-0.06860004802870134,0.13190493887957988,0.0006398356075301148,0.17283746903671116,0.002078767647818669,-0.08318172522360523
202,0.1922,58.8596,733.237,-0.0114607,207.919,0.726498,2.44153,-0.0714083,0.160189,-0.0872659,0.124504,0.00064282,0.00208747,0.180169,-0.06891834613204051,0.1325865507973878,0.0006430266530541573,0.1737326855072392,0.0020896502823277707,-0.08356661640362528
203,0.1932,58.9675,733.968,0.0532396,208.09,0.746078,2.46107,-0.0717497,0.160951,-0.0876852,0.125105,0.000646495,0.00209869,0.181044,-0.06923616315421843,0.1332674399010978,0.000646704022934097,0.17462741066058607,0.0021008937912798675,-0.08395079637240821
204,0.1942,58.9593,734.523,-0.0283576,208.311,0.724577,2.45106,-0.072091,0.161713,-0.0881045,0.125706,0.000649549,0.00210948,0.181918,-0.06955377864756673,0.1339487383421527,0.000649760002634725,0.175522817854324,0.002111706518258538,-0.08433481528829723
205,0.1952,59.0982,735.294,0.0738992,208.466,0.755558,2.47795,-0.0724318,0.162474,-0.088523,0.126305,0.000653399,0.00212083,0.182791,-0.06987082069277062,0.1346281771080149,0.0006536125116267666,0.176417731190047,0.002123080550675116,-0.08471794099345353
206,0.1962,59.05,735.785,-0.055169,208.703,0.719784,2.45866,-0.0727725,0.163234,-0.0889417,0.126906,0.00065624,0.00213149,0.183664,-0.07018766172722557,0.13531029359793023,0.0006564553725783018,0.1773121485012783,0.0021337632396523087,-0.08510108937384864
207,0.1972,59.1065,736.428,-0.0564217,208.892,0.721686,2.46323,-0.0731128,0.163994,-0.0893598,0.127505,0.000659556,0.00214245,0.184536,-0.07050402303401049,0.13599054817970302,0.0006597735548858896,0.17820724582803948,0.0021447466858866004,-0.08548352865387887
208,0.1982,59.2473,737.194,0.0514983,209.045,0.752947,2.49245,-0.0734526,0.164753,-0.0897772,0.128103,0.000663379,0.00215384,0.185407,-0.07081981211138078,0.13667007368539053,0.0006635990845125228,0.1791018445849044,0.002156161179556859,-0.08586516817530976
209,0.1992,59.2261,737.716,-0.0462419,209.267,0.727683,2.47957,-0.0737925,0.165511,-0.0901948,0.128702,0.000666372,0.00216461,0.186278,-0.07113558678829757,0.13735114301942963,0.000666594075146687,0.17999594260343899,0.0021669544595344092,-0.08624683118429699
210,0.2002,59.3884,738.508,0.0875322,209.407,0.767548,2.51315,-0.0741317,0.166269,-0.0906114,0.129299,0.000670357,0.00217611,0.187147,-0.0714506041672911,0.13803034437324357,0.0006705817394694336,0.1808907186051949,0.0021784794457793133,-0.08662742147196423
211,0.2012,59.3997,739.075,0.0304093,209.611,0.7532,2.50558,-0.0744709,0.167026,-0.0910283,0.129896,0.000673592,0.00218703,0.188017,-0.07176551471051007,0.13870995133132658,0.0006738189140376161,0.18178499131869597,0.0021894232945280923,-0.08700812713634276
212,0.2022,59.4533,739.701,0.0337324,209.8,0.75407,2.51554,-0.0748098,0.167783,-0.0914446,0.130493,0.000677016,0.00219819,0.188885,-0.07208004007824076,0.13938996413589644,0.0006772452270593643,0.18267994125293674,0.0022006077909013655,-0.08738812655064976
213,0.2032,59.4905,740.298,0.00662682,209.992,0.750499,2.51639,-0.0751483,0.168538,-0.0918607,0.13109,0.000680361,0.00220922,0.189753,-0.07239408782909373,0.1400703830293164,0.0006805924980428646,0.18357320177199687,0.002211662124569802,-0.08776778535769947
214,0.2042,59.56,740.945,0.029881,210.17,0.756975,2.52811,-0.0754866,0.169294,-0.0922762,0.131686,0.000683856,0.00222043,0.190619,-0.07270784383436046,0.14075006750345564,0.0006840898828253117,0.1844683214251328,0.0022228969802735588,-0.08814673910978943
215,0.2052,59.5925,741.531,-0.000899699,210.363,0.751021,2.52794,-0.0758245,0.170048,-0.0926916,0.132281,0.000687163,0.00223146,0.191486,-0.07302112292244611,0.14142901576069633,0.0006873991505824684,0.1853617473187219,0.0022339515597931126,-0.08852544429185116
216,0.2062,59.6734,742.189,0.0352189,210.534,0.762052,2.54214,-0.0761622,0.170802,-0.0931065,0.132876,0.000690727,0.00224271,0.192351,-0.07333411083825114,0.14210836811235628,0.0006909656068285752,0.1862558471094622,0.002245226755171137,-0.08890353664433215
217,0.2072,59.6928,742.751,-0.00965752,210.731,0.751512,2.53947,-0.0764996,0.171555,-0.0935212,0.133471,0.000693966,0.00225372,0.193216,-0.07364671516993804,0.1427881247989431,0.000694206850115231,0.1871494341556359,0.0022562615358638904,-0.08928129001511065
218,0.2082,59.7894,743.427,0.0450865,210.893,0.768527,2.55728,-0.0768366,0.172308,-0.0939354,0.134065,0.000697623,0.00226505,0.19408,-0.07395884363032623,0.14346714259339355,0.0006978663955212738,0.1880436943262549,0.0022676171636366593,-0.08965843159337361
219,0.2092,59.7887,743.955,-0.0229155,211.098,0.750758,2.55015,-0.0771735,0.17306,-0.0943495,0.134659,0.000700757,0.00227602,0.194944,-0.07427077434822738,0.14414656384422853,0.0007010025875489045,0.1889374391903389,0.002278612099704036,-0.09003532599547903
220,0.2102,59.9093,744.662,0.0608578,211.247,0.77671,2.57366,-0.0775099,0.173811,-0.0947629,0.135252,0.000704551,0.00228745,0.195806,-0.0745821372855543,0.1448252439653559,0.0007047992543549597,0.18983066657207104,0.002290068209712004,-0.09041142764614507
221,0.2112,59.878,745.14,-0.0432649,211.464,0.747945,2.55945,-0.0778463,0.174562,-0.0951764,0.135845,0.000707523,0.00229832,0.196668,-0.07489339549800478,0.14550432666314728,0.0007077733534379682,0.1907245650195204,0.002300963161967262,-0.09078746476978006
222,0.2122,60.0354,745.896,0.0854004,211.595,0.787486,2.59185,-0.078182,0.175312,-0.095589,0.136437,0.000711524,0.00230991,0.197529,-0.07520390166376012,0.14618266599316243,0.0007117771932487749,0.1916179434183074,0.002312579897449263,-0.0911625284808516
223,0.2132,60.044,746.43,0.0289504,211.79,0.77299,2.58491,-0.0785178,0.176062,-0.0960018,0.137029,0.000714777,0.00232095,0.19839,-0.07551439605865484,0.14686140701895112,0.0007150325139546609,0.19251199210221914,0.0023236454894133285,-0.0915376191650511
224,0.2142,60.094,747.023,0.0309412,211.971,0.773536,2.59456,-0.0788531,0.176811,-0.096414,0.137621,0.000718215,0.00233222,0.19925,-0.07582432411931339,0.14754054997838773,0.0007184729781506416,0.19340551816804297,0.0023349417405522654,-0.0919120101911397
225,0.2152,60.1298,747.59,0.00572344,212.153,0.770256,2.59594,-0.0791882,0.177559,-0.096826,0.138212,0.000721585,0.00234337,0.200109,-0.07613396350532442,0.1482189468899664,0.0007218454050872403,0.19429851943647058,0.002346117837459083,-0.09228606538228046
226,0.2162,60.195,748.202,0.0265271,212.323,0.776258,2.60731,-0.079523,0.178306,-0.0972375,0.138802,0.000725092,0.00235468,0.200968,-0.0764432220815684,0.14889659595544846,0.0007253549427530537,0.19519099372813686,0.0023574544361602,-0.09265951282429474
227,0.2172,60.2273,748.76,-0.000992823,212.506,0.771112,2.608,-0.0798575,0.179053,-0.0976488,0.139393,0.000728431,0.00236584,0.201826,-0.07675210016104328,0.1495757945270666,0.0007286963702917149,0.19608413494716537,0.0023686408077716603,-0.09303262523084377
228,0.2182,60.3024,749.382,0.0307389,212.669,0.781089,2.62148,-0.0801917,0.1798,-0.0980597,0.139982,0.000731999,0.0023772,0.202683,-0.07706059805629983,0.15025309411519117,0.0007322669766502976,0.19697794359193677,0.002380027780209071,-0.09340522156997622
229,0.2192,60.3238,749.92,-0.00828264,212.856,0.772125,2.62015,-0.0805257,0.180545,-0.0984704,0.140571,0.000735283,0.00238835,0.203539,-0.07736880834256599,0.15093079275028054,0.0007355533868111941,0.19787002441876034,0.0023912043798282046,-0.09377748359623772
230,0.2202,60.4117,750.556,0.0386438,213.012,0.787068,2.63657,-0.0808593,0.181291,-0.0988805,0.14116,0.000738928,0.00239977,0.204395,-0.07767654677447844,0.15160889066744332,0.0007392010745512767,0.19876396885679415,0.002402651752746676,-0.09414904925546896
231,0.2212,60.4168,751.066,-0.0189852,213.204,0.772207,2.63165,-0.0811927,0.182035,-0.0992905,0.141749,0.000742128,0.00241088,0.20525,-0.0779839981587902,0.15228738810192555,0.0007424034451184447,0.19965618111142636,0.0024137885080721677,-0.09452037201890606
232,0.2222,60.5239,751.726,0.051052,213.35,0.79435,2.65262,-0.0815257,0.182779,-0.0996999,0.142336,0.000745884,0.0024224,0.206104,-0.07829097837236099,0.15296397935884753,0.000746162240644832,0.200549057418973,0.0024253363814314977,-0.09489099950597824
233,0.2232,60.5049,752.196,-0.0349907,213.551,0.770749,2.64213,-0.0818587,0.183522,-0.100109,0.142924,0.000748957,0.00243344,0.206958,-0.07859785637853922,0.15364212153297108,0.0007492375383266747,0.20144139683167595,0.002436403218233796,-0.09526120386761494
234,0.2242,60.6405,752.894,0.0699389,213.682,0.803555,2.67003,-0.0821911,0.184265,-0.100518,0.14351,0.000752877,0.00244508,0.207811,-0.07890407955396772,0.15431835393293136,0.0007531604830266492,0.20233439949893106,0.0024480716458774587,-0.09563116637274349
235,0.2252,60.5857,753.308,-0.0588192,213.899,0.766977,2.65109,-0.0825235,0.185007,-0.100927,0.144098,0.000755759,0.00245602,0.208664,-0.07921020095772802,0.15499729271348373,0.0007560446577912217,0.20322686268625523,0.002459038487769849,-0.09600097759414705
236,0.2262,60.6435,753.886,-0.0510525,214.062,0.771807,2.65836,-0.0828554,0.185748,-0.101335,0.144684,0.000759177,0.0024673,0.209515,-0.07951576038163877,0.15567431947648136,0.000759465247797797,0.20411878420761798,0.002470346289499714,-0.09636973396387383
237,0.2272,60.7622,754.554,0.0367037,214.2,0.797989,2.68371,-0.083187,0.186489,-0.101743,0.145269,0.000762972,0.00247891,0.210366,-0.07982094235352888,0.1563505867422641,0.0007632631371747856,0.20501136688775712,0.0024819850377830743,-0.0967383399116899
238,0.2282,60.755,755.03,-0.0358054,214.392,0.779458,2.67606,-0.0835184,0.187229,-0.102151,0.145855,0.00076612,0.00249004,0.211216,-0.08012583916904004,0.15702840676796592,0.0007664135448859355,0.20590340531276463,0.0024931427243688464,-0.09710679549895496
239,0.2292,60.8829,755.708,0.0626496,214.523,0.809809,2.7031,-0.0838494,0.187969,-0.102558,0.146439,0.000770008,0.00250172,0.212066,-0.08043026713066803,0.15770430870167296,0.0007703045322657864,0.20679610409050708,0.0025048519126573687,-0.09747419826165304
240,0.2302,60.8388,756.126,-0.0533683,214.731,0.777526,2.68654,-0.0841804,0.188707,-0.102965,0.147024,0.000772964,0.00251274,0.212915,-0.08073459434331554,0.15838176385857672,0.0007732628136585262,0.2076870483333142,0.0025158995769980486,-0.09784145152185242
241,0.2312,61.0027,756.852,0.0884861,214.844,0.821244,2.72208,-0.0845108,0.189446,-0.103371,0.147607,0.000777059,0.00252457,0.213763,-0.08103826946345216,0.159057297325778,0.000777360988560627,0.20857985891491038,0.0025277594102408596,-0.09820765354849292
242,0.2322,61.0073,757.34,0.0315836,215.027,0.806604,2.71556,-0.0848412,0.190184,-0.103778,0.148191,0.000780352,0.00253581,0.214611,-0.08134184426590241,0.1597343844776209,0.0007806565538366339,0.2094721200546532,0.0025390278855852433,-0.09857460835313048
243,0.2332,61.0467,757.878,0.0248118,215.197,0.804769,2.7234,-0.0851712,0.190921,-0.104184,0.148774,0.000783793,0.00254725,0.215457,-0.0816449514418599,0.1604107067525582,0.0007841002460005075,0.21036382956172428,0.0025504969976675174,-0.09894051277851457
244,0.2342,61.085,758.41,0.00760447,215.364,0.803589,2.72658,-0.085501,0.191657,-0.104589,0.149357,0.000787231,0.00255863,0.216304,-0.08194777499852512,0.16108742343834148,0.0007875409476518769,0.21125498524534536,0.0025619060872410504,-0.09930536798267331
245,0.2352,61.1381,758.965,0.0174829,215.525,0.806631,2.73594,-0.0858304,0.192393,-0.104995,0.149939,0.000790731,0.0025701,0.217149,-0.08225013160057437,0.16176337300102528,0.0007910437101750212,0.2121467970609765,0.0025734055382529153,-0.09967097577986739
246,0.2362,61.1771,759.495,0.00319672,215.69,0.80527,2.73955,-0.0861596,0.193128,-0.1054,0.150521,0.000794163,0.0025815,0.217994,-0.08255220513321992,0.16243971608085706,0.000794478430931056,0.21303805245304974,0.002584834940223546,-0.10003553520640962
247,0.2372,61.2353,760.054,0.0182912,215.847,0.81056,2.74992,-0.0864885,0.193863,-0.105804,0.151102,0.000797697,0.00259301,0.218838,-0.08285390409583748,0.16311528979105883,0.0007980152448672229,0.21392996315863444,0.0025963747580852736,-0.10039904741577566
248,0.2382,61.2698,760.574,-4.75025e-05,216.014,0.807628,2.75298,-0.0868172,0.194597,-0.106209,0.151683,0.000801109,0.00260442,0.219682,-0.08315532047706509,0.1637912561236321,0.0008014299735208397,0.21482131483764055,0.0026078144479846355,-0.10076331203300826
249,0.2392,61.3333,761.136,0.0210639,216.166,0.815112,2.76446,-0.0871455,0.195331,-0.106613,0.152263,0.00080468,0.00261597,0.220525,-0.08345627118159127,0.16446645083972355,0.0008050038418083716,0.21571332100894836,0.002619394635116956,-0.1011265302799208
250,0.2402,61.361,761.643,-0.00442781,216.335,0.809726,2.7662,-0.0874736,0.196064,-0.107016,0.152843,0.00080806,0.00262738,0.221367,-0.08375693985162402,0.16514203728234,0.0008083865684380687,0.21660476554775787,0.0026308345876744355,-0.10148870330545168
251,0.2412,61.4319,762.212,0.0255754,216.483,0.820143,2.77941,-0.0878014,0.196796,-0.10742,0.153423,0.000811678,0.00263897,0.222208,-0.08405723510565954,0.16581801567874876,0.0008120074997310933,0.21749564625869944,0.0026424551463883894,-0.10185162855347984
252,0.2422,61.4499,762.701,-0.0107019,216.654,0.811301,2.77907,-0.088129,0.197528,-0.107823,0.154002,0.000815011,0.00265038,0.223049,-0.08435724881051099,0.16649321976254594,0.0008153432117110615,0.2183871793330574,0.0026538953620678374,-0.10221350942327978
253,0.2432,61.5316,763.283,0.0323685,216.796,0.825843,2.79488,-0.0884562,0.198259,-0.108225,0.15458,0.000818694,0.00266203,0.223889,-0.08465679810976234,0.16716764773447634,0.0008190292214078632,0.21927814596978057,0.0026655763479905836,-0.10257434705926738
254,0.2442,61.5361,763.748,-0.0196589,216.972,0.812099,2.79144,-0.0887833,0.198989,-0.108628,0.155159,0.000821959,0.00267341,0.224729,-0.08495615790813638,0.16784363348150344,0.0008222969008726544,0.22016854397206842,0.0026769867471743147,-0.1029359367321897
255,0.2452,61.6331,764.349,0.0423448,217.105,0.8325,2.81104,-0.0891099,0.199719,-0.10903,0.155737,0.000825733,0.00268515,0.225567,-0.08525496242952924,0.1685188422181827,0.0008260740113485987,0.22105959220220206,0.0026887582440973112,-0.10329648401076486
256,0.2462,61.6185,764.783,-0.0323856,217.289,0.811776,2.80308,-0.0894365,0.200448,-0.109432,0.156314,0.000828899,0.00269648,0.226406,-0.08555366937730002,0.1691932721444649,0.0008292426317149104,0.22195006918434101,0.0027001187720854247,-0.10365688637846304
257,0.2472,61.7376,765.413,0.0567965,217.411,0.840515,2.82814,-0.0897625,0.201177,-0.109833,0.156891,0.000832802,0.00270832,0.227243,-0.08585173029451376,0.16986809132910485,0.0008331488758719363,0.22284119556087556,0.00271199081177409,-0.10401624791022268
258,0.2482,61.696,765.803,-0.0504106,217.606,0.809857,2.81368,-0.0900886,0.201905,-0.110234,0.157468,0.000835824,0.00271957,0.22808,-0.08614978544473118,0.17054329999676932,0.0008361733982178432,0.22373174807302676,0.00272327138512396,-0.10437546536689712
259,0.2492,61.8466,766.477,0.0775425,217.712,0.850449,2.84656,-0.090414,0.202633,-0.110635,0.158043,0.000839907,0.00273156,0.228916,-0.08644710392820676,0.17121655593680063,0.000840259820656275,0.2246229491434535,0.002735294109223796,-0.10473453880624872
260,0.2502,61.8521,766.934,0.0263181,217.882,0.837244,2.8418,-0.0907395,0.20336,-0.111035,0.158619,0.000843254,0.00274302,0.229752,-0.08674441700554969,0.1718913710011014,0.000843609638611742,0.22551357373029135,0.0027467855215399517,-0.10509257337903788
261,0.2512,61.889,767.436,0.0198572,218.041,0.835636,2.8495,-0.0910646,0.204086,-0.111436,0.159195,0.000846735,0.00275465,0.230586,-0.08704126813981483,0.17256657487084448,0.0008470935812807667,0.22640361963238842,0.0027584475344701875,-0.10545135931572491
262,0.2522,61.9254,767.934,0.00501652,218.197,0.834802,2.85334,-0.0913895,0.204812,-0.111836,0.15977,0.000850216,0.00276623,0.231421,-0.08733784025104785,0.1732409945284652,0.0008505775360774237,0.22729431194242822,0.0027700595445259157,-0.10580910721764825
263,0.2532,61.9745,768.452,0.0130545,218.347,0.837619,2.86247,-0.091714,0.205537,-0.112235,0.160344,0.00085375,0.0027779,0.232254,-0.0876339510753068,0.1739146281736852,0.0008541145482683365,0.2281844229448362,0.0027817619394041593,-0.10616581821529192
264,0.2542,62.0121,768.948,0.00130576,218.502,0.836841,2.86686,-0.0920383,0.206261,-0.112634,0.160918,0.000857231,0.00278951,0.233087,-0.0879297834131667,0.17458864859561185,0.000857598527504777,0.22907395043714462,0.0027934043032440403,-0.10652238691363825
265,0.2552,62.0651,769.468,0.0133399,218.649,0.841472,2.87676,-0.0923624,0.206985,-0.113033,0.161491,0.000860793,0.00280121,0.233919,-0.08822533747324002,0.17526188075385019,0.0008611635886202063,0.2299641221805484,0.00280513705471086,-0.10687881336945315
266,0.2562,62.0993,769.957,-0.001157,218.804,0.83955,2.8808,-0.0926861,0.207709,-0.113432,0.162065,0.000864261,0.00281284,0.234751,-0.08852043116800867,0.17593667472074404,0.0008646345811542666,0.23085493864165385,0.0028167997462733574,-0.10723509763948014
267,0.2572,62.1561,770.479,0.0151281,218.948,0.8458,2.89148,-0.0930096,0.208432,-0.11383,0.162637,0.000867852,0.00282458,0.235582,-0.08881524711947464,0.1766095029092014,0.0008682286925101312,0.23174516854162164,0.0028285728846104696,-0.10759034737123352
268,0.2582,62.1855,770.958,-0.0043092,219.104,0.842122,2.89463,-0.0933329,0.209154,-0.114228,0.16321,0.000871297,0.00283621,0.236412,-0.08910978553538051,0.17728389334877748,0.0008716766894971695,0.23263480967511163,0.0028402358487331636,-0.10794545574172654
269,0.2592,62.2473,771.484,0.0180595,219.244,0.850433,2.90648,-0.0936558,0.209876,-0.114626,0.163781,0.000874924,0.00284799,0.237242,-0.08940386450402649,0.17795631440982285,0.0008753068576519141,0.23352509336143346,0.002852049376292909,-0.10830042280720964
270,0.2602,62.2701,771.95,-0.00864544,219.402,0.844376,2.90823,-0.0939786,0.210597,-0.115023,0.164353,0.000878339,0.00285963,0.238071,-0.08969775749968312,0.1786302981626422,0.0008787248526609392,0.23441478564927531,0.0028637226420860085,-0.10865435727871398
271,0.2612,62.339,772.484,0.0223963,219.538,0.855476,2.92181,-0.094301,0.211317,-0.11542,0.164924,0.000882011,0.00287145,0.238899,-0.0899911916385403,0.17930348824036946,0.0008824000860863102,0.23530388433205962,0.002875576561344184,-0.10900815126612107
272,0.2622,62.3528,772.933,-0.0145982,219.699,0.846167,2.92154,-0.0946232,0.212037,-0.115817,0.165495,0.000885383,0.00288308,0.239727,-0.09028434924636763,0.17997706281939596,0.0008857750672297549,0.23619362339640504,0.00288724007212271,-0.10936180482519198
273,0.2632,62.4316,773.478,0.0286124,219.829,0.861085,2.93756,-0.094945,0.212756,-0.116213,0.166065,0.000889116,0.00289497,0.240554,-0.090577048644921,0.18064984146890262,0.000889511380801844,0.237082766220168,0.002899164472297544,-0.10971442772653872
274,0.2642,62.4332,773.907,-0.0227366,219.994,0.847309,2.93443,-0.0952668,0.213475,-0.116609,0.166635,0.000892426,0.00290658,0.24138,-0.09086965386796164,0.1813230037115534,0.0008928243305674766,0.23797254856750216,0.0029108081991888746,-0.11006691101686128
275,0.2652,62.5256,774.469,0.0373722,220.117,0.867471,2.95387,-0.0955881,0.214193,-0.117005,0.167204,0.000896241,0.00291854,0.242206,-0.09116171052675914,0.1819953677700994,0.0008966427439758284,0.2388617320360391,0.0029228030841841335,-0.11041925475143466
276,0.2662,62.5105,774.87,-0.0338353,220.288,0.847556,2.94674,-0.0959093,0.214911,-0.117401,0.167773,0.000899466,0.00293011,0.243031,-0.09145358250818836,0.18266811451265808,0.0008998706408536172,0.23975155416755922,0.0029344069681442875,-0.11077145898551222
277,0.2672,62.6218,775.457,0.0495808,220.401,0.874919,2.9709,-0.09623,0.215628,-0.117795,0.168341,0.000903392,0.00294217,0.243855,-0.09174490662795853,0.18334006081638599,0.0009038001814596353,0.24064077477939194,0.0029465024300276976,-0.11112174601959468
278,0.2682,62.5839,775.822,-0.0489414,220.582,0.846579,2.95828,-0.0965508,0.216344,-0.118191,0.16891,0.000906497,0.00295368,0.244679,-0.09203622813144474,0.18401357290700893,0.0009069079925838608,0.24152939166101461,0.0029580464107061832,-0.11147367212220372
279,0.2692,62.7212,776.445,0.0664606,220.682,0.883808,2.98892,-0.096871,0.21706,-0.118585,0.169477,0.000910574,0.00296586,0.245502,-0.09232691159029172,0.1846850989624933,0.0009109886983664772,0.24241864502015642,0.002970262514107258,-0.11182368253880759
280,0.2702,62.6523,776.76,-0.069462,220.876,0.843938,2.96874,-0.0971912,0.217775,-0.118979,0.170045,0.000913513,0.00297728,0.246325,-0.0926175019871951,0.18535819123881403,0.0009139303800849152,0.24330729200478451,0.0029817164999073054,-0.11217355507847093
281,0.2712,62.714,777.267,-0.0475411,221.009,0.853383,2.98013,-0.097511,0.21849,-0.119373,0.170611,0.000917105,0.00298914,0.247147,-0.09290763651507594,0.18602929387918654,0.0009175256693800815,0.2441965745992103,0.0029936119336049227,-0.11252328979550652
282,0.2722,62.8064,777.82,0.0161986,221.128,0.873362,3.00058,-0.0978305,0.219204,-0.119767,0.171177,0.000920908,0.00300118,0.247968,-0.0931974062320321,0.18670077647116945,0.0009213321659682361,0.24508524817218613,0.00300568804939072,-0.1128728867442057
283,0.2732,62.8148,778.245,-0.0268049,221.285,0.862846,2.99913,-0.0981498,0.219918,-0.12016,0.171744,0.000924278,0.00301291,0.248788,-0.09348690207975052,0.18737382660310953,0.0009247052765413155,0.24597455648466804,0.0030174533751150534,-0.11322145920074111
284,0.2742,62.9043,778.791,0.0327648,221.404,0.882487,3.01883,-0.0984688,0.220631,-0.120553,0.172309,0.000928104,0.00302498,0.249608,-0.09377603363905151,0.18804488237054318,0.0009285348217895617,0.24686325312614565,0.003029559868839682,-0.11356989469521594
285,0.2752,62.8927,779.183,-0.0335695,221.569,0.864415,3.0126,-0.0987877,0.221343,-0.120946,0.172875,0.000931376,0.00303667,0.250428,-0.09406498238659744,0.18871750610852622,0.0009318098653134932,0.24775133588231513,0.0030412853529300232,-0.11391819328144559
286,0.2762,62.9975,779.749,0.0444201,221.68,0.889908,3.03588,-0.0991061,0.222055,-0.121338,0.173439,0.000935296,0.00304882,0.251246,-0.0943533861798852,0.18938813188066206,0.0009357335256985344,0.2486400511785649,0.0030534723785828888,-0.11426546927913672
287,0.2772,62.9652,780.108,-0.0463831,221.853,0.864087,3.02475,-0.0994245,0.222767,-0.12173,0.174004,0.00093846,0.00306046,0.252064,-0.09464169816002255,0.1900603260521463,0.0009389004913695764,0.2495293994654233,0.0030651479889534095,-0.11461260917131522
288,0.2782,63.0925,780.704,0.0590533,221.952,0.89821,3.05356,-0.0997424,0.223478,-0.122122,0.174567,0.000942512,0.00307272,0.252882,-0.09492946582108419,0.19073051865722945,0.0009429563040113109,0.2504181307749844,0.0030774456430522346,-0.11495961301132396
289,0.2792,63.0332,781.021,-0.0640141,222.137,0.862298,3.03592,-0.10006,0.224188,-0.122514,0.175131,0.000945532,0.00308429,0.253699,-0.09521687058044781,0.19140228008866877,0.000945979156304011,0.25130624289032744,0.003089051316236935,-0.11530648085248485
290,0.2802,63.0924,781.512,-0.0433314,222.266,0.871327,3.04726,-0.100378,0.224897,-0.122905,0.175694,0.000949149,0.00309626,0.254515,-0.09550454587280754,0.19207322842659336,0.0009495995844581717,0.25219373359481434,0.0031010583640431744,-0.1156523284008697
291,0.2812,63.1768,782.041,0.0122168,222.384,0.888956,3.06607,-0.100695,0.225606,-0.123295,0.176257,0.000952941,0.00310838,0.25533,-0.09579122549064567,0.192744554614787,0.0009533951925362327,0.2530818537533259,0.003113216022545995,-0.11599715674689526
292,0.2822,63.1892,782.459,-0.0242071,222.534,0.880336,3.06597,-0.101012,0.226315,-0.123686,0.176819,0.000956363,0.00312024,0.256145,-0.09607781424544759,0.19341506545037745,0.0009568204609151643,0.2539706038123031,0.0031251130158369556,-0.11634273429379405
293,0.2832,63.27,782.98,0.0262527,222.652,0.897299,3.08387,-0.101329,0.227023,-0.124076,0.177381,0.000960171,0.00313239,0.256959,-0.09636431216601227,0.19408595321896538,0.0009606321117447969,0.2548587293591469,0.0031373010600024287,-0.11668729343401985
294,0.2842,63.2658,783.372,-0.0293831,222.808,0.882415,3.07985,-0.101645,0.22773,-0.124466,0.177942,0.000963513,0.00314422,0.257773,-0.0966498159313971,0.19475602337582654,0.000963977327767207,0.2557462281746672,0.0031491682444682034,-0.11703171822238123
295,0.2852,63.3586,783.907,0.0354665,222.92,0.903996,3.10055,-0.101961,0.228437,-0.124856,0.178503,0.000967396,0.00315644,0.258586,-0.09693522949184519,0.19542646954750786,0.0009678640784374082,0.25663435467371,0.0031614268022037706,-0.1173760087112653
296,0.2862,63.3379,784.272,-0.0394891,223.083,0.88294,3.09264,-0.102277,0.229143,-0.125245,0.179064,0.000970653,0.00316824,0.259398,-0.09722055287585685,0.19609729194501302,0.0009711242360797012,0.257521851777724,0.0031732641768802416,-0.11771928267276244
297,0.2872,63.4483,784.831,0.0467667,223.185,0.911303,3.11765,-0.102593,0.229849,-0.125634,0.179624,0.000974641,0.00318055,0.26021,-0.09750578611192329,0.19676729401157145,0.0009751161168829459,0.2584099756759257,0.003185613315771274,-0.11806242312665738
298,0.2882,63.4066,785.162,-0.0531987,223.357,0.882375,3.1047,-0.102909,0.230554,-0.126023,0.180184,0.000977788,0.00319229,0.261021,-0.09779092922852672,0.19743767138436308,0.000978266190529986,0.25929746751289096,0.0031973907840050497,-0.11840543012487459
299,0.2892,63.5405,785.754,0.0617571,223.447,0.919741,3.13553,-0.103224,0.231259,-0.126411,0.180743,0.000981913,0.00320471,0.261832,-0.09807508032967172,0.19810722616579324,0.000982395234394362,0.2601855852522059,0.003209850572973849,-0.1187474224671814
300,0.2902,63.4713,786.041,-0.0712355,223.631,0.88048,3.11589,-0.103539,0.231963,-0.1268,0.181303,0.000984912,0.00321637,0.262642,-0.09835914193731576,0.19877835411073175,0.0009853971850990462,0.2610730682615885,0.0032215480680277686,-0.11909016305247577
301,0.2912,63.5332,786.523,-0.0453087,223.753,0.891216,3.12856,-0.103854,0.232666,-0.127188,0.181861,0.000988579,0.0032285,0.263451,-0.09864311407964499,0.19944745909525508,0.00098906780528063,0.26195991431844146,0.003233717219211618,-0.11943188976994112
302,0.2922,63.6142,787.033,0.00765135,223.866,0.908239,3.14672,-0.104168,0.233369,-0.127575,0.182419,0.000992388,0.00324074,0.26426,-0.09892609571138278,0.20011693754454662,0.000992880579901323,0.2628473840472674,0.003245996875061552,-0.11977260369620313
303,0.2932,63.6285,787.44,-0.0241246,224.01,0.900858,3.14761,-0.104482,0.234072,-0.127962,0.182977,0.000995855,0.00325275,0.265068,-0.09920898850083715,0.20078678966705787,0.0009963510282342547,0.26373547788666185,0.003258045931838538,-0.1201131857916865
304,0.2942,63.7037,787.939,0.0209803,224.124,0.916361,3.16447,-0.104796,0.234774,-0.128349,0.183534,0.000999668,0.00326502,0.265875,-0.09949179247590012,0.20145581421494207,0.001000167834597443,0.2646229316519648,0.00327035598358405,-0.1204536361073999
305,0.2952,63.7033,788.322,-0.0279364,224.274,0.903405,3.16186,-0.10511,0.235475,-0.128736,0.184092,0.00100307,0.003277,0.266682,-0.09977450766445528,0.2021264136391132,0.0010035732429609645,0.2655097431181568,0.0032823752344439683,-0.1207939546943324
306,0.2962,63.788,788.832,0.0286573,224.383,0.922605,3.18093,-0.105423,0.236176,-0.129122,0.184648,0.00100694,0.00328933,0.267488,-0.10005623415106102,0.2027949817698138,0.0010074471342853553,0.26639717645712757,0.003294745782394859,-0.12113326273715508
307,0.2972,63.774,789.193,-0.0361689,224.538,0.904535,3.17512,-0.105737,0.236876,-0.129508,0.185204,0.00101027,0.00330128,0.268294,-0.1003387721327531,0.2034639217277534,0.0010107804946344334,0.267283964820364,0.0033067352262436955,-0.1214724398323479
308,0.2982,63.8728,789.722,0.0376836,224.639,0.92923,3.19767,-0.106049,0.237576,-0.129894,0.18576,0.00101423,0.00331369,0.269098,-0.10061942265209001,0.20413323371972525,0.0010147445051740256,0.2681713741527687,0.003319186340086988,-0.12181148603044667
309,0.2992,63.8419,790.055,-0.0471829,224.801,0.904819,3.1878,-0.106362,0.238275,-0.13028,0.186315,0.00101747,0.00332561,0.269903,-0.10090088472168812,0.2048017131503228,0.0010179877982001706,0.26905813583040183,0.003331145976067429,-0.12215040138196798
310,0.3002,63.9593,790.609,0.0494161,224.893,0.936687,3.21498,-0.106675,0.238973,-0.130665,0.18687,0.00102154,0.00333811,0.270706,-0.10118225870744435,0.2054705636899774,0.0010220619497014471,0.2699442476262517,0.003343687693777575,-0.1224883084261561
311,0.3012,63.9067,790.908,-0.0613826,225.064,0.904118,3.19983,-0.106987,0.239671,-0.13105,0.187425,0.00102467,0.00334997,0.27151,-0.10146264610001987,0.20613978554471202,0.0010251951536588422,0.2708309781440441,0.0033555874204789227,-0.12282608540117201
312,0.3022,64.0481,791.496,0.0647001,225.143,0.945245,3.23302,-0.107299,0.240369,-0.131434,0.187978,0.00102888,0.00336259,0.272312,-0.10174294602537448,0.2068069653043192,0.0010294094786016394,0.2717183278157973,0.0033682498478919687,-0.12316285552037687
313,0.3032,64.0511,791.875,0.0204575,225.286,0.933917,3.23085,-0.107611,0.241066,-0.131819,0.188532,0.00103238,0.00337471,0.273114,-0.1020231585107938,0.20747572159148508,0.0010329130876660653,0.27260502446817125,0.00338041074477502,-0.12350037284474757
314,0.3042,64.0731,792.283,0.0039947,225.422,0.92964,3.2359,-0.107922,0.241762,-0.132203,0.189086,0.00103595,0.00338693,0.273915,-0.1023023858863894,0.20814484847227877,0.0010364867815448875,0.2734910658718419,0.0033926721283112915,-0.12383688408728155
315,0.3052,64.1099,792.709,0.000591693,225.549,0.931535,3.24234,-0.108233,0.242458,-0.132586,0.189639,0.0010396,0.00339918,0.274716,-0.10258152643577345,0.20881313733832485,0.0010401405713897915,0.2743777241749856,0.003404963763830926,-0.12417239030713378
316,0.3062,64.1417,793.13,-0.00435015,225.678,0.930989,3.24898,-0.108544,0.243153,-0.13297,0.190191,0.00104321,0.00341143,0.275516,-0.10286058018594457,0.2094805863891256,0.0010437543328201127,0.2752637245427516,0.003417255549924114,-0.12450864354450242
317,0.3072,64.1829,793.561,-0.0012656,225.802,0.934407,3.25685,-0.108855,0.243848,-0.133353,0.190743,0.00104688,0.00342372,0.276316,-0.10313954716389317,0.21014840397350842,0.00104742817014003,0.27615034089480295,0.003429587623775099,-0.12484389252974604
318,0.3082,64.215,793.979,-0.00644982,225.93,0.934198,3.26343,-0.109166,0.244542,-0.133736,0.191295,0.0010505,0.003436,0.277114,-0.10341842739660123,0.21081659029495992,0.0010510519683890607,0.27703629662246243,0.0034419098147693283,-0.12517901313921387
319,0.3092,64.2573,794.411,-0.0010474,226.052,0.938141,3.27189,-0.109476,0.245236,-0.134118,0.191846,0.00105418,0.00344832,0.277913,-0.10369632460781497,0.2114839340725394,0.0010547358430386122,0.2779228674168004,0.0034542722952508598,-0.12551313093563254
320,0.3102,64.2881,794.824,-0.00795549,226.18,0.937584,3.27805,-0.109786,0.245929,-0.134501,0.192397,0.0010578,0.00346062,0.27871,-0.10397413568424496,0.21215164565786204,0.001058359667741371,0.2788087748954069,0.003466614858706807,-0.12584799527586976
321,0.3112,64.3316,795.255,-0.000456916,226.301,0.942036,3.28699,-0.110096,0.246622,-0.134883,0.192948,0.00106149,0.00347297,0.279507,-0.10425186065258862,0.21281972525364568,0.0010620535799039654,0.2796952965206734,0.0034790077479263104,-0.1261818575699163
322,0.3122,64.3605,795.664,-0.00955402,226.429,0.940904,3.29267,-0.110405,0.247314,-0.135264,0.193498,0.00106511,0.00348528,0.280304,-0.10452860406858722,0.21348695957515362,0.0010656774310970896,0.2805811521365582,0.0034913606505435624,-0.1265147188680783
323,0.3132,64.4056,796.095,0.000369658,226.548,0.94603,3.30214,-0.110715,0.248005,-0.135646,0.194048,0.00106882,0.00349766,0.2811,-0.10480615717837116,0.21415456097647634,0.0010693913916497433,0.28146633950970035,0.0035037839504885593,-0.1268483265223519
324,0.3142,64.4323,796.498,-0.0113963,226.676,0.944127,3.30725,-0.111024,0.248696,-0.136027,0.194597,0.00107243,0.00350999,0.281895,-0.10508272934320295,0.21482131483764055,0.0010730052586755967,0.282352138758696,0.003516157228425687,-0.1271809339442096
325,0.3152,64.4794,796.931,0.00148649,226.793,0.950131,3.31734,-0.111332,0.249387,-0.136408,0.195146,0.00107616,0.00352241,0.282689,-0.10535832141920698,0.21548843484717306,0.001076739267949156,0.2832385503064978,0.003528620976498198,-0.12751341466677724
326,0.3162,64.5032,797.327,-0.0135717,226.921,0.947233,3.32177,-0.111641,0.250077,-0.136788,0.195695,0.00107975,0.00353475,0.283483,-0.10563472299164622,0.2161559212061448,0.0010803331398940852,0.2841242904514174,0.003541004596087749,-0.12784489658365084
327,0.3172,64.553,797.762,0.0029766,227.037,0.954359,3.33262,-0.111949,0.250766,-0.137168,0.196243,0.0010835,0.0035472,0.284277,-0.10591014507978591,0.2168225572925706,0.0010840871981823152,0.2850093569579366,0.0035534987593710543,-0.12817625256132603
328,0.3182,64.5732,798.151,-0.0161725,227.166,0.950196,3.3362,-0.112258,0.251455,-0.137548,0.196791,0.00108709,0.00355955,0.28507,-0.10618637616505566,0.21748955879568688,0.0010876810965063655,0.2858950334854069,0.0035658927216133396,-0.12850748264765044
329,0.3192,64.6265,798.588,0.00493797,227.279,0.95874,3.34799,-0.112565,0.252144,-0.137928,0.197338,0.00109086,0.00357204,0.285862,-0.10646073483136287,0.2181557077594798,0.0010914552041783043,0.2867813204542775,0.0035784273378918208,-0.1288385868904539
330,0.3202,64.6423,798.969,-0.019305,227.408,0.952985,3.35052,-0.112873,0.252832,-0.138307,0.197885,0.00109443,0.0035844,0.286654,-0.10673590254703136,0.21882222120643302,0.0010950291070528362,0.2876669306177133,0.0035908316439121624,-0.12916869450667778
331,0.3212,64.7,799.411,0.00748606,227.518,0.963309,3.36348,-0.11318,0.253519,-0.138686,0.198432,0.00109824,0.00359693,0.287445,-0.10701009253463278,0.2194890993359735,0.0010988432863796582,0.28855186173808245,0.0036034067158154937,-0.12949867703582052
332,0.3222,64.7104,799.781,-0.0230947,227.65,0.955562,3.3647,-0.113488,0.254206,-0.139065,0.198978,0.00110178,0.0036093,0.288235,-0.10728509107418305,0.22015512219190447,0.0011023871825575071,0.28943740101500914,0.00361582136674099,-0.12982853452528131
333,0.3232,64.7736,800.229,0.0107582,227.756,0.968108,3.37911,-0.113794,0.254892,-0.139444,0.199524,0.00110562,0.00362187,0.289025,-0.10755822004545057,0.22082150879560913,0.0011062314231053971,0.290322258543537,0.0036284368969039527,-0.13015826702244115
334,0.3242,64.7773,800.588,-0.0276911,227.89,0.95788,3.37871,-0.114101,0.255578,-0.139822,0.200069,0.00110913,0.00363424,0.289814,-0.10783215762032727,0.2214870378580991,0.0011097453121444723,0.29120772329258204,0.0036408518574546633,-0.13048700506210287
335,0.3252,64.8475,801.045,0.0149184,227.993,0.973187,3.39492,-0.114407,0.256263,-0.1402,0.200614,0.00111302,0.00364686,0.290603,-0.10810511921484156,0.22215292973278533,0.0011136396366282497,0.29209250358569117,0.003653517884927737,-0.13081561886226833
336,0.3262,64.843,801.389,-0.0332727,228.13,0.959881,3.39251,-0.114714,0.256948,-0.140578,0.201159,0.00111649,0.00365922,0.291391,-0.10837888891744307,0.22281918461745454,0.001117113506984957,0.2929778901609288,0.003665923119072989,-0.13114410846989122
337,0.3272,64.9217,801.856,0.0201624,228.227,0.978608,3.41094,-0.11502,0.257632,-0.140955,0.201703,0.00112043,0.0036719,0.292179,-0.10865168323777474,0.22348457922481013,0.0011210579161826661,0.29386258957050426,0.00367864968366427,-0.1314716054039471
338,0.3282,64.9071,802.183,-0.040052,228.368,0.961498,3.40606,-0.115325,0.258315,-0.141332,0.202247,0.00112385,0.00368424,0.292966,-0.10892350301976328,0.2241503359053072,0.0011244817560553955,0.2947465995742322,0.0036910351546195486,-0.1317989788949293
339,0.3292,64.9966,802.665,0.0267237,228.459,0.984444,3.42723,-0.115631,0.258999,-0.141709,0.20279,0.00112786,0.00369699,0.293752,-0.10919613071367473,0.22481523004012427,0.0011284962732762693,0.29563250919489126,0.003703832296899412,-0.1321262289893671
340,0.3302,64.9696,802.972,-0.0482819,228.605,0.962649,3.4193,-0.115936,0.259681,-0.142086,0.203334,0.00113122,0.00370931,0.294538,-0.10946778446450423,0.2254817107915943,0.001131860070675117,0.29651643194956057,0.003716198004285909,-0.13245335573377226
341,0.3312,65.0723,803.471,0.03488,228.689,0.990784,3.44383,-0.116241,0.260363,-0.142462,0.203876,0.00113531,0.00372213,0.295323,-0.1097393553735736,0.22614610191257256,0.0011359547083562571,0.29740095774516195,0.0037290657284263506,-0.13277949195456462
342,0.3322,65.0302,803.754,-0.0582617,228.841,0.963239,3.43216,-0.116546,0.261045,-0.142838,0.204419,0.00113859,0.00373442,0.296107,-0.11001084346614598,0.2268120800426099,0.001139238439672896,0.29828608699310966,0.0037414016344481382,-0.13310550557118883
343,0.3332,65.1491,804.276,0.0449603,228.917,0.997731,3.46082,-0.11685,0.261726,-0.143213,0.20496,0.00114277,0.00374733,0.296891,-0.11028135904928027,0.22747596494258615,0.0011434232104359232,0.2991705209339284,0.0037543600195892868,-0.13343053006069905
344,0.3342,65.0886,804.528,-0.0703448,229.077,0.963152,3.44458,-0.117155,0.262406,-0.143589,0.205502,0.00114595,0.00375956,0.297675,-0.11055268185593892,0.2281414372422872,0.0011466068515837424,0.3000542573244829,0.0037666360104799956,-0.13375629893301022
345,0.3352,65.2274,805.078,0.0573538,229.142,1.00541,3.47827,-0.117459,0.263087,-0.143964,0.206042,0.00115026,0.00377258,0.298457,-0.11082303274523753,0.22880481271365527,0.0011509218027578871,0.3009398957993945,0.0037797051371606383,-0.13408107942076286
346,0.3362,65.2284,805.421,0.0159234,229.272,0.994733,3.4771,-0.117763,0.263766,-0.144339,0.206583,0.00115385,0.0037851,0.29924,-0.1110933014603569,0.2294697759736768,0.0011545159410186745,0.30182353394984496,0.0037922725377406152,-0.13440573813866585
347,0.3372,65.2424,805.783,-0.00589513,229.396,0.988913,3.48052,-0.118066,0.264445,-0.144713,0.207124,0.00115748,0.00379768,0.300021,-0.1113625993893178,0.23013509907615037,0.0011581501385076187,0.3027077722943423,0.0038049003239577495,-0.13472940986221693
348,0.3382,65.2788,806.176,-0.00410582,229.508,0.992022,3.48798,-0.11837,0.265124,-0.145088,0.207664,0.00116122,0.00381033,0.300803,-0.11163270410110704,0.2307995514156369,0.0011618944769908879,0.3035926112405569,0.003817598536262956,-0.13505382550178435
349,0.3392,65.3026,806.551,-0.0146631,229.627,0.98993,3.49334,-0.118673,0.265802,-0.145462,0.208204,0.00116489,0.00382296,0.301583,-0.11190183861582637,0.23146436265628156,0.001165568747885981,0.3044767467190366,0.003830276832595736,-0.13537725488598185
350,0.3402,65.3441,806.95,-0.00572978,229.736,0.995006,3.50245,-0.118976,0.266479,-0.145836,0.208743,0.00116866,0.00383565,0.302363,-0.11217089159514093,0.23212830086302594,0.0011693431491950346,0.305360176483799,0.0038430155196356175,-0.13570056333020686
351,0.3412,65.3674,807.322,-0.0172045,229.853,0.99293,3.50762,-0.119279,0.267156,-0.146209,0.209282,0.00117234,0.00384829,0.303142,-0.11243986306375231,0.23279259702892507,0.0011730274591568168,0.3062442045330085,0.003855704175543817,-0.13602288690300135
352,0.3422,65.4109,807.723,-0.00515231,229.961,0.998854,3.51744,-0.119581,0.267833,-0.146582,0.20982,0.00117613,0.00386102,0.303921,-0.11270786575466385,0.23345601789033643,0.0011768219121213175,0.307128831271841,0.0038684833399971197,-0.13634509027152264
353,0.3432,65.4321,808.09,-0.0191999,230.079,0.996085,3.52202,-0.119883,0.268508,-0.146955,0.210358,0.00117979,0.00387368,0.304699,-0.11297578752098292,0.2341197957682002,0.0011804862259952031,0.30801144108024814,0.0038811923954444882,-0.13666717348059854
354,0.3442,65.4776,808.492,-0.00414084,230.184,1.00286,3.53249,-0.120185,0.269184,-0.147328,0.210896,0.0011836,0.00388643,0.305477,-0.11324362838714508,0.23478393085464244,0.001184300730914467,0.30889595574669215,0.003893991962244492,-0.1369891365750403
355,0.3452,65.4961,808.853,-0.0213425,230.302,0.999161,3.53639,-0.120487,0.269859,-0.1477,0.211433,0.00118726,0.0038991,0.306254,-0.11351138837757857,0.23544718789408803,0.0011879650721609014,0.30977975876678365,0.003906711379700001,-0.13731011691019057
356,0.3462,65.5442,809.258,-0.00284856,230.406,1.00697,3.54757,-0.120788,0.270533,-0.148072,0.21197,0.00119108,0.00391189,0.30703,-0.11377818129532846,0.23611080119821204,0.0011917896174922227,0.310662847891797,0.003919551428650525,-0.1376309778628626
357,0.3472,65.5595,809.612,-0.0237668,230.525,1.00213,3.55068,-0.12109,0.271207,-0.148444,0.212506,0.00119473,0.00392457,0.307806,-0.11404577987515785,0.23677353418422786,0.0011954439741936884,0.3115465324195088,0.0039322812092692505,-0.13795171947745843
358,0.3482,65.6106,810.019,-0.00123803,230.627,1.01119,3.5627,-0.121391,0.271881,-0.148816,0.213042,0.00119858,0.0039374,0.308582,-0.11431241196527275,0.23743662249034148,0.001199298584072972,0.31243081275135576,0.003945161743065695,-0.13827234179836378
359,0.3492,65.6221,810.366,-0.0265426,230.746,1.00497,3.56488,-0.121692,0.272554,-0.149187,0.213578,0.0012022,0.00395009,0.309357,-0.11457896381120591,0.23810006630705538,0.0012029229320940082,0.3133143759740127,0.003957901888004267,-0.13859198346236157
360,0.3502,65.6768,810.777,0.000751351,230.845,1.01553,3.57787,-0.121992,0.273226,-0.149558,0.214114,0.00120608,0.00396295,0.310131,-0.11484455028210006,0.23876386582497466,0.0012068076069711164,0.314197219836982,0.00397081286963985,-0.13891150656129725
361,0.3512,65.6839,811.116,-0.0297359,230.966,1.00766,3.57896,-0.122293,0.273898,-0.149929,0.214649,0.00120969,0.00397564,0.310904,-0.11511094197850358,0.2394267818074043,0.0012104219700705965,0.315080657170411,0.003983553340093371,-0.1392309111391502
362,0.3522,65.743,811.532,0.00318726,231.063,1.02001,3.59311,-0.122593,0.274569,-0.150299,0.215183,0.0012136,0.00398854,0.311677,-0.11537636887988412,0.24008881245534064,0.0012143367104737735,0.31596337240921546,0.003996504811468293,-0.13954933678965065
363,0.3532,65.7449,811.861,-0.0334177,231.185,1.01018,3.59293,-0.122893,0.27524,-0.150669,0.215718,0.00121718,0.00400124,0.31245,-0.1156417161651373,0.24075243747386788,0.001217921064215144,0.31684668014870665,0.004009255648046883,-0.139867644644454
364,0.3542,65.8092,812.283,0.00614435,231.278,1.02465,3.60844,-0.123193,0.275911,-0.151039,0.216251,0.00122112,0.00401418,0.313222,-0.11590698385814424,0.24141393479641748,0.0012218658705953622,0.31773058078658645,0.0040222476118729755,-0.14018583474713653
365,0.3552,65.805,812.602,-0.0376663,231.403,1.01252,3.60674,-0.123492,0.27658,-0.151409,0.216785,0.00122468,0.00402688,0.313993,-0.11617128815450928,0.24207702686742483,0.0012254302267824535,0.3186124374933108,0.004034998775387377,-0.1405039071412585
366,0.3562,65.8755,813.031,0.00970549,231.492,1.02948,3.62386,-0.123791,0.27725,-0.151778,0.217318,0.00122866,0.00403987,0.314764,-0.11643551343570302,0.24273923038430523,0.0012294151119247587,0.31949620385510236,0.004048041274732128,-0.14082100269179632
367,0.3572,65.8641,813.338,-0.0425684,231.62,1.01463,3.6204,-0.124091,0.277919,-0.152147,0.217851,0.00123218,0.00405256,0.315534,-0.11670054302524613,0.24340178694973935,0.0012329394456687126,0.3203792421588596,0.004060782725220369,-0.14113798125566135
368,0.3582,65.9418,813.776,0.0139629,231.705,1.03452,3.63939,-0.124389,0.278587,-0.152516,0.218383,0.00123621,0.0040656,0.316304,-0.11696372704705771,0.24406345268787732,0.0012369744225451118,0.3212615501506819,0.004073875763193513,-0.14145484287601373
369,0.3592,65.9221,814.068,-0.0482206,231.836,1.0165,3.63386,-0.124688,0.279255,-0.152885,0.218915,0.00123969,0.00407828,0.317073,-0.11722771542444155,0.24472547052583837,0.0012404587332788264,0.32214444772114015,0.004086607500657147,-0.14177158759599762
370,0.3602,66.0084,814.519,0.0190193,231.916,1.03981,3.65506,-0.124986,0.279923,-0.153253,0.219446,0.00124377,0.00409137,0.317841,-0.1174907423722833,0.24538659526377127,0.0012445438026840172,0.3230279352642045,0.00409975108037397,-0.1420873575465278
371,0.3612,65.979,814.794,-0.0547298,232.05,1.01807,3.64712,-0.125285,0.280589,-0.153621,0.219978,0.0012472,0.00410403,0.31861,-0.11775457319564031,0.2460493172008562,0.001247978077359102,0.32390936535272963,0.004112463063689287,-0.14240301131509503
372,0.3622,66.0753,815.258,0.0249883,232.125,1.04539,3.67088,-0.125582,0.281256,-0.153989,0.220508,0.00125135,0.00411719,0.319377,-0.11801656118025972,0.24670989837752133,0.0012521332650901051,0.3247927074612642,0.004125677270652606,-0.14271854894444624
373,0.3632,66.0346,815.516,-0.0622142,232.264,1.01932,3.66014,-0.12588,0.281922,-0.154356,0.221039,0.00125472,0.00412983,0.320144,-0.11827935308708915,0.2473720771264587,0.001255507490464769,0.32567531327954713,0.0041383694994279185,-0.14303311351085501
374,0.3642,66.1427,815.995,0.031996,232.332,1.05129,3.68689,-0.126178,0.282587,-0.154723,0.221569,0.00125894,0.00414306,0.32091,-0.11854206669359768,0.2480333595516988,0.0012597327976218153,0.32655718055124705,0.0041516543379354065,-0.14334756265324955
375,0.3652,66.089,816.231,-0.0708039,232.477,1.02021,3.67289,-0.126475,0.283252,-0.15509,0.222099,0.00126224,0.00415567,0.321676,-0.11880382082737673,0.24869499254951788,0.0012630369601918101,0.32743963445971813,0.00416431677013307,-0.14366189641398264
376,0.3662,66.2106,816.73,0.0401809,232.538,1.05757,3.7031,-0.126772,0.283917,-0.155457,0.222628,0.00126654,0.00416897,0.322441,-0.11906549723172144,0.2493557269494171,0.0012673424005074096,0.3283226753952029,0.004177672244359831,-0.14397611483539152
377,0.3672,66.1418,816.942,-0.0806412,232.689,1.02068,3.68535,-0.127069,0.284581,-0.155823,0.223157,0.00126976,0.00418154,0.323206,-0.11932709592971391,0.2500168109702803,0.0012705664865408917,0.32920497454256537,0.004190294837032704,-0.14428936224958822
378,0.3682,66.2027,817.347,-0.0443061,232.778,1.03489,3.70102,-0.127365,0.285244,-0.15619,0.223686,0.00127368,0.0041946,0.32397,-0.11958773653260657,0.2506782447971061,0.0012744914748543668,0.3300865296439113,0.004203409647922873,-0.14460335043328665
379,0.3692,66.2503,817.733,-0.0222811,232.873,1.04305,3.71194,-0.127662,0.285907,-0.156555,0.224214,0.00127754,0.00420763,0.324733,-0.11984918014855761,0.25133877727558773,0.001278356401850811,0.3309686694100842,0.004216494503598289,-0.1449155132372011
380,0.3702,66.2782,818.088,-0.024923,232.977,1.0439,3.71847,-0.127958,0.28657,-0.156921,0.224742,0.00128131,0.0042206,0.325496,-0.1201096662373905,0.2519996586073072,0.0012821312283699537,0.33185139422884546,0.004229519275997351,-0.14522841689449406
381,0.3712,66.3157,818.457,-0.0157625,233.076,1.04871,3.72765,-0.128254,0.287232,-0.157286,0.225269,0.00128515,0.00423363,0.326259,-0.12037007523375154,0.252659636316245,0.0012859761591361707,0.33273337175417583,0.004242604471883515,-0.14554035159078238
382,0.3722,66.3388,818.803,-0.0240143,233.182,1.0479,3.73318,-0.12855,0.287893,-0.157651,0.225796,0.0012889,0.00424661,0.327021,-0.12063040716045637,0.253319961925099,0.00128973098858709,0.33361459972666463,0.004255639625487362,-0.1458521724516828
383,0.3732,66.3761,819.169,-0.0149396,233.28,1.05261,3.74225,-0.128845,0.288554,-0.158016,0.226323,0.00129274,0.00425966,0.327782,-0.12088978293053698,0.2539806356172607,0.0012935759485364073,0.33449641038339917,0.0042687452470986376,-0.14616387951873755
384,0.3742,66.3975,819.512,-0.025029,233.386,1.05117,3.74734,-0.12914,0.289215,-0.158381,0.226849,0.00129649,0.00427265,0.328543,-0.12114908219605036,0.2546404029351881,0.0012973308064865297,0.33537880410966125,0.004281790782829864,-0.14647547283347395
385,0.3752,66.4356,819.878,-0.014635,233.483,1.05631,3.75666,-0.129435,0.289875,-0.158745,0.227375,0.00130034,0.00428572,0.329303,-0.12140830497956201,0.25530051738201176,0.0013011858086309225,0.3362604450298736,0.004294916831613982,-0.14678609922392982
386,0.3762,66.4555,820.217,-0.0263555,233.589,1.05434,3.76138,-0.12973,0.290534,-0.159109,0.227901,0.00130409,0.00429873,0.330062,-0.12166745130363088,0.2559609791403694,0.0013049406951182174,0.3371413308831577,0.004307982793475773,-0.1470966125669554
387,0.3772,66.4947,820.583,-0.0143035,233.685,1.06,3.77103,-0.130025,0.291194,-0.159473,0.228426,0.00130795,0.00431183,0.330822,-0.12192652119080916,0.25662053177183464,0.0013088057396488662,0.33802413545500354,0.004321139314225508,-0.1474070129036925
388,0.3782,66.5129,820.918,-0.0278179,233.791,1.05744,3.77536,-0.130319,0.291852,-0.159836,0.228951,0.0013117,0.00432485,0.33158,-0.12218463684871816,0.25728043075934215,0.0013125606547108593,0.3389048450578158,0.004334215660586116,-0.147716447992142
389,0.3792,66.5535,821.285,-0.0138701,233.885,1.06372,3.78537,-0.130614,0.29251,-0.160199,0.229475,0.00131557,0.00433797,0.332338,-0.12244355418866248,0.2579394183447288,0.0013164357418187222,0.33978613435824645,0.004347392611936174,-0.14802577077603907
390,0.3802,66.5698,821.616,-0.0294056,233.991,1.0605,3.78926,-0.130908,0.293168,-0.160562,0.23,0.00131931,0.00435101,0.333096,-0.12270151786121297,0.25860000992947785,0.0013201806722915599,0.340668003737862,0.004360489387326805,-0.14833498129614253
391,0.3812,66.612,821.984,-0.0133169,234.084,1.06746,3.7997,-0.131201,0.293825,-0.160925,0.230523,0.00132319,0.00436416,0.333853,-0.12295852866255863,0.2592584298964842,0.0013240658021296259,0.3415491120286973,0.004373696814600869,-0.14864407959319703
392,0.3822,66.6263,822.31,-0.0311276,234.191,1.0635,3.80309,-0.131495,0.294482,-0.161288,0.231047,0.00132692,0.0043772,0.334609,-0.12321634095486778,0.2599184542250219,0.0013278007478607634,0.3424307993978859,0.004386793933000233,-0.148953065707932
393,0.3832,66.6702,822.679,-0.0126316,234.282,1.07123,3.814,-0.131788,0.295138,-0.16165,0.23157,0.00133083,0.00439038,0.335365,-0.12347320093514336,0.26057756391874265,0.001331715947215928,0.3433117229136129,0.004400031838181828,-0.1492610889425765
394,0.3842,66.6822,823.0,-0.0329952,234.389,1.06643,3.81684,-0.132081,0.295794,-0.162012,0.232092,0.00133455,0.00440344,0.33612,-0.12372998566646909,0.2612357571806041,0.0013354409081276497,0.3441932245047543,0.0044131493882551,-0.14956900069298995
395,0.3852,66.7281,823.371,-0.0118025,234.479,1.07504,3.82829,-0.132374,0.296449,-0.162373,0.232615,0.00133847,0.00441664,0.336875,-0.1239866951708899,0.2618955560039622,0.001339366150749477,0.34507395947601993,0.004426407729331894,-0.14987595087589822
396,0.3862,66.7375,823.687,-0.0350204,234.586,1.06931,3.83051,-0.132667,0.297104,-0.162735,0.233137,0.00134218,0.00442971,0.337629,-0.12424332947044403,0.26255443743728923,0.0013430811266892384,0.3459552715176617,0.004439535668271821,-0.15018364008657403
397,0.3872,66.7857,824.06,-0.0108173,234.674,1.07888,3.84256,-0.132959,0.297758,-0.163096,0.233658,0.00134611,0.00444293,0.338383,-0.12449901308661393,0.2632123996834761,0.0013470164127309392,0.34683581417129683,0.004452814446705977,-0.15049036842470664
398,0.3882,66.7923,824.37,-0.0372156,234.782,1.07211,3.84409,-0.133252,0.298412,-0.163457,0.234179,0.00134981,0.00445601,0.339136,-0.12475549729900759,0.26387070481730746,0.0013507214035457515,0.3477169328881795,0.0044659527754433714,-0.15079698605389336
399,0.3892,66.8431,824.746,-0.00966356,234.868,1.08276,3.85681,-0.133544,0.299066,-0.163817,0.2347,0.00135377,0.00446927,0.339888,-0.12501103138400416,0.2645293530174748,0.0013546867602538537,0.3485986280451785,0.004479272082283936,-0.15110264411716146
400,0.3902,66.8466,825.05,-0.0395931,234.977,1.07484,3.85758,-0.133836,0.299718,-0.164178,0.235221,0.00135746,0.00448235,0.340641,-0.12526649086394082,0.26518834446276207,0.0013583817658653352,0.3494782010603077,0.0044924107570896155,-0.15140904075471462
401,0.3912,66.9002,825.429,-0.00832897,235.061,1.08669,3.87105,-0.134127,0.300371,-0.164538,0.235741,0.00136143,0.00449564,0.341392,-0.12552100128203758,0.2658464134849998,0.0013623571665322132,0.3503596981030612,0.004505760549937676,-0.15171447851794673
402,0.3922,66.9003,825.727,-0.0421653,235.17,1.07749,3.87097,-0.134419,0.301023,-0.164898,0.23626,0.00136511,0.00450873,0.342143,-0.12577631187250293,0.26650355828792427,0.001366042186786931,0.35124041971026854,0.004518909616403777,-0.1520198063433742
403,0.3932,66.9571,826.109,-0.00680109,235.252,1.09067,3.88527,-0.13471,0.301674,-0.165257,0.23678,0.0013691,0.00452205,0.342893,-0.12603067395427014,0.267162311399199,0.001370037645266109,0.3521203636141639,0.004532289897392294,-0.15232417659516773
404,0.3942,66.9535,826.4,-0.0449445,235.363,1.08006,3.88427,-0.135001,0.302325,-0.165617,0.237299,0.00137276,0.00453514,0.343643,-0.12628496202744044,0.26782013933039717,0.001373702666310983,0.3530008805480418,0.0045454393111297176,-0.15262928496879102
405,0.3952,67.0138,826.786,-0.00506776,235.443,1.0947,3.89948,-0.135292,0.302976,-0.165976,0.237817,0.00137678,0.00454849,0.344393,-0.12653917611354693,0.26847704028522923,0.0013777281966869115,0.353881970885066,0.004558850082261312,-0.1529334364570285
406,0.3962,67.006,827.069,-0.0479426,235.555,1.08254,3.89746,-0.135582,0.303626,-0.166334,0.238336,0.00138042,0.00456158,0.345142,-0.12679244302699666,0.26913555073781814,0.0013813732182514915,0.354762280235686,0.004571999843673957,-0.15323663201153448
407,0.3972,67.0702,827.46,-0.00311725,235.632,1.09879,3.91367,-0.135873,0.304276,-0.166693,0.238853,0.00138447,0.00457497,0.34589,-0.1270465094576172,0.2697918634597696,0.0013854288210257693,0.3556431619733895,0.004585451152808062,-0.15354056550131656
408,0.3982,67.058,827.735,-0.0511709,235.745,1.08493,3.91055,-0.136163,0.304925,-0.167051,0.239371,0.00138808,0.00458806,0.346638,-0.12729962926572835,0.27044978603227654,0.0013890438289487772,0.356523259946411,0.004598601262431057,-0.15384354374252607
409,0.3992,67.1264,828.131,-0.000938396,235.82,1.10294,3.92786,-0.136453,0.305574,-0.167409,0.239888,0.00139216,0.00460148,0.347385,-0.12755267567973783,0.2711067783895458,0.0013931295045823688,0.35740392928840614,0.0046120830661227075,-0.15414641353693825
410,0.4002,67.1094,828.397,-0.05464,235.935,1.08723,3.92352,-0.136742,0.306222,-0.167767,0.240405,0.00139575,0.00461457,0.348132,-0.12780477652613942,0.2717641104996822,0.0013967245123704952,0.3582838120858225,0.004625233524359507,-0.1544491749233703
411,0.4012,67.1825,828.799,0.00147913,236.006,1.10715,3.94204,-0.137032,0.30687,-0.168125,0.240921,0.00139986,0.00462803,0.348878,-0.12805767646868282,0.272420510117237,0.0014008402613658877,0.3591642652320648,0.004638755871007927,-0.15475182794062514
412,0.4022,67.1602,829.057,-0.0583597,236.123,1.08943,3.93639,-0.137321,0.307517,-0.168482,0.241438,0.00140343,0.00464112,0.349624,-0.12830963139094342,0.27307852160227997,0.0014044152687471279,0.3600439290522295,0.004651906678394102,-0.15505352768144232
413,0.4032,67.2383,829.464,0.00414464,236.191,1.11142,3.9562,-0.13761,0.308164,-0.168839,0.241953,0.00140757,0.00465461,0.350369,-0.12856151350875233,0.2737343258960161,0.0014085610916081404,0.3609241621990431,0.00466545952402897,-0.15535511973467542
414,0.4042,67.2104,829.712,-0.0623386,236.31,1.09152,3.94913,-0.137899,0.30881,-0.169196,0.242469,0.00141111,0.0046677,0.351113,-0.12881332284314684,0.27439174240705166,0.0014121060841891797,0.36180360323669514,0.004678610680968198,-0.15565660413876203
415,0.4052,67.294,830.127,0.00706617,236.375,1.11576,3.97036,-0.138188,0.309456,-0.169552,0.242983,0.00141529,0.00468123,0.351857,-0.12906505941515845,0.275046948136096,0.0014162919955409414,0.3626836125767994,0.00469220407452986,-0.15595713688968493
416,0.4062,67.2601,830.365,-0.0665836,236.497,1.09351,3.96176,-0.138477,0.310101,-0.169909,0.243499,0.00141879,0.0046943,0.352601,-0.12931672324581234,0.27570504213498404,0.0014197969586966508,0.36356282702308906,0.004705335487450668,-0.15625840641200595
417,0.4072,67.3496,830.787,0.0102503,236.558,1.12018,3.98451,-0.138765,0.310746,-0.170264,0.244012,0.00142301,0.00470788,0.353344,-0.12956744392400688,0.2763596467133178,0.0014240229591566678,0.3644426087456236,0.004718979478549157,-0.1565578815177533
418,0.4082,67.3091,831.014,-0.0711002,236.682,1.09539,3.97427,-0.139053,0.311391,-0.17062,0.244527,0.00142648,0.00472094,0.354086,-0.12981809240504305,0.27701714122167886,0.001427497906545394,0.36532295811041404,0.00473210119410572,-0.15685809347103463
419,0.4092,67.4049,831.445,0.0137018,236.74,1.12466,3.99865,-0.139341,0.312035,-0.170976,0.24504,0.00143074,0.00473456,0.354828,-0.13006866870971046,0.27767241907952545,0.0014317639967733609,0.36620250928051545,0.004745785738515584,-0.15715819856788216
420,0.4102,67.3575,831.659,-0.0758921,236.866,1.09717,3.98665,-0.139628,0.312678,-0.171331,0.245554,0.00143418,0.00474761,0.35557,-0.13031830317753113,0.27832931150982465,0.0014352089279667801,0.36708125998205676,0.00475889775657512,-0.15745735430410568
421,0.4112,67.4601,832.099,0.0174235,236.92,1.12922,4.01278,-0.139916,0.313322,-0.171686,0.246066,0.00143847,0.00476127,0.356311,-0.1305687354422389,0.2789839836990966,0.0014395050942281884,0.3679619438632573,0.004772622856860753,-0.15775640385889111
422,0.4122,67.4053,832.302,-0.0809607,237.05,1.09883,3.9989,-0.140203,0.313964,-0.172041,0.246579,0.00144187,0.00477431,0.357051,-0.13081822641150043,0.2796402708059842,0.0014429099943338297,0.36884045740388993,0.004785725177289812,-0.1580553472699262
423,0.4132,67.5152,832.751,0.0214161,237.099,1.13385,4.02689,-0.14049,0.314607,-0.172395,0.24709,0.00144622,0.00478801,0.357791,-0.13106764578712782,0.28029433408330107,0.0014472662804674297,0.36972090485152,0.00479949083601916,-0.1583533429286491
424,0.4142,67.4525,832.941,-0.086305,237.232,1.10038,4.01103,-0.140777,0.315248,-0.17275,0.247603,0.00144957,0.00480104,0.35853,-0.13131699358966575,0.280951293572387,0.0014506211344287312,0.3705991774078119,0.004812583458682962,-0.1586520744639246
425,0.4152,67.5701,833.401,0.0256778,237.277,1.13855,4.041,-0.141064,0.31589,-0.173104,0.248113,0.00145396,0.00481479,0.359269,-0.13156626983965258,0.2816047453481483,0.0014550175123055897,0.37147938459598273,0.004826399726692188,-0.15894985891860614
426,0.4162,67.4991,833.577,-0.0919218,237.413,1.10183,4.02303,-0.14135,0.31653,-0.173458,0.248625,0.00145728,0.0048278,0.360008,-0.1318146063726615,0.28226109498893637,0.001458342348482855,0.3723574123410325,0.004839472603191508,-0.15924753797624702
427,0.4172,67.6248,834.048,0.0302041,237.454,1.14332,4.05509,-0.141636,0.317171,-0.173811,0.249135,0.00146172,0.0048416,0.360745,-0.1320628718915775,0.2829152149337886,0.0014627888333942352,0.3732373754403864,0.004853339483594787,-0.15954427121884285
428,0.4182,67.5451,834.209,-0.0978048,237.594,1.10316,4.0349,-0.141922,0.317811,-0.174164,0.249647,0.00146499,0.00485458,0.361483,-0.13231106641670753,0.2835722357067998,0.0014660636220678036,0.37411652865969014,0.00486638256459071,-0.15984089973308957
429,0.4192,67.6069,834.583,-0.053918,237.665,1.1198,4.05188,-0.142208,0.31845,-0.174517,0.250156,0.00146903,0.00486813,0.362219,-0.13255918996835325,0.2842257402775785,0.001470109553137755,0.3749948697215857,0.004879998596322821,-0.16013742355594995
430,0.4202,67.6421,834.916,-0.0414491,237.748,1.12504,4.0598,-0.142494,0.319089,-0.17487,0.250666,0.00147293,0.00488156,0.362956,-0.13280724256680987,0.28488086244707356,0.0014740152941812301,0.37587377222278073,0.004893494225326922,-0.16043384272437344
431,0.4212,67.6722,835.242,-0.0347463,237.834,1.12846,4.06755,-0.142779,0.319728,-0.175223,0.251175,0.00147683,0.00489501,0.363691,-0.13305435728715798,0.2855350332784121,0.001477921050456965,0.37675323652214954,0.004907010133718526,-0.1607301572752965
432,0.4222,67.6967,835.557,-0.0358424,237.922,1.12995,4.07381,-0.143064,0.320366,-0.175575,0.251684,0.0014807,0.00490844,0.364427,-0.13330140158984594,0.2861895371674599,0.0014817967775109242,0.3776318853462215,0.0049205061254899984,-0.16102552827159045
433,0.4232,67.7233,835.876,-0.0334277,238.008,1.13226,4.08085,-0.143349,0.321004,-0.175927,0.252193,0.00148458,0.00492189,0.365161,-0.1335483754949396,0.28684437428378606,0.0014856825344209401,0.37851109492710555,0.004934022397194093,-0.1613207953155904
434,0.4242,67.7463,836.189,-0.0358763,238.096,1.13316,4.08675,-0.143634,0.321641,-0.176279,0.252701,0.00148845,0.00493533,0.365896,-0.13379527902249966,0.28749825729814593,0.0014895582915117611,0.3793894862325029,0.00494752880121796,-0.1616159584438811
435,0.4252,67.7726,836.506,-0.0338119,238.183,1.13537,4.09362,-0.143919,0.322278,-0.17663,0.253209,0.00149233,0.00494879,0.366629,-0.13404211219258078,0.2881524725694633,0.0014934440785363545,0.3802684372514116,0.004961055485990018,-0.16191017960363308
436,0.4262,67.7951,836.817,-0.0365048,238.27,1.13613,4.09944,-0.144203,0.322914,-0.176981,0.253716,0.0014962,0.00496224,0.367362,-0.13428800931367413,0.2888057314601915,0.0014973198656647035,0.38114656719322504,0.004974572303086733,-0.16220429750987997
437,0.4272,67.8214,837.133,-0.0343755,238.356,1.13839,4.10628,-0.144487,0.32355,-0.177333,0.254223,0.00150009,0.00497572,0.368095,-0.1345338366099007,0.28945932163715127,0.0015012156978162494,0.38202525580331903,0.004988119451628803,-0.16249914970012658
438,0.4282,67.8435,837.442,-0.0372209,238.443,1.13907,4.11203,-0.144771,0.324186,-0.177683,0.25473,0.00150395,0.00498918,0.368827,-0.13477959410108786,0.2901132432683473,0.0015050814999699735,0.3829045034371197,0.005001646682754712,-0.16279222370678859
439,0.4292,67.8697,837.757,-0.0349539,238.528,1.14137,4.11885,-0.145055,0.324821,-0.178034,0.255237,0.00150784,0.00500267,0.369559,-0.13502528180705753,0.2907674965218694,0.0015089773623144787,0.38378292666666103,0.005015204246413996,-0.16308603206988326
440,0.4302,67.8915,838.064,-0.0379582,238.615,1.14198,4.12454,-0.145339,0.325455,-0.178384,0.255743,0.00151171,0.00501615,0.37029,-0.13527089974762596,0.2914207901444572,0.0015128532095565195,0.38466052321087574,0.0050287519426786,-0.16337890070365824
441,0.4312,67.9177,838.378,-0.0355325,238.7,1.14434,4.13135,-0.145622,0.326089,-0.178734,0.256248,0.00151561,0.00502965,0.371021,-0.13551558345861925,0.2920731223434969,0.0015167591173006478,0.38553867632771466,0.005042319922413441,-0.16367166685134749
442,0.4322,67.9392,838.684,-0.0387066,238.786,1.14487,4.13696,-0.145906,0.326723,-0.179084,0.256754,0.00151948,0.00504314,0.371751,-0.13576106217328954,0.29272707677992216,0.0015206349946581543,0.3864173863701563,0.0050558780347584875,-0.16396433054881476
443,0.4332,67.9653,838.996,-0.0361121,238.87,1.14728,4.14377,-0.146189,0.327356,-0.179434,0.257259,0.00152337,0.00505666,0.37248,-0.13600560718794286,0.29338006882030876,0.0015245309175058175,0.3872952663954434,0.00506946648208717,-0.1642568918319116
444,0.4342,67.9865,839.301,-0.0394635,238.956,1.14774,4.14931,-0.146471,0.327989,-0.179783,0.257764,0.00152724,0.00507016,0.373209,-0.1362492192557998,0.2940333907049544,0.001528406824940376,0.38817370229470227,0.0050830350114721146,-0.1645485152854097
445,0.4352,68.0126,839.612,-0.0366942,239.039,1.15019,4.15611,-0.146754,0.328621,-0.180132,0.258268,0.00153114,0.00508368,0.373938,-0.13649362614154492,0.2946857479140774,0.0015323127933437597,0.3890513053679123,0.0050966238259655405,-0.16484003698008032
446,0.4362,68.0335,839.915,-0.0402275,239.125,1.15058,4.16156,-0.147036,0.329253,-0.180481,0.258772,0.00153501,0.0050972,0.374666,-0.1367371006074598,0.2953384339941021,0.001536188730894228,0.3899294632615695,0.005110212824181115,-0.1651314569514314
447,0.4372,68.0595,840.225,-0.0372799,239.208,1.15309,4.16836,-0.147319,0.329885,-0.18083,0.259276,0.00153891,0.00511074,0.375394,-0.13698136944231742,0.29599144911082154,0.0015400947296468903,0.39080817632643106,0.005123822108597409,-0.16542277523495796
448,0.4382,68.08,840.527,-0.0409976,239.293,1.1534,4.17374,-0.147601,0.330516,-0.181178,0.259779,0.00154279,0.00512426,0.376121,-0.1372247063840134,0.2966434967859668,0.0015439807127533012,0.391686053226727,0.005137411474536169,-0.1657131575797176
449,0.4392,68.1061,840.836,-0.0378702,239.375,1.15596,4.18053,-0.147883,0.331146,-0.181526,0.260282,0.00154669,0.00513781,0.376847,-0.13746797471436634,0.29729587252359346,0.0015478867418947662,0.39256309167836423,0.005151031178735055,-0.1660034388890026
450,0.4402,68.1263,841.136,-0.041773,239.459,1.1562,4.18583,-0.148164,0.331776,-0.181874,0.260784,0.00155056,0.00515135,0.377573,-0.1377103121634654,0.2979472785408308,0.0015517627397165779,0.3934406828383106,0.0051646410158356915,-0.16629361919796692
451,0.4412,68.1523,841.444,-0.0384659,239.541,1.15881,4.19262,-0.148446,0.332406,-0.182222,0.261287,0.00155447,0.00516491,0.378299,-0.13795344357229544,0.29860031024564204,0.001555678814764816,0.3943188270548823,0.005178271140779733,-0.1665836985417527
452,0.4422,68.1721,841.742,-0.0425533,239.625,1.15898,4.19784,-0.148727,0.333035,-0.182569,0.261789,0.00155834,0.00517845,0.379024,-0.13819564462381018,0.29925237125500526,0.0015595548427418393,0.3951961294797879,0.005191881346712002,-0.16687284382875012
453,0.4432,68.1981,842.049,-0.0390675,239.706,1.16163,4.20462,-0.149008,0.333664,-0.182916,0.26229,0.00156225,0.00519203,0.379749,-0.13843777762639076,0.29990345977706023,0.0015634709482572617,0.3960739839015033,0.005205531945148056,-0.1671618887997388
454,0.4442,68.2177,842.346,-0.0433377,239.79,1.16173,4.20976,-0.149289,0.334293,-0.183263,0.262791,0.00156613,0.00520558,0.380473,-0.13867984259915633,0.3005548745761901,0.0015673570220635646,0.396952390667344,0.005219152572385477,-0.1674508334895224
455,0.4452,68.2436,842.652,-0.0396758,239.87,1.16444,4.21653,-0.14957,0.334921,-0.18361,0.263292,0.00157004,0.00521917,0.381196,-0.1389218395612204,0.301206615815901,0.0015712731580854733,0.3978299522941926,0.005232813593495367,-0.16773967793289224
456,0.4462,68.2628,842.948,-0.0441258,239.954,1.16446,4.22159,-0.14985,0.335548,-0.183956,0.263793,0.00157391,0.00523273,0.381919,-0.1391629076950296,0.3018586836597805,0.001575149246412888,0.39870666649546127,0.005246444642865944,-0.16802759019263425
457,0.4472,68.2888,843.253,-0.0402914,240.034,1.16721,4.22836,-0.15013,0.336175,-0.184302,0.264293,0.00157783,0.00524633,0.382642,-0.13940390833921024,0.3025097757610713,0.0015790754286932884,0.39958393056890107,0.005260116087478561,-0.16831540285196622
458,0.4482,68.3077,843.547,-0.044917,240.117,1.16717,4.23333,-0.15041,0.336802,-0.184648,0.264793,0.0015817,0.00525991,0.383364,-0.13964484151265688,0.30316119348981285,0.0015829515472154387,0.4004617448593901,0.005273767612548719,-0.16860311594534394
459,0.4492,68.3336,843.851,-0.040915,240.196,1.16996,4.24009,-0.15069,0.337428,-0.184994,0.265292,0.00158562,0.00527351,0.384086,-0.13988570723425864,0.30381163319657434,0.0015868777600809292,0.4013387083726132,0.005287439428756535,-0.1688907295072113
460,0.4502,68.3521,844.143,-0.0457107,240.278,1.16985,4.24499,-0.15097,0.338054,-0.18534,0.265791,0.00158949,0.0052871,0.384807,-0.1401265055228994,0.30446239755374327,0.0015907539087980371,0.40221622103686205,0.005301101377890971,-0.1691782435720003
461,0.4512,68.378,844.446,-0.0415472,240.357,1.17269,4.25174,-0.151249,0.338679,-0.185685,0.26629,0.00159341,0.00530071,0.385527,-0.14036637676426433,0.30511348672336025,0.0015946801522488396,0.40309288010243094,0.005314783618988184,-0.16946482763937376
462,0.4522,68.3963,844.737,-0.0465063,240.439,1.17251,4.25655,-0.151529,0.339304,-0.18603,0.266789,0.00159729,0.0053143,0.386247,-0.1406070404842772,0.30576490086754715,0.0015985663471471678,0.403970087251174,0.005328445939732918,-0.1697513128522974
463,0.4532,68.4221,845.039,-0.0421887,240.517,1.17539,4.26329,-0.151808,0.339929,-0.186375,0.267287,0.0016012,0.00532793,0.386967,-0.1408467776750889,0.30641533373252017,0.001602482605197686,0.40484784282575026,0.0053421486598348444,-0.17003769924487
464,0.4542,68.4401,845.329,-0.0473034,240.599,1.17515,4.26803,-0.152087,0.340553,-0.186719,0.267785,0.00160508,0.00534153,0.387686,-0.14108644798855408,0.30706609059372814,0.0016063688303695756,0.4057247414435887,0.0053558214060309695,-0.17032315717475088
465,0.4552,68.4658,845.63,-0.0428401,240.677,1.17806,4.27475,-0.152366,0.341177,-0.187063,0.268282,0.001609,0.00535517,0.388405,-0.1413260514433291,0.307715863896044,0.0016102951350309702,0.4066021874169219,0.0053695345529585214,-0.17060851692399182
466,0.4562,68.4835,845.918,-0.0481015,240.758,1.17776,4.27941,-0.152644,0.3418,-0.187408,0.268779,0.00161288,0.00536878,0.389123,-0.14156472962322375,0.3083659602159541,0.0016141813905155011,0.40747877360792883,0.005383217725437595,-0.17089460763216824
467,0.4572,68.5092,846.218,-0.043502,240.835,1.18071,4.28612,-0.152923,0.342423,-0.187751,0.269276,0.0016168,0.00538242,0.38984,-0.14180419965603586,0.3090163797140384,0.0016181077258019538,0.4083559060822821,0.005396931246053338,-0.171178942015616
468,0.4582,68.5266,846.505,-0.0489,240.916,1.18035,4.29071,-0.153201,0.343045,-0.188095,0.269772,0.00162068,0.00539604,0.390558,-0.1420427449292022,0.3096658128844887,0.001621994011599348,0.40923217594754235,0.005410624845510137,-0.17146400742550105
469,0.4592,68.5523,846.803,-0.0441749,240.992,1.18333,4.29739,-0.153479,0.343667,-0.188438,0.270268,0.0016246,0.0054097,0.391274,-0.14228122389599962,0.31031556825369,0.001625920377511525,0.4101089910222011,0.005424358848448385,-0.1717481465383105
470,0.4602,68.5694,847.089,-0.0496985,241.073,1.18291,4.30191,-0.153756,0.344288,-0.188781,0.270764,0.00162848,0.00542332,0.39199,-0.14251877909406652,0.3109656459814929,0.0016298066936222266,0.41098494065983804,0.005438052821471695,-0.17203218820811672
471,0.4612,68.595,847.387,-0.0448594,241.149,1.18592,4.30857,-0.154034,0.34491,-0.189124,0.271259,0.0016324,0.00543698,0.392706,-0.14275712574175936,0.3116147346124363,0.0016337330901601277,0.4118628462932765,0.005451787199078906,-0.17231613246833688
472,0.4622,68.6118,847.671,-0.0504965,241.229,1.18546,4.31301,-0.154311,0.34553,-0.189467,0.271754,0.00163628,0.00545062,0.393421,-0.14299454913327103,0.31226414462178664,0.0016376194365839147,0.41273847267410724,0.005465501654988714,-0.1725999793523768
473,0.4632,68.6373,847.968,-0.0455561,241.304,1.18849,4.31965,-0.154589,0.34615,-0.189809,0.272249,0.00164021,0.00546429,0.394136,-0.14323276353527592,0.3129138761686656,0.0016415558801634589,0.41361464211162424,0.00547924646234188,-0.17288290177694599
474,0.4642,68.6539,848.251,-0.0512938,241.384,1.18797,4.32403,-0.154866,0.34677,-0.190152,0.272743,0.00164408,0.00547793,0.39485,-0.14347005519336475,0.313562615849001,0.0016454322404855226,0.414491354942627,0.005492961292798526,-0.1731665542924492
475,0.4652,68.6793,848.546,-0.0462653,241.459,1.19102,4.33064,-0.155143,0.34739,-0.190494,0.273237,0.00164801,0.0054916,0.395564,-0.14370728113076703,0.3142116760859095,0.0016493687147693947,0.41536861150412396,0.005506706475527423,-0.17344928298151951
476,0.4662,68.6957,848.828,-0.0520899,241.538,1.19047,4.33494,-0.155419,0.348009,-0.190835,0.273731,0.00165189,0.00550525,0.396277,-0.1439435853096982,0.314861057037785,0.0016532551218595426,0.41624499588762887,0.005520431735745568,-0.17373108872541276
477,0.4672,68.721,849.123,-0.0469874,241.613,1.19353,4.34152,-0.155696,0.348627,-0.191177,0.274224,0.00165581,0.00551894,0.39699,-0.14418068009742324,0.3155094433529988,0.0016571816103156944,0.4171205057997853,0.005534197404681862,-0.17401362437671852
478,0.4682,68.7372,849.403,-0.0528846,241.691,1.19294,4.34577,-0.155972,0.349245,-0.191518,0.274717,0.00165969,0.00553259,0.397702,-0.14441685363626877,0.3161581494014738,0.001661068047720038,0.41799655694429116,0.005547923040153613,-0.17429523771300326
479,0.4692,68.7623,849.697,-0.0477228,241.765,1.19601,4.35231,-0.156248,0.349863,-0.191859,0.27521,0.00166362,0.00554628,0.398414,-0.14465296200021216,0.31680717534087743,0.001665004583452756,0.4188731496557312,0.005561689085448407,-0.17457675503551173
480,0.4702,68.7783,849.976,-0.0536777,241.844,1.19539,4.35649,-0.156524,0.35048,-0.1922,0.275702,0.0016675,0.00555994,0.399125,-0.14488900520723913,0.317455203873092,0.001668891051210153,0.41974886451932303,0.005575425151938429,-0.17485817637697898
481,0.4712,68.8033,850.268,-0.0484718,241.917,1.19847,4.363,-0.1568,0.351097,-0.19254,0.276194,0.00167143,0.00557364,0.399836,-0.14512498327533052,0.31810355131378953,0.001672827617687389,0.4206251198657074,0.005589201629631724,-0.17513867690921814
482,0.4722,68.8191,850.546,-0.0544691,241.995,1.19781,4.36712,-0.157075,0.351714,-0.192881,0.276686,0.0016753,0.00558731,0.400546,-0.14536004158293114,0.31875221781991137,0.001676704099031312,0.4215019160284652,0.005602948127975127,-0.17541990666799312
483,0.4732,68.844,850.838,-0.0492346,242.068,1.20089,4.37359,-0.157351,0.35233,-0.193221,0.277177,0.00167923,0.00560101,0.401256,-0.14559588966292203,0.31939988414793286,0.0016806406962137643,0.422377830962841,0.005616724982735688,-0.1757002162443977
484,0.4742,68.8596,851.115,-0.0552585,242.145,1.20021,4.37766,-0.157626,0.352945,-0.193561,0.277668,0.00168311,0.00561468,0.401966,-0.14583081848907065,0.3200478685582042,0.0016845272246395204,0.42325286237346194,0.005630471857325903,-0.17598043053174628
485,0.4752,68.8843,851.405,-0.0500114,242.218,1.20328,4.38407,-0.157901,0.353561,-0.1939,0.278159,0.00168704,0.00562839,0.402675,-0.14606568271867448,0.32069617120694205,0.0016884638525669349,0.424129856223058,0.005644259145606734,-0.17625972582256955
486,0.4762,68.8997,851.681,-0.0560461,242.295,1.20259,4.38809,-0.158176,0.354175,-0.19424,0.278649,0.00169092,0.00564207,0.403383,-0.1463004823694951,0.3213434709063083,0.0016923504113466326,0.42500454045535885,0.005658016453171433,-0.17653974990899757
487,0.4772,68.9243,851.97,-0.0508022,242.367,1.20564,4.39446,-0.15845,0.35479,-0.194579,0.279139,0.00169485,0.00565579,0.404091,-0.14653436399408004,0.32199108786024855,0.0016962870700192312,0.4258811877891633,0.00567181417580942,-0.17681885562268707
488,0.4782,68.9395,852.245,-0.0568319,242.443,1.20494,4.39843,-0.158725,0.355404,-0.194918,0.279628,0.00169872,0.00566947,0.404799,-0.14676903477527037,0.32263769958589417,0.00170016364215142,0.42675694766923566,0.005685571860329697,-0.17709786673557526
489,0.4792,68.9639,852.533,-0.0516071,242.515,1.20798,4.40474,-0.158999,0.356017,-0.195257,0.280118,0.00170266,0.00568319,0.405506,-0.14700278803408307,0.32328595086728473,0.0017041103485710973,0.4276318177984557,0.005699369961030376,-0.1773767832797266
490,0.4802,68.979,852.806,-0.0576159,242.591,1.20727,4.40866,-0.159273,0.35663,-0.195595,0.280607,0.00170653,0.00569688,0.406212,-0.1472364772532766,0.32393319593578074,0.001707986950979512,0.42850722438747324,0.005713138079647795,-0.17765478294238835
491,0.4812,69.0033,853.093,-0.052426,242.662,1.21028,4.41492,-0.159547,0.357243,-0.195933,0.281095,0.00171046,0.0057106,0.406918,-0.1474701024503956,0.3245794330044174,0.0017119236711038432,0.42938316776523866,0.005726936558559492,-0.17793268865704237
492,0.4822,69.0182,853.366,-0.0583985,242.738,1.20957,4.4188,-0.159821,0.357855,-0.196272,0.281583,0.00171434,0.00572429,0.407624,-0.1477036636429795,0.32522598551370474,0.0017158103209078401,0.4302582180019714,0.005740705054566142,-0.17821132224452607
493,0.4832,69.0422,853.652,-0.0532589,242.809,1.21256,4.425,-0.160094,0.358467,-0.196609,0.282071,0.00171827,0.00573802,0.408329,-0.14793630878529818,0.3258728536176154,0.0017197470717780217,0.43113380393335476,0.005754513969244535,-0.17848821836931217
494,0.4842,69.0571,853.923,-0.0591797,242.884,1.21185,4.42884,-0.160367,0.359079,-0.196947,0.282559,0.00172214,0.00575172,0.409033,-0.1481688904241616,0.3265200374701973,0.0017236237347004746,0.43200992588733444,0.005768292900471428,-0.17876584243039395
495,0.4852,69.0809,854.208,-0.0541054,242.954,1.2148,4.43497,-0.16064,0.35969,-0.197284,0.283046,0.00172607,0.00576545,0.409738,-0.14840140857690387,0.3271662100586996,0.0017275605162776486,0.4328851513061889,0.0057821021939334916,-0.1790425517133618
496,0.4862,69.0956,854.479,-0.0599599,243.029,1.2141,4.43877,-0.160913,0.3603,-0.197621,0.283533,0.00172995,0.00577915,0.410441,-0.14863386326085426,0.32781269740989094,0.0017314472267526693,0.43375947789098257,0.005795881503121603,-0.17931916776101253
497,0.4872,69.1192,854.762,-0.0549655,243.099,1.21702,4.44484,-0.161186,0.360911,-0.197958,0.28402,0.00173388,0.00579289,0.411144,-0.14886625449333746,0.3284594996770982,0.0017353840390759157,0.43463577261274966,0.0058097012334747955,-0.17959569060476088
498,0.4882,69.1339,855.032,-0.0607395,243.173,1.21633,4.44861,-0.161459,0.361521,-0.198295,0.284506,0.00173776,0.0058066,0.411847,-0.1490985822916734,0.32910528790777027,0.0017392707799064322,0.4355111674023098,0.00582349097900714,-0.1798721202760113
499,0.4892,69.1572,855.314,-0.0558388,243.243,1.21921,4.4546,-0.161731,0.36213,-0.198631,0.284992,0.00174168,0.00582034,0.412549,-0.14932999600359853,0.3297513900678011,0.001743197605544422,0.43638565995921375,0.005837311088717101,-0.18014763695420455
500,0.4902,69.1718,855.583,-0.0615189,243.316,1.21854,4.45834,-0.162004,0.362739,-0.198968,0.285477,0.00174556,0.00583404,0.413251,-0.14956219721778163,0.3303964759126563,0.0017470843766913546,0.43726068524428396,0.005851091154272403,-0.18042388065087367
501,0.4912,69.1949,855.864,-0.056725,243.386,1.22136,4.46426,-0.162276,0.363348,-0.199304,0.285963,0.00174949,0.00584779,0.413953,-0.14979348484359534,0.33104320574256896,0.0017510212504689981,0.43813624358205083,0.0058649217018604816,-0.1806992119687233
502,0.4922,69.2094,856.132,-0.0622986,243.459,1.22071,4.46797,-0.162547,0.363956,-0.199639,0.286448,0.00175336,0.0058615,0.414653,-0.15002385959201436,0.3316889182699847,0.0017548980344228582,0.43901089628562673,0.005878712204470782,-0.1809736317648315
503,0.4932,69.2323,856.412,-0.0576237,243.528,1.22349,4.47382,-0.162819,0.364564,-0.199975,0.286932,0.00175729,0.00587525,0.415354,-0.15025502166273852,0.3323336117096545,0.0017588349389081603,0.4398860809397429,0.005892543131850836,-0.18124877839733566
504,0.4942,69.2467,856.679,-0.063079,243.6,1.22286,4.4775,-0.163091,0.365171,-0.20031,0.287416,0.00176116,0.00588896,0.416054,-0.15048612086592983,0.3329786172564728,0.0017627117531009429,0.44076035710684613,0.005906334013153547,-0.18152301411952443
505,0.4952,69.2693,856.958,-0.0585344,243.669,1.22558,4.48327,-0.163362,0.365778,-0.200645,0.2879,0.00176509,0.00590271,0.416753,-0.15071630793541846,0.3336239350615364,0.0017666486882941257,0.4416351641206786,0.005920165320336235,-0.18179715798813256
506,0.4962,69.2837,857.224,-0.0638607,243.741,1.22499,4.48692,-0.163633,0.366385,-0.20098,0.288384,0.00176896,0.00591642,0.417452,-0.15094643263266316,0.33426956527601437,0.0017705255327262748,0.4425105023035618,0.005933956580341571,-0.1820712100339259
507,0.4972,69.306,857.501,-0.0594568,243.809,1.22765,4.49261,-0.163904,0.366991,-0.201315,0.288867,0.00177288,0.00593017,0.418151,-0.1511764949745643,0.33491417313630945,0.0017744524808831486,0.4433849285923632,0.005947788267337328,-0.18234517028765995
508,0.4982,69.3204,857.766,-0.0646443,243.881,1.22709,4.49624,-0.164175,0.367597,-0.201649,0.28935,0.00177676,0.00594389,0.418849,-0.15140649497801817,0.335559092417403,0.001778339373299298,0.44425988494408863,0.005961589965671754,-0.18261822139870998
509,0.4992,69.3424,858.043,-0.0603903,243.949,1.22969,4.50185,-0.164446,0.368202,-0.201984,0.289833,0.00178068,0.00595764,0.419546,-0.151636432659916,0.3362043232697476,0.001782266352086559,0.44513392654540396,0.005975422032628908,-0.18289199843432757
510,0.5002,69.3568,858.307,-0.0654304,244.02,1.22916,4.50546,-0.164716,0.368807,-0.202318,0.290315,0.00178456,0.00597136,0.420244,-0.1518654599030287,0.3368485289946712,0.0017861532748206788,0.4460084971018812,0.005989224110101388,-0.18316486693527412
511,0.5012,69.3785,858.583,-0.0613344,244.087,1.2317,4.51098,-0.164986,0.369412,-0.202651,0.290797,0.00178848,0.00598512,0.42094,-0.15209442531713302,0.33749304530159874,0.0017900802842385488,0.44688359693363444,0.006003066617061181,-0.1834368277505959
512,0.5022,69.3928,858.846,-0.0662196,244.158,1.23121,4.51457,-0.165256,0.370016,-0.202985,0.291279,0.00179235,0.00599884,0.421636,-0.15232332891892053,0.3381378723402664,0.00179395721935105,0.44775777860247,0.006016869073819819,-0.1837095143089369
513,0.5032,69.4143,859.12,-0.0622887,244.225,1.23368,4.52,-0.165526,0.37062,-0.203318,0.29176,0.00179627,0.00601259,0.422332,-0.15255217072507832,0.3387816714781422,0.0017978842593602273,0.4486324884365236,0.006030701900870072,-0.18398129378687755
514,0.5042,69.4286,859.383,-0.0670124,244.295,1.23323,4.52358,-0.165796,0.371223,-0.203651,0.292241,0.00180014,0.00602631,0.423027,-0.15278095075228904,0.33942578035789017,0.0018017612246743475,0.44950627724790104,0.006044504736787415,-0.18425298277731894
515,0.5052,69.4497,859.656,-0.0632525,244.362,1.23563,4.52892,-0.166066,0.371826,-0.203984,0.292721,0.00180406,0.00604007,0.423722,-0.15300966901723068,0.3400688590590031,0.0018056882952752762,0.4503805931128222,0.006058348004414071,-0.18452458131038862
516,0.5062,69.464,859.918,-0.0678096,244.432,1.23522,4.53248,-0.166335,0.372429,-0.204317,0.293202,0.00180793,0.00605379,0.424417,-0.15323747877447902,0.3407135872249041,0.0018095652907910154,0.45125543634919674,0.006072151219638444,-0.18479608941620362
517,0.5072,69.4849,860.19,-0.0642254,244.498,1.23755,4.53773,-0.166604,0.373031,-0.204649,0.293682,0.00181185,0.00606755,0.425111,-0.15346522725914413,0.3413572842216921,0.0018134923919841395,0.4521293551450438,0.006085994867683464,-0.18506669219197114
518,0.5082,69.4991,860.451,-0.0686118,244.567,1.23719,4.54127,-0.166873,0.373633,-0.204982,0.294161,0.00181572,0.00608127,0.425804,-0.15369291448770628,0.3419999482665854,0.0018173694177017197,0.4530038001983936,0.006099798462225525,-0.18533801980491638
519,0.5092,69.5197,860.721,-0.0652068,244.633,1.23944,4.54644,-0.167142,0.374234,-0.205314,0.294641,0.00181963,0.00609502,0.426497,-0.15392054047664094,0.34264426286488603,0.0018212865312741133,0.4538773179481037,0.006113632429562532,-0.18560844268965837
520,0.5102,69.534,860.982,-0.0694196,244.702,1.23913,4.54996,-0.167411,0.374835,-0.205645,0.29512,0.0018235,0.00610875,0.427189,-0.1541481052424195,0.3432875435202156,0.0018251635871551208,0.45475136083977064,0.006127446464569086,-0.18587796168727322
521,0.5112,69.5543,861.251,-0.0661963,244.768,1.24131,4.55504,-0.167679,0.375436,-0.205977,0.295598,0.00182741,0.0061225,0.427882,-0.15437476317669474,0.34392978845032807,0.0018290807312026924,0.45562592918909983,0.006141280812068883,-0.18614820534106424
522,0.5122,69.5685,861.511,-0.0702335,244.836,1.24104,4.55855,-0.167948,0.376036,-0.206308,0.296077,0.00183128,0.00613623,0.428573,-0.15460220577299943,0.3445736850199128,0.0018329578172473493,0.4564995668116909,0.006155095226689999,-0.1864175457068068
523,0.5132,69.5885,861.779,-0.0671934,244.901,1.24315,4.56353,-0.168216,0.376636,-0.206639,0.296555,0.00183519,0.00614998,0.429264,-0.1548287420246387,0.345216544872617,0.0018368749917703209,0.45737372877414173,0.006168929954363023,-0.18668679693564116
524,0.5142,69.6027,862.038,-0.0710542,244.969,1.24292,4.56702,-0.168484,0.377235,-0.20697,0.297032,0.00183906,0.00616371,0.429955,-0.15505521757269713,0.3458583662267447,0.0018407521079788491,0.4582469571434644,0.006182744748609581,-0.18695595905706686
525,0.5152,69.6224,862.305,-0.0681975,245.034,1.24495,4.57191,-0.168752,0.377834,-0.207301,0.29751,0.00184297,0.00617745,0.430645,-0.15528163243344117,0.34650184030385356,0.0018446693129776648,0.4591207087332694,0.0061965697945003395,-0.18722503210057362
526,0.5162,69.6366,862.563,-0.0718821,245.102,1.24478,4.57539,-0.169019,0.378433,-0.207631,0.297987,0.00184684,0.00619118,0.431335,-0.15550714213069716,0.3471442748901463,0.0018485464593502865,0.45999498385705917,0.006210384968244442,-0.18749320358925115
527,0.5172,69.656,862.829,-0.0692084,245.166,1.24673,4.58019,-0.169287,0.379031,-0.207962,0.298463,0.00185074,0.00620493,0.432024,-0.1557334358918876,0.3477856682044924,0.0018524536763004917,0.4608683219594727,0.0062242204561566705,-0.187762098834245
528,0.5182,69.6703,863.087,-0.0727179,245.233,1.2466,4.58365,-0.169554,0.379629,-0.208292,0.29894,0.00185461,0.00621865,0.432713,-0.15595882497372315,0.348428715322771,0.0018563308527985711,0.4617421824742569,0.006238025947166603,-0.18803009312014052
529,0.5192,69.6894,863.351,-0.0702254,245.298,1.24849,4.58836,-0.169821,0.380226,-0.208622,0.299416,0.00185851,0.0062324,0.433402,-0.15618415388470686,0.3490707201762979,0.001860238100108047,0.46261510309807385,0.00625186181514481,-0.18829799898251232
530,0.5202,69.7036,863.608,-0.0735621,245.364,1.2484,4.59181,-0.170088,0.380823,-0.208951,0.299891,0.00186238,0.00624612,0.43409,-0.1564094226409024,0.3497116809845222,0.0018641153067318061,0.4634885450110926,0.006265667685396936,-0.1885650050159462
531,0.5212,69.7224,863.872,-0.0712483,245.428,1.25021,4.59643,-0.170355,0.38142,-0.209281,0.300367,0.00186627,0.00625987,0.434777,-0.15663463125836896,0.3503542966750717,0.001868012565720445,0.4643625085246157,0.00627950393345178,-0.18883273438651516
532,0.5222,69.7366,864.128,-0.074415,245.494,1.25017,4.59986,-0.170621,0.382016,-0.20961,0.300842,0.00187014,0.00627359,0.435464,-0.1568589366125196,0.3509958673269593,0.0018718898024316921,0.4652355287138701,0.006293310182956313,-0.189099564520938
533,0.5232,69.7551,864.39,-0.0722768,245.558,1.25191,4.60438,-0.170888,0.382612,-0.209939,0.301317,0.00187403,0.00628733,0.436151,-0.15708402522577702,0.3516377427972952,0.0018757870916632502,0.4661090693782437,0.006307136748026521,-0.18936630688268608
534,0.5242,69.7693,864.646,-0.0752771,245.623,1.25191,4.6078,-0.171154,0.383208,-0.210267,0.301791,0.0018779,0.00630105,0.436837,-0.15730821105702952,0.3522785709516556,0.0018796643584617634,0.46698313082803167,0.0063209433766560075,-0.1896321511331881
535,0.5252,69.7875,864.907,-0.0733105,245.686,1.25358,4.61224,-0.17142,0.383803,-0.210596,0.302265,0.00188179,0.00631479,0.437523,-0.15753233726278137,0.35291970293056174,0.0018835616779364628,0.46785624551673566,0.0063347703214087225,-0.1898987183027614
536,0.5262,69.8017,865.162,-0.0761487,245.751,1.25362,4.61563,-0.171686,0.384398,-0.210924,0.302739,0.00188566,0.00632851,0.438208,-0.15775640385889111,0.35356113887806084,0.001887438974822686,0.4687298798632622,0.006348577329173599,-0.19016438795095403
537,0.5272,69.8197,865.422,-0.0743493,245.814,1.25522,4.61998,-0.171952,0.384992,-0.211252,0.303212,0.00188955,0.00634224,0.438893,-0.1579804108612125,0.35420152473606614,0.0018913363245405268,0.4696025645736004,0.006362394589995546,-0.1904299704737913
538,0.5282,69.8338,865.676,-0.0770303,245.879,1.2553,4.62336,-0.172217,0.385586,-0.21158,0.303686,0.00189341,0.00635596,0.439577,-0.1582035164895329,0.3548435684111211,0.001895203632562792,0.4704757678126441,0.0063762019767676925,-0.19069546589984576
539,0.5292,69.8515,865.935,-0.0753927,245.942,1.25684,4.62762,-0.172483,0.386179,-0.211908,0.304158,0.0018973,0.00636969,0.440261,-0.15842740457571103,0.35548320551789314,0.0018991010124851382,0.4713480185397372,0.006390019616878684,-0.1909608742576805
540,0.5302,69.8657,866.188,-0.0779221,246.006,1.25696,4.63098,-0.172748,0.386773,-0.212235,0.304631,0.00190116,0.0063834,0.440945,-0.15865039176639084,0.35612450072846413,0.001902968350478984,0.47222225888642755,0.006403817318630711,-0.19122538680164025
541,0.5312,69.883,866.446,-0.0764408,246.068,1.25843,4.63516,-0.173013,0.387365,-0.212563,0.305103,0.00190504,0.00639713,0.441628,-0.158873319873294,0.35676474257799806,0.0019068557415378162,0.47309407249505475,0.0064176353379030715,-0.1914906213739216
542,0.5322,69.8972,866.699,-0.0788244,246.132,1.25858,4.63849,-0.173278,0.387958,-0.21289,0.305575,0.0019089,0.00641084,0.442311,-0.15909618891207566,0.3574052866930142,0.0019107231094650512,0.47396787633727766,0.006431433418269128,-0.19175496071889386
543,0.5332,69.9143,866.956,-0.0774933,246.194,1.25999,4.64258,-0.173543,0.38855,-0.213216,0.306047,0.00191278,0.00642456,0.442993,-0.15931899889838685,0.35804613321621526,0.0019146105306122596,0.47484072365738417,0.006445241752260467,-0.19201840565784134
544,0.5342,69.9284,867.208,-0.0797373,246.257,1.26018,4.6459,-0.173807,0.389142,-0.213543,0.306518,0.00191664,0.00643827,0.443674,-0.15954090938920407,0.3586859236037687,0.0019184779284728837,0.47571408785608527,0.0064590402111130985,-0.19228257244556746
545,0.5352,69.9453,867.464,-0.0785502,246.319,1.26153,4.64991,-0.174072,0.389733,-0.213869,0.306989,0.00192051,0.00645199,0.444356,-0.15976360154020264,0.3593260154035718,0.0019223553604854615,0.4765864926522325,0.006472848923872565,-0.19254584541112518
546,0.5362,69.9593,867.715,-0.0806611,246.381,1.26175,4.65319,-0.174336,0.390324,-0.214195,0.307459,0.00192437,0.00646569,0.445037,-0.1599853946714146,0.35996504879189395,0.001926222788241283,0.4774594131920018,0.006486637696355491,-0.19280903256368442
547,0.5372,69.9759,867.97,-0.0796114,246.443,1.26304,4.65712,-0.1746,0.390914,-0.214521,0.307929,0.00192825,0.00647941,0.445717,-0.16020712925696823,0.3606043825965013,0.0019301102695272743,0.4783313714481765,0.006500446787754965,-0.1930721339312157
548,0.5382,69.99,868.22,-0.081596,246.505,1.26329,4.66039,-0.174864,0.391504,-0.214847,0.308399,0.0019321,0.00649311,0.446397,-0.1604288053123175,0.3612440169586222,0.0019339677078773487,0.47920384431151675,0.006514235938331447,-0.1933351495416803
549,0.5392,70.0063,868.474,-0.0806768,246.566,1.26452,4.66424,-0.175127,0.392094,-0.215173,0.308869,0.00193597,0.00650682,0.447076,-0.1606495835029158,0.3618839520195518,0.0019378451998353086,0.4800768320857298,0.006528035343100758,-0.19359807942303042
550,0.5402,70.0203,868.724,-0.082542,246.628,1.2648,4.66747,-0.175391,0.392684,-0.215498,0.309338,0.00193982,0.00652051,0.447755,-0.16087114276576153,0.36252282539714553,0.0019417026679651173,0.4809503350747033,0.006541814806224844,-0.19386011746372978
551,0.5412,70.0364,868.976,-0.0817465,246.689,1.26598,4.67124,-0.175654,0.393273,-0.215823,0.309807,0.00194369,0.00653421,0.448434,-0.1610918046369061,0.36316199847662767,0.0019455801898573544,0.4818228717588908,0.006555604523547087,-0.19412207035590334
552,0.5422,70.0504,869.226,-0.0834991,246.75,1.26628,4.67445,-0.175918,0.393861,-0.216148,0.310276,0.00194754,0.00654791,0.449112,-0.1613132471687816,0.363801471398592,0.0019494376877666753,0.48269443982338434,0.0065693944297897655,-0.19438393812721988
553,0.5432,70.0662,869.477,-0.0828205,246.81,1.26741,4.67815,-0.176181,0.394449,-0.216473,0.310744,0.00195141,0.0065616,0.44979,-0.16153379278175695,0.364439879863135,0.0019533152395936337,0.483566520520599,0.0065831744591235974,-0.19464572080533915
554,0.5442,70.0801,869.726,-0.0844676,246.872,1.26774,4.68132,-0.176444,0.395037,-0.216797,0.311212,0.00195525,0.00657529,0.450467,-0.16175428039886275,0.36507858717276354,0.001957162747711516,0.48443911415205165,0.006596954677107192,-0.19490661332492776
555,0.5452,70.0958,869.976,-0.0838989,246.932,1.26881,4.68494,-0.176706,0.395625,-0.217121,0.31168,0.00195911,0.00658898,0.451144,-0.16197387200964108,0.3657175934673702,0.0019610303098240855,0.48531222101943605,0.006610735083743435,-0.1951674213290323
556,0.5462,70.1096,870.224,-0.0854473,246.992,1.26916,4.68809,-0.176969,0.396212,-0.217446,0.312147,0.00196296,0.00660266,0.451821,-0.16219424390112858,0.36635553253069686,0.0019648878672164916,0.4861843552395255,0.0066245056127896,-0.19542894941648414
557,0.5472,70.125,870.474,-0.0849818,247.052,1.27019,4.69164,-0.177231,0.396799,-0.217769,0.312614,0.00196682,0.00661635,0.452497,-0.16241372025656842,0.3669937695811407,0.001968755459148097,0.48705700155268694,0.006638286396600579,-0.19568878390029443
558,0.5482,70.1388,870.721,-0.0864383,247.112,1.27056,4.69475,-0.177493,0.397385,-0.218093,0.313081,0.00197066,0.00663002,0.453172,-0.16263313911673538,0.367632304757894,0.00197260302655633,0.48792867233019055,0.006652047236030745,-0.19594933852218266
559,0.5492,70.154,870.97,-0.0860692,247.171,1.27154,4.69823,-0.177755,0.397971,-0.218416,0.313548,0.00197452,0.0066437,0.453847,-0.1628525004966912,0.3682711382002144,0.001976470648268558,0.48880085405646323,0.006665818330231055,-0.19620900494745475
560,0.5502,70.1677,871.216,-0.0874405,247.231,1.27193,4.70131,-0.178017,0.398557,-0.21874,0.314014,0.00197836,0.00665737,0.454522,-0.16307180441149371,0.36890890113783903,0.001980318245303314,0.4896735470310085,0.006679579546025272,-0.19646939104502614
561,0.5512,70.1827,871.464,-0.0871614,247.29,1.27287,4.70472,-0.178279,0.399142,-0.219063,0.31448,0.00198221,0.00667104,0.455196,-0.16329105087619689,0.3695469613422504,0.0019841758769545415,0.4905452610074996,0.006693340949936788,-0.19672888952045864
562,0.5522,70.1963,871.709,-0.0884539,247.35,1.27327,4.70776,-0.178541,0.399727,-0.219385,0.314945,0.00198605,0.00668471,0.45587,-0.16351023990585056,0.37018394876737326,0.0019880235035771854,0.49141748508585725,0.006707102541967824,-0.1969875011793215
563,0.5532,70.2111,871.956,-0.0882584,247.408,1.27417,4.7111,-0.178802,0.400311,-0.219708,0.31541,0.00198989,0.00669837,0.456543,-0.1637285352444543,0.37082123246052556,0.0019918711449748994,0.49228872727510464,0.006720854254912423,-0.19724683233220475
564,0.5542,70.2246,872.201,-0.0894785,247.467,1.27458,4.71411,-0.179063,0.400895,-0.22003,0.315875,0.00199373,0.00671203,0.457216,-0.1639467736154092,0.3714588125595044,0.0019957188011476834,0.49316047841839095,0.006734606155706979,-0.1975052772403305
565,0.5552,70.2392,872.447,-0.0893605,247.526,1.27545,4.71738,-0.179324,0.401479,-0.220353,0.31634,0.00199757,0.00672569,0.457889,-0.16416495503358197,0.3720966892021702,0.0019995664720953155,0.49403273881303167,0.006748358244353492,-0.19776444117855274
566,0.5562,70.2527,872.691,-0.0905142,247.584,1.27587,4.72036,-0.179585,0.402062,-0.220675,0.316804,0.00200141,0.00673934,0.458561,-0.16438307951383524,0.37273348979227183,0.0020034141578182396,0.4949040138517553,0.006762100453233888,-0.19802271944346095
567,0.5572,70.267,872.936,-0.0904677,247.642,1.2767,4.72356,-0.179846,0.402645,-0.220996,0.317268,0.00200524,0.00675299,0.459233,-0.16460114707102802,0.37337058592640826,0.0020072518382434623,0.49577579699192387,0.006775842849696678,-0.1982801128366698
568,0.5582,70.2804,873.18,-0.0915608,247.701,1.27713,4.7265,-0.180107,0.403228,-0.221318,0.317731,0.00200907,0.00676663,0.459904,-0.1648191577200152,0.37400660373445294,0.0020110895333673717,0.49664808852984654,0.006789575365848677,-0.19853822508203467
569,0.5592,70.2946,873.424,-0.0915804,247.758,1.27792,4.72964,-0.180367,0.40381,-0.221639,0.318195,0.00201291,0.00678028,0.460575,-0.16503627651234187,0.37464429073052785,0.0020149372633386786,0.49751939124186584,0.006803318137346803,-0.19879545302448987
570,0.5602,70.3079,873.667,-0.0926184,247.816,1.27836,4.73254,-0.180627,0.404392,-0.22196,0.318658,0.00201674,0.00679391,0.461245,-0.1652533388611206,0.3752808984004392,0.002018774987897709,0.49839120119965785,0.006817040960093834,-0.19905259841002654
571,0.5612,70.3219,873.91,-0.0926987,247.873,1.27912,4.73562,-0.180887,0.404974,-0.222281,0.31912,0.00202057,0.00680755,0.461915,-0.16547034478102463,0.3759164249708338,0.002022612727155204,0.49926351869852525,0.006830774038191878,-0.19930966126514138
572,0.5622,70.3351,874.152,-0.0936867,247.931,1.27956,4.73848,-0.181147,0.405555,-0.222602,0.319583,0.00202439,0.00682118,0.462585,-0.16568729428672369,0.37655362177527274,0.002026440460846768,0.5001348438983493,0.006844497235165337,-0.19956664161632232
573,0.5632,70.3489,874.395,-0.0938227,247.988,1.28029,4.7415,-0.181407,0.406136,-0.222923,0.320045,0.00202822,0.0068348,0.463254,-0.16590418739288348,0.377189736479715,0.0020302782294630006,0.5010066754852054,0.006858210550605204,-0.19982353949004883
574,0.5642,70.362,874.636,-0.0947658,248.045,1.28074,4.74432,-0.181667,0.406716,-0.223243,0.320506,0.00203204,0.00684842,0.463922,-0.16612102411416607,0.3778247673115924,0.0020341059924369187,0.5018775118751275,0.006871924052821665,-0.20007955499274688
575,0.5652,70.3756,874.877,-0.0949528,248.101,1.28144,4.74728,-0.181926,0.407296,-0.223563,0.320968,0.00203587,0.00686204,0.464591,-0.1663369708026171,0.3784614694209525,0.002037943790412111,0.5027488534966587,0.006885637741817163,-0.20033548858359074
576,0.5662,70.3886,875.118,-0.0958554,248.158,1.28189,4.75006,-0.182185,0.407876,-0.223883,0.321429,0.00203969,0.00687565,0.465258,-0.16655286156811833,0.3790970866568717,0.0020417715826686056,0.5036207006429183,0.006899341548600946,-0.2005913402887879
577,0.5672,70.4021,875.359,-0.096089,248.214,1.28257,4.75295,-0.182445,0.408455,-0.224203,0.32189,0.00204351,0.00688926,0.465926,-0.16676952965603864,0.37973299697988794,0.0020455993895471813,0.5044915491148947,0.006913045541895091,-0.2008471101345376
578,0.5682,70.415,875.598,-0.0969556,248.271,1.28302,4.75569,-0.182704,0.409034,-0.224522,0.32235,0.00204732,0.00690287,0.466593,-0.16698530840330372,0.3803678201566354,0.0020494171905536263,0.5053629019541364,0.006926749721701597,-0.2011019992494293
579,0.5692,70.4283,875.838,-0.0972316,248.327,1.28367,4.75853,-0.182962,0.409613,-0.224842,0.32281,0.00205114,0.00691647,0.467259,-0.16720019847172485,0.3810029354192186,0.002053245026638617,0.5062347594527568,0.006940444018618708,-0.20135760571045458
580,0.5702,70.4411,876.077,-0.0980661,248.383,1.28412,4.76123,-0.183221,0.410191,-0.225161,0.32327,0.00205495,0.00693006,0.467925,-0.16741586569021027,0.381638342902028,0.0020570628567750937,0.5071056147966699,0.006954128432238305,-0.20161233200322914
581,0.5712,70.4542,876.317,-0.0983808,248.438,1.28474,4.76401,-0.183479,0.410769,-0.22548,0.32373,0.00205876,0.00694365,0.468591,-0.16763064468917988,0.38227404273951615,0.0020608807014574904,0.5079769736404693,0.006967813031830472,-0.20186697705127554
582,0.5722,70.4669,876.555,-0.099187,248.494,1.28519,4.76667,-0.183738,0.411346,-0.225798,0.324189,0.00206257,0.00695724,0.469256,-0.1678462004365312,0.3829086521568532,0.002064698560686029,0.5088473274271801,0.006981497817397431,-0.20212074300164862
583,0.5732,70.4798,876.793,-0.0995368,248.549,1.28579,4.7694,-0.183996,0.411923,-0.226117,0.324648,0.00206638,0.00697082,0.469921,-0.16806086842345747,0.383543552926773,0.002068516434460488,0.5097181835529367,0.006995172718990084,-0.20237522589245205
584,0.5742,70.4924,877.031,-0.100318,248.604,1.28624,4.77201,-0.184254,0.4125,-0.226435,0.325106,0.00207018,0.0069844,0.470586,-0.16827548103318712,0.38417736100498434,0.0020723243020579485,0.5105895423076725,0.007008847806289298,-0.2026288302453889
585,0.5752,70.5052,877.268,-0.1007,248.659,1.28682,4.77468,-0.184512,0.413077,-0.226753,0.325565,0.00207399,0.00699797,0.47125,-0.16849003828000553,0.38481284424593243,0.0020761422048867217,0.511461403981488,0.0070225130090721954,-0.20288235396496312
586,0.5762,70.5176,877.505,-0.101459,248.714,1.28726,4.77725,-0.18477,0.413653,-0.227071,0.326023,0.00207779,0.00701154,0.471913,-0.16870454017819458,0.38544723379271395,0.0020799501014621136,0.5123322565316384,0.007036178397293202,-0.20313579707681162
587,0.5772,70.5303,877.742,-0.10187,248.769,1.28782,4.77987,-0.185027,0.414228,-0.227389,0.32648,0.00208159,0.0070251,0.472576,-0.16891815566060353,0.38608052787523306,0.002083758012507486,0.5132020976344953,0.007049833900456326,-0.2033891596065639
588,0.5782,70.5426,877.978,-0.102611,248.823,1.28826,4.7824,-0.185284,0.414804,-0.227706,0.326938,0.00208538,0.00703866,0.473239,-0.16913171625088752,0.38671549815409434,0.0020875559171473768,0.5140739531130054,0.007063489588789329,-0.20364164522188422
589,0.5792,70.5551,878.214,-0.103047,248.878,1.2888,4.78497,-0.185542,0.415379,-0.228023,0.327395,0.00208918,0.00705221,0.473901,-0.16934605261751456,0.3873493719658847,0.0020913638570949633,0.514944795979376,0.007077135391523548,-0.20389405081194922
590,0.5802,70.5673,878.45,-0.103772,248.932,1.28924,4.78745,-0.185799,0.415953,-0.228341,0.327852,0.00209297,0.00706576,0.474563,-0.16955950325241043,0.38798353552420917,0.0020951617905609066,0.5158146239090018,0.0070907813791594165,-0.2041471722553485
591,0.5812,70.5797,878.685,-0.104232,248.986,1.28976,4.78997,-0.186056,0.416528,-0.228657,0.328308,0.00209676,0.0070793,0.475225,-0.16977289903754156,0.3886166003442175,0.0020989597384213354,0.5166864679488898,0.007104417480655378,-0.20439862201776093
592,0.5822,70.5917,878.919,-0.104943,249.039,1.29018,4.79241,-0.186312,0.417102,-0.228974,0.328764,0.00210055,0.00709283,0.475886,-0.16998540997282763,0.3892499539076122,0.002102757700675806,0.5175572958852004,0.007118043695605092,-0.20465078768421152
593,0.5832,70.6039,879.154,-0.105425,249.093,1.29069,4.79488,-0.186569,0.417675,-0.229291,0.32922,0.00210434,0.00710637,0.476547,-0.17019869631399587,0.38988359634609027,0.002106555677324762,0.5184271053923677,0.007131680166235332,-0.20490287342681446
594,0.5842,70.6159,879.388,-0.106124,249.146,1.29111,4.79727,-0.186825,0.418248,-0.229607,0.329676,0.00210813,0.00711989,0.477207,-0.17041109825913048,0.3905175277914088,0.0021103536683679813,0.5192974134432018,0.007145296678598756,-0.2051540844253834
595,0.5852,70.6279,879.622,-0.106626,249.2,1.29159,4.79969,-0.187082,0.418821,-0.229923,0.330131,0.00211191,0.00713341,0.477867,-0.17062427521246604,0.3911503572243322,0.0021141416526639922,0.5201682203234501,0.007158913375058473,-0.2054052160538179
596,0.5862,70.6398,879.855,-0.107315,249.253,1.29201,4.80204,-0.187338,0.419394,-0.230239,0.330586,0.00211569,0.00714693,0.478526,-0.17083656822334692,0.3917834746601634,0.0021179296512787715,0.5210395263190235,0.007172530255617149,-0.20565626833719508
597,0.5872,70.6517,880.088,-0.107834,249.306,1.29248,4.80441,-0.187594,0.419966,-0.230554,0.33104,0.00211947,0.00716044,0.479185,-0.1710488068941728,0.3924154878137893,0.0021217176642123192,0.5219098098054267,0.00718613724841588,-0.20590644720742812
598,0.5882,70.6634,880.32,-0.108515,249.358,1.29289,4.80672,-0.18785,0.420537,-0.23087,0.331495,0.00212325,0.00717394,0.479844,-0.17126099123885286,0.3930491810150152,0.0021255056914644133,0.5227790684565525,0.007199734353048992,-0.20615734112678352
599,0.5892,70.6752,880.553,-0.109051,249.411,1.29334,4.80904,-0.188105,0.421109,-0.231185,0.331949,0.00212702,0.00718744,0.480502,-0.1714722927440001,0.3936817689297871,0.002129283711742369,0.5236503472456877,0.00721333164124438,-0.20640736218394473
600,0.5902,70.6867,880.784,-0.109725,249.463,1.29374,4.8113,-0.188361,0.42168,-0.2315,0.332402,0.00213079,0.00720093,0.48116,-0.17168436869017834,0.3943132497907287,0.002133061746263598,0.5245206000274893,0.007226919040735025,-0.2066573044968758
601,0.5912,70.6984,881.016,-0.110275,249.516,1.29418,4.81358,-0.188616,0.422251,-0.231815,0.332856,0.00213456,0.00721442,0.481817,-0.1718955622478393,0.3949464117230168,0.0021368397950278784,0.5253913498655254,0.007240506623520826,-0.20690716809037724
602,0.5922,70.7098,881.247,-0.110945,249.568,1.29457,4.8158,-0.188871,0.422821,-0.23213,0.333309,0.00213833,0.0072279,0.482474,-0.17210670195800892,0.3955784655969212,0.002140617858035654,0.5262610707818622,0.007254084317063647,-0.20715695298924175
603,0.5932,70.7213,881.478,-0.111509,249.619,1.295,4.81802,-0.189126,0.423391,-0.232444,0.333761,0.0021421,0.00724137,0.48313,-0.17231778783441654,0.39620940964598406,0.0021443959352867026,0.5271312875804344,0.007267652120958257,-0.20740586662451732
604,0.5942,70.7326,881.708,-0.112175,249.671,1.29538,4.8202,-0.189381,0.423961,-0.232759,0.334214,0.00214586,0.00725484,0.483786,-0.17252881989078805,0.3968420357875564,0.00214816400529938,0.5280020005439752,0.007281220107612452,-0.20765549445808262
605,0.5952,70.744,881.938,-0.11275,249.723,1.29579,4.82238,-0.189636,0.42453,-0.233073,0.334666,0.00214962,0.00726831,0.484442,-0.17273979814084583,0.39747355109944116,0.0021519320894800575,0.5288716810829341,0.007294788277028896,-0.20790425157591141
606,0.5962,70.7552,882.168,-0.113414,249.774,1.29617,4.82452,-0.189891,0.425099,-0.233387,0.335118,0.00215338,0.00728176,0.485097,-0.17295072259830868,0.3981053519207671,0.002155700187828735,0.5297418566109307,0.007308336483042632,-0.20815293059626716
607,0.5972,70.7664,882.397,-0.114001,249.825,1.29656,4.82665,-0.190145,0.425667,-0.2337,0.33557,0.00215714,0.00729521,0.485752,-0.17316076643807177,0.3987374383806137,0.002159468300345413,0.5306109967979316,0.007321884871281048,-0.20840073994480435
608,0.5982,70.7775,882.626,-0.114663,249.876,1.29693,4.82875,-0.190399,0.426236,-0.234014,0.336021,0.0021609,0.00730866,0.486407,-0.1733707569334746,0.3993684112390079,0.002163236427030313,0.5314821622781847,0.007335433441746586,-0.2086492630922856
609,0.5992,70.7885,882.855,-0.11526,249.927,1.29731,4.83084,-0.190653,0.426804,-0.234327,0.336472,0.00216465,0.0073221,0.487061,-0.17358069409806487,0.3999996687303411,0.0021669945462132745,0.5323522912395899,0.007348972120951647,-0.20889691711306158
610,0.6002,70.7995,883.083,-0.115921,249.978,1.29767,4.83289,-0.190907,0.427371,-0.23464,0.336922,0.0021684,0.00733553,0.487714,-0.173790577945387,0.400629810352501,0.002170752679489407,0.5332213813524862,0.007362500908492775,-0.209144493630259
611,0.6012,70.8104,883.311,-0.116528,250.029,1.29804,4.83494,-0.191161,0.427938,-0.234953,0.337373,0.00217215,0.00734896,0.488368,-0.17400040848898168,0.40126163686313876,0.002174510826858489,0.5340909643792044,0.007376029877726786,-0.2093919926681327
612,0.6022,70.8212,883.539,-0.117189,250.079,1.29839,4.83695,-0.191415,0.428505,-0.235266,0.337823,0.00217589,0.00736238,0.48902,-0.17421018574238645,0.40189234649875183,0.0021782589665380048,0.5349610405993059,0.0073895489547606275,-0.2096394142509299
613,0.6032,70.832,883.766,-0.117805,250.129,1.29875,4.83895,-0.191668,0.429072,-0.235578,0.338272,0.00217964,0.00737579,0.489673,-0.17441908413863227,0.40252193749493137,0.002182017142055681,0.5358316102925105,0.0074030581391910655,-0.20988596828925365
614,0.6042,70.8427,883.993,-0.118467,250.179,1.29909,4.84092,-0.191922,0.429638,-0.235891,0.338722,0.00218338,0.0073892,0.490325,-0.17462875506192654,0.40315321439345353,0.0021857653098089624,0.5367011370367916,0.007416567504780813,-0.210133235281876
615,0.6052,70.8533,884.219,-0.119091,250.229,1.29944,4.84288,-0.192175,0.430204,-0.236203,0.339171,0.00218712,0.0074026,0.490976,-0.17483754757352943,0.40378337164643274,0.0021895134915801417,0.5375711560725149,0.007430066977231586,-0.21037963527207082
616,0.6062,70.8639,884.446,-0.119754,250.279,1.29977,4.84481,-0.192428,0.430769,-0.236515,0.33962,0.00219085,0.00741599,0.491628,-0.17504628726730853,0.4044138119035481,0.002193251665437268,0.5384401292374987,0.00744355655614104,-0.21062595839746012
617,0.6072,70.8744,884.672,-0.120386,250.328,1.30011,4.84673,-0.192681,0.431334,-0.236827,0.340068,0.00219459,0.00742938,0.492278,-0.17525497415662528,0.4050431302480646,0.002196999875207606,0.5393095935110455,0.007457046315676896,-0.21087220468202228
618,0.6082,70.8849,884.897,-0.121051,250.378,1.30043,4.84862,-0.192934,0.431899,-0.237138,0.340517,0.00219832,0.00744276,0.492929,-0.17546360825483742,0.40567413626379545,0.0022007380769888396,0.5401795491707104,0.00747052618113675,-0.2111175852677073
619,0.6092,70.8952,885.122,-0.12169,250.427,1.30075,4.85049,-0.193186,0.432463,-0.23745,0.340964,0.00220205,0.00745613,0.493579,-0.17567136524707672,0.40630261305680415,0.0022044762927135864,0.541048455444979,0.007483996152118255,-0.2113636781886118
620,0.6102,70.9056,885.347,-0.122358,250.476,1.30106,4.85234,-0.193439,0.433027,-0.237761,0.341412,0.00220577,0.0074695,0.494228,-0.17587989401166815,0.4069327777738103,0.002208204500300015,0.5419178519206103,0.007497466303194589,-0.21160890594980164
621,0.6112,70.9158,885.572,-0.123004,250.525,1.30138,4.85417,-0.193691,0.433591,-0.238072,0.341859,0.0022095,0.00748286,0.494878,-0.1760875461131135,0.4075618173053366,0.0022119427438744843,0.5427877388741555,0.007510926559258779,-0.21185405745701602
622,0.6122,70.926,885.796,-0.123674,250.574,1.30168,4.85598,-0.193943,0.434154,-0.238382,0.342306,0.00221322,0.00749621,0.495526,-0.17629514589282214,0.40819113808038665,0.0022156709792360285,0.5436565729249774,0.00752437691990937,-0.21209834483270473
623,0.6132,70.9361,886.02,-0.124327,250.622,1.30198,4.85778,-0.194195,0.434717,-0.238693,0.342753,0.00221694,0.00750956,0.496175,-0.1765026933639775,0.4088207402247044,0.002219399228466701,0.5445258962670927,0.007537827460123436,-0.21234334414809353
624,0.6142,70.9462,886.243,-0.125,250.671,1.30228,4.85955,-0.194447,0.43528,-0.239003,0.343199,0.00222066,0.0075229,0.496823,-0.1767101885397595,0.40944921441417126,0.002223127491566279,0.5453957091760495,0.007551268104390552,-0.21258747986841586
625,0.6152,70.9561,886.466,-0.125659,250.719,1.30257,4.8613,-0.194699,0.435843,-0.239314,0.343646,0.00222437,0.00753623,0.49747,-0.17691763143334516,0.41007937904431646,0.002226845746266637,0.546266011927552,0.007564698852310148,-0.21283232708646083
626,0.6162,70.9661,886.689,-0.126336,250.767,1.30286,4.86303,-0.19495,0.436405,-0.239624,0.344091,0.00222808,0.00754956,0.498117,-0.17712419918251832,0.4107070040041876,0.002230564014761738,0.5471352576614277,0.0075781297792627544,-0.21307631124556548
627,0.6172,70.9759,886.912,-0.127001,250.815,1.30314,4.86475,-0.195202,0.436966,-0.239933,0.344537,0.00223179,0.00756288,0.498764,-0.17733153775856647,0.4113363196549318,0.002234282297051804,0.5480034440444865,0.007591550809335379,-0.21331943310112944
628,0.6182,70.9857,887.134,-0.127681,250.863,1.30342,4.86644,-0.195453,0.437528,-0.240243,0.344982,0.0022355,0.00757619,0.499411,-0.17753800163028932,0.4119645040778461,0.002238000593136391,0.5488736664896419,0.007604961942127453,-0.2135632662807726
629,0.6192,70.9954,887.356,-0.128353,250.91,1.30369,4.86812,-0.195704,0.438089,-0.240553,0.345427,0.00223921,0.00758949,0.500056,-0.1777444136860834,0.41259296810503576,0.0022417189030161655,0.5497428283936614,0.007618363177239296,-0.21380702388384498
630,0.6202,71.0051,887.578,-0.129037,250.958,1.30396,4.86978,-0.195955,0.438649,-0.240862,0.345872,0.00224291,0.00760279,0.500702,-0.1779507739389531,0.4132217118609527,0.002245427204236483,0.5506109274226036,0.007631764590588785,-0.21404991998408474
631,0.6212,71.0147,887.799,-0.129714,251.005,1.30422,4.87142,-0.196206,0.439209,-0.241171,0.346316,0.00224661,0.00761608,0.501347,-0.1781570824018991,0.41384932162007515,0.002249135519177381,0.5514795127231455,0.0076451561057266915,-0.21429274104102425
632,0.6222,71.0242,888.02,-0.130402,251.052,1.30448,4.87304,-0.196456,0.439769,-0.24148,0.34676,0.00225031,0.00762936,0.501992,-0.17836251745084752,0.414477210099802,0.002252843847839303,0.5523485845676752,0.0076585377222533335,-0.21453548707784842
633,0.6232,71.0337,888.24,-0.131085,251.099,1.30473,4.87464,-0.196707,0.440329,-0.241788,0.347204,0.002254,0.00764264,0.502636,-0.17856872257914125,0.4151053774239126,0.0022565421676565833,0.5532181432287337,0.007671919516489378,-0.21477737289550036
634,0.6242,71.0431,888.461,-0.131777,251.146,1.30498,4.87622,-0.196957,0.440888,-0.242097,0.347647,0.00225769,0.00765591,0.50328,-0.17877405473090802,0.4157324079831257,0.002260240501120503,0.5540866348916027,0.0076852914115836946,-0.21501996920421562
635,0.6252,71.0524,888.681,-0.132465,251.193,1.30523,4.87779,-0.197208,0.441447,-0.242405,0.34809,0.00226138,0.00766917,0.503924,-0.17898015657630695,0.41635971637841274,0.002263938848231506,0.55495561217703,0.00769865340713749,-0.21526170582435022
636,0.6262,71.0617,888.9,-0.133162,251.239,1.30547,4.87934,-0.197458,0.442006,-0.242713,0.348533,0.00226507,0.00768242,0.504567,-0.1791853858824306,0.4169873027328823,0.0022676372089891483,0.555825075356555,0.007712005502752639,-0.21550336800107073
637,0.6272,71.0709,889.119,-0.133856,251.285,1.30571,4.88087,-0.197708,0.442564,-0.243021,0.348976,0.00226875,0.00769567,0.50521,-0.17939056388764074,0.4176151671696977,0.0022713255606807703,0.5566934680076214,0.0077253577752840474,-0.21574495575730213
638,0.6282,71.08,889.338,-0.134557,251.332,1.30594,4.88238,-0.197957,0.443122,-0.243329,0.349418,0.00227244,0.00770891,0.505852,-0.17959487020004128,0.41824189156947567,0.002275023948695498,0.5575623453570053,0.007738700147347455,-0.2159864691159623
639,0.6292,71.0891,889.557,-0.135257,251.378,1.30617,4.88388,-0.198207,0.44368,-0.243636,0.34986,0.00227612,0.00772214,0.506494,-0.17979994584696724,0.41886889304266717,0.0022787123275702648,0.5584317076752441,0.007752032618544513,-0.2162271243274787
640,0.6302,71.0981,889.775,-0.135962,251.423,1.30639,4.88535,-0.198457,0.444237,-0.243944,0.350301,0.00227979,0.00773536,0.507136,-0.18000497023138962,0.4194947522163037,0.00228239069719427,0.5592999959322498,0.007765355188477763,-0.2164684892010872
641,0.6312,71.1071,889.994,-0.136667,251.469,1.30661,4.88682,-0.198706,0.444794,-0.244251,0.350743,0.00228347,0.00774858,0.507777,-0.18020912357565588,0.420122307576301,0.0022860791031786842,0.5601687679605327,0.007778677934536349,-0.21670899645514996
642,0.6322,71.1159,890.211,-0.137378,251.515,1.30683,4.88826,-0.198955,0.44535,-0.244558,0.351184,0.00228714,0.00776179,0.508418,-0.18041322609206767,0.42074871962764737,0.0022897574998388404,0.5610364629923847,0.007791990778803104,-0.21694942988481847
643,0.6332,71.1248,890.429,-0.138088,251.56,1.30704,4.88969,-0.199204,0.445907,-0.244865,0.351625,0.00229081,0.00777499,0.509058,-0.18061727779327963,0.42137540798762996,0.0022934359099988644,0.5619062025022385,0.007805293720880568,-0.21718978951275314
644,0.6342,71.1335,890.646,-0.138803,251.605,1.30725,4.8911,-0.199453,0.446463,-0.245171,0.352065,0.00229447,0.00778818,0.509698,-0.1808212786919432,0.42200095077646593,0.0022971043106874145,0.5627748638162973,0.00781858676037217,-0.21742929279129175
645,0.6352,71.1422,890.863,-0.139518,251.65,1.30745,4.89249,-0.199702,0.447018,-0.245478,0.352505,0.00229814,0.00780136,0.510338,-0.1810252288007066,0.4226267688646905,0.002300782747810093,0.5636424445971122,0.007831869896881338,-0.21766950512392513
646,0.6362,71.1508,891.079,-0.140239,251.695,1.30765,4.89387,-0.19995,0.447574,-0.245784,0.352945,0.0023018,0.00781454,0.510977,-0.1812283093609337,0.42325286237346194,0.0023044511753882446,0.564512071530193,0.007845153208463351,-0.21790886163194378
647,0.6372,71.1594,891.295,-0.140959,251.74,1.30785,4.89523,-0.200199,0.448128,-0.24609,0.353385,0.00230546,0.00782771,0.511616,-0.18143215813167768,0.42387923142399186,0.0023081196163927675,0.5653790513490564,0.007858426616536462,-0.218148144908076
648,0.6382,71.1679,891.511,-0.141684,251.785,1.30804,4.89658,-0.200447,0.448683,-0.246396,0.353824,0.00230911,0.00784087,0.512255,-0.18163513778594353,0.4245044516323817,0.0023117780477059924,0.5662480778551036,0.007871690120704322,-0.2183873549747274
649,0.6392,71.1763,891.727,-0.14241,251.829,1.30823,4.89791,-0.200695,0.449237,-0.246701,0.354263,0.00231276,0.00785403,0.512893,-0.18183806710749673,0.4251299463726983,0.0023154364923725357,0.5671160196879244,0.007884953799421002,-0.2186257104803977
650,0.6402,71.1847,891.942,-0.14314,251.873,1.30842,4.89922,-0.200943,0.449791,-0.247007,0.354701,0.00231642,0.00786717,0.51353,-0.18204094610881805,0.4257542900104849,0.0023191049735833413,0.5679844424937375,0.007898197494724979,-0.21886477443434038
651,0.6412,71.193,892.157,-0.143872,251.918,1.3086,4.90052,-0.201191,0.450345,-0.247312,0.35514,0.00232006,0.00788031,0.514168,-0.18224377480238552,0.42638033355030225,0.0023227534217657997,0.5688533465390762,0.007911441364051974,-0.21910298434927922
652,0.6422,71.2012,892.372,-0.144607,251.962,1.30877,4.9018,-0.201439,0.450898,-0.247617,0.355578,0.00232371,0.00789344,0.514805,-0.18244655320067382,0.4270052249776297,0.0023264119064925204,0.5697211623686738,0.007924675328157882,-0.21934112162127262
653,0.6432,71.2094,892.586,-0.145344,252.005,1.30895,4.90307,-0.201687,0.451451,-0.247922,0.356016,0.00232735,0.00790656,0.515441,-0.18264928131615465,0.42763039016735194,0.0023300603812719256,0.5705894582331423,0.007937899386647906,-0.21957918627247341
654,0.6442,71.2175,892.8,-0.146084,252.049,1.30912,4.90433,-0.201934,0.452004,-0.248227,0.356453,0.00233099,0.00791968,0.516077,-0.18285114201284725,0.4282544009842879,0.0023337088693320407,0.571458234398015,0.007951123618638478,-0.21981717832502734
655,0.6452,71.2256,893.014,-0.146826,252.092,1.30929,4.90557,-0.202182,0.452556,-0.248531,0.35689,0.00233463,0.00793278,0.516713,-0.18305376980274357,0.42887868455354305,0.0023373573706726436,0.572325918802266,0.007964327864845577,-0.22005431785578156
656,0.6462,71.2336,893.227,-0.147571,252.136,1.30945,4.90679,-0.202429,0.453108,-0.248836,0.357327,0.00233826,0.00794588,0.517348,-0.18325553060311772,0.429503240994336,0.0023409958618836324,0.5731940823005259,0.00797753228402942,-0.2202921650152999
657,0.6472,71.2415,893.44,-0.148318,252.179,1.30961,4.908,-0.202676,0.45366,-0.24914,0.357764,0.00234189,0.00795897,0.517983,-0.1834572415747282,0.4301280704259378,0.0023446343663025004,0.5740627251573278,0.007990726796284875,-0.22052916017204627
658,0.6482,71.2493,893.653,-0.149069,252.222,1.30977,4.9092,-0.202923,0.454211,-0.249444,0.3582,0.00234552,0.00797206,0.518618,-0.18365890272988128,0.43075174221521384,0.0023482728839292477,0.5749302727062902,0.008003921481257725,-0.2207660832932149
659,0.6492,71.2571,893.866,-0.149822,252.265,1.30992,4.91038,-0.203169,0.454762,-0.249748,0.358636,0.00234915,0.00798513,0.519252,-0.18385969794098622,0.43137568598467735,0.002351911414763652,0.5757982984056704,0.008017096178607908,-0.2210029344007014
660,0.6502,71.2648,894.078,-0.150577,252.308,1.31007,4.91155,-0.203416,0.455312,-0.250051,0.359072,0.00235277,0.0079982,0.519886,-0.18406125970169263,0.43199990185293746,0.0023555399352506168,0.5766652258529876,0.00803027104815257,-0.22123893475571854
661,0.6512,71.2725,894.29,-0.151335,252.35,1.31022,4.9127,-0.203663,0.455863,-0.250355,0.359508,0.00235639,0.00801125,0.52052,-0.18426277168279215,0.43262438993865526,0.002359168468872852,0.577534207774967,0.008043425929025183,-0.2214756421382077
662,0.6522,71.2801,894.502,-0.152096,252.393,1.31036,4.91384,-0.203909,0.456413,-0.250658,0.359943,0.00236001,0.0080243,0.521153,-0.18446341836040492,0.43324771711210963,0.002362797015630358,0.5784020902350417,0.008056580981570027,-0.22171149928447775
663,0.6532,71.2877,894.713,-0.15286,252.435,1.3105,4.91497,-0.204155,0.456962,-0.250961,0.360378,0.00236363,0.00803734,0.521785,-0.18466401568500568,0.43387131549186764,0.0023664255755233565,0.5792688708921003,0.008069726125092158,-0.22194728497685823
664,0.6542,71.2951,894.924,-0.153626,252.477,1.31064,4.91608,-0.204401,0.457512,-0.251264,0.360812,0.00236724,0.00805038,0.522418,-0.18486456366873383,0.4344937507014617,0.0023700441248510895,0.5801377076793057,0.008082871440028061,-0.22218299923699636
665,0.6552,71.3025,895.135,-0.154395,252.519,1.31078,4.91718,-0.204647,0.458061,-0.251566,0.361246,0.00237085,0.0080634,0.52305,-0.18506506232372566,0.4351164561065648,0.0023736626872419286,0.5810054414519474,0.008095996764460045,-0.2224178645047863
666,0.6562,71.3099,895.346,-0.155167,252.561,1.31091,4.91827,-0.204893,0.45861,-0.251869,0.36168,0.00237445,0.00807642,0.523681,-0.18526551166211458,0.4357394318244674,0.002377271238922951,0.5818736517412224,0.008109122259784662,-0.22265343620092715
667,0.6572,71.3172,895.556,-0.155941,252.603,1.31104,4.91935,-0.205139,0.459158,-0.252171,0.362114,0.00237806,0.00808943,0.524312,-0.18546591169603088,0.4363626779725107,0.0023808898274035872,0.5827407560672624,0.008122237844781832,-0.2228881594182046
668,0.6582,71.3244,895.766,-0.156718,252.644,1.31117,4.92041,-0.205384,0.459706,-0.252473,0.362548,0.00238166,0.00810243,0.524943,-0.1856654481034573,0.43698619466808686,0.0023844984051024642,0.5836083356966943,0.008135343519060534,-0.22312281175977333
669,0.6592,71.3315,895.975,-0.157498,252.686,1.31129,4.92146,-0.205629,0.460254,-0.252775,0.362981,0.00238526,0.00811542,0.525573,-0.18586493563045203,0.4376085444193756,0.002388106995792283,0.5844763908900557,0.008148439282229747,-0.2233573932470344
670,0.6602,71.3386,896.185,-0.15828,252.727,1.31141,4.9225,-0.205875,0.460801,-0.253077,0.363414,0.00238886,0.0081284,0.526203,-0.18606518822420803,0.4382311637064571,0.002391715599472821,0.5853433365638978,0.008161525133898673,-0.22359190390138262
671,0.6612,71.3456,896.394,-0.159066,252.768,1.31153,4.92353,-0.20612,0.461348,-0.253379,0.363846,0.00239245,0.00814137,0.526833,-0.18626457782686945,0.438852613792732,0.0023953141921913,0.586210756586746,0.008174601073676735,-0.2238263437442064
672,0.6622,71.3526,896.603,-0.159854,252.809,1.31165,4.92454,-0.206365,0.461895,-0.25368,0.364278,0.00239604,0.00815434,0.527462,-0.18646391858506184,0.43947433240344136,0.0023989127978287783,0.5870786512181407,0.008187677183051134,-0.22405993685721215
673,0.6632,71.3595,896.811,-0.160644,252.85,1.31176,4.92555,-0.206609,0.462441,-0.253981,0.36471,0.00239963,0.0081673,0.528091,-0.1866623971735546,0.4400963196546128,0.0024025114163852557,0.5879454327715363,0.008200743380016196,-0.22429345966927183
674,0.6642,71.3663,897.019,-0.161438,252.89,1.31187,4.92654,-0.206854,0.462987,-0.254282,0.365142,0.00240321,0.00818025,0.52872,-0.18686164047794562,0.440718575662324,0.0024061000237995955,0.5888126877168844,0.00821379966418223,-0.22452691220154264
675,0.6652,71.3731,897.227,-0.162234,252.931,1.31198,4.92752,-0.207099,0.463533,-0.254583,0.365573,0.00240679,0.00819319,0.529348,-0.1870608349737064,0.4413396592023229,0.0024096886440614362,0.5896804163127276,0.008226846035159774,-0.22476029447517576
676,0.6662,71.3798,897.435,-0.163033,252.971,1.31208,4.92849,-0.207343,0.464079,-0.254884,0.366004,0.00241037,0.00820612,0.529975,-0.18725916793236796,0.4419610104870224,0.0024132772771703337,0.5905486188177496,0.00823988249255958,-0.22499360651131584
677,0.6672,71.3865,897.642,-0.163835,253.011,1.31219,4.92945,-0.207587,0.464624,-0.255184,0.366435,0.00241395,0.00821905,0.530603,-0.18745745250369095,0.44258262963184536,0.002416865923126732,0.5914157040742754,0.008252919118521662,-0.22522607355756197
678,0.6682,71.393,897.849,-0.16464,253.051,1.31229,4.9304,-0.207831,0.465169,-0.255485,0.366866,0.00241752,0.00823196,0.53123,-0.18765568869948068,0.44320451675226424,0.0024204445577258316,0.5922832620210625,0.008265935747729714,-0.22545924541529605
679,0.6692,71.3996,898.056,-0.165447,253.091,1.31239,4.93134,-0.208075,0.465713,-0.255785,0.367296,0.00242109,0.00824487,0.531856,-0.18785387653153918,0.4438252281378514,0.0024240232051009336,0.593149699765301,0.008278952544983342,-0.22569157279082264
680,0.6702,71.406,898.263,-0.166257,253.131,1.31248,4.93227,-0.208319,0.466257,-0.256085,0.367726,0.00242466,0.00825777,0.532483,-0.18805201601166588,0.4444462064867274,0.002427601865251594,0.5940166089799004,0.008291959427365603,-0.22592383047859033
681,0.6712,71.4124,898.469,-0.16707,253.17,1.31258,4.93319,-0.208563,0.466801,-0.256385,0.368156,0.00242823,0.00827066,0.533109,-0.18825010715165713,0.4450674519137112,0.002431180538178257,0.5948839899214109,0.008304956394487695,-0.22615601849950218
682,0.6722,71.4187,898.675,-0.167886,253.21,1.31267,4.9341,-0.208806,0.467345,-0.256684,0.368585,0.00243179,0.00828354,0.533734,-0.18844733841105077,0.44568751884542923,0.002434749199533126,0.5957518428465214,0.008317943445962594,-0.22638736326220532
683,0.6732,71.425,898.881,-0.168705,253.249,1.31276,4.935,-0.20905,0.467888,-0.256984,0.369014,0.00243535,0.00829641,0.534359,-0.18864533310414366,0.446307851842928,0.0024383178735924993,0.596618571392691,0.00833092058140239,-0.22661941224413895
684,0.6742,71.4312,899.086,-0.169527,253.288,1.31285,4.93589,-0.209293,0.468431,-0.257283,0.369443,0.00243891,0.00830927,0.534984,-0.1888424683352986,0.44692845102037415,0.0024418865603563766,0.5974857707002617,0.008343887800420058,-0.22685061847282428
685,0.6752,71.4373,899.292,-0.170351,253.327,1.31294,4.93677,-0.209536,0.468974,-0.257582,0.369871,0.00244246,0.00832213,0.535608,-0.18903955566841235,0.4475478689433907,0.0024454452353703804,0.5983534410249256,0.008356855186197443,-0.22708175558118127
686,0.6762,71.4434,899.497,-0.171178,253.366,1.31302,4.93764,-0.209779,0.469516,-0.257881,0.3703,0.00244601,0.00833498,0.536232,-0.18923659511512259,0.44816900020229644,0.002449003923017612,0.599219983401732,0.008369812655038,-0.2273128235898737
687,0.6772,71.4494,899.701,-0.172008,253.404,1.31311,4.9385,-0.210022,0.470058,-0.258179,0.370728,0.00244956,0.00834782,0.536856,-0.18943358668706434,0.4487889491940036,0.0024525626232982933,0.6000869955718091,0.008382760206555595,-0.2275430500629957
688,0.6782,71.4553,899.906,-0.172841,253.443,1.31319,4.93936,-0.210265,0.4706,-0.258478,0.371155,0.00245311,0.00836065,0.537479,-0.18963053039586963,0.4494077141722306,0.0024561213362122025,0.6009544777898539,0.00839569784036387,-0.22777398016525607
689,0.6792,71.4612,900.11,-0.173677,253.481,1.31327,4.9402,-0.210507,0.471141,-0.258776,0.371583,0.00245665,0.00837347,0.538102,-0.18982661608018903,0.4500281934469894,0.0024596700371630753,0.6018208284890718,0.008408625556076688,-0.2280040692341928
690,0.6802,71.467,900.314,-0.174516,253.519,1.31334,4.94104,-0.21075,0.471682,-0.259074,0.37201,0.00246019,0.00838628,0.538724,-0.19002346429445482,0.45064748769550356,0.0024632187506761216,0.6026876480108234,0.008421543353308358,-0.22823408974680248
691,0.6812,71.4728,900.517,-0.175358,253.558,1.31342,4.94187,-0.210992,0.472223,-0.259372,0.372436,0.00246373,0.00839909,0.539347,-0.1902194549002758,0.45126559517280684,0.0024667674767517855,0.6035549366088098,0.008434461316018105,-0.22846404172351165
692,0.6822,71.4785,900.72,-0.176203,253.595,1.3135,4.94269,-0.211234,0.472763,-0.25967,0.372863,0.00246726,0.00841188,0.539968,-0.19041539808210872,0.4518854179046814,0.0024703061906867774,0.6044210901149776,0.008447359275260524,-0.22869392518474108
693,0.6832,71.4841,900.923,-0.17705,253.633,1.31357,4.94351,-0.211477,0.473303,-0.259968,0.373289,0.00247079,0.00842467,0.54059,-0.1906121032397301,0.452504052852597,0.0024738449171135546,0.6052877114703468,0.008460257399468984,-0.22892374015090533
694,0.6842,71.4897,901.126,-0.177901,253.671,1.31364,4.94432,-0.211718,0.473843,-0.260265,0.373715,0.00247432,0.00843745,0.541211,-0.1908071422197083,0.45312295139514225,0.002477383656031895,0.6061548009276241,0.00847314560391399,-0.22915271579551422
695,0.6852,71.4952,901.329,-0.178754,253.708,1.31371,4.94512,-0.21196,0.474382,-0.260563,0.374141,0.00247785,0.00845021,0.541831,-0.19100294319841715,0.453742113644632,0.002480922407442021,0.6070207517180972,0.0084860138033509,-0.22938239406244565
696,0.6862,71.5006,901.531,-0.179611,253.746,1.31378,4.94591,-0.212202,0.474922,-0.26086,0.374566,0.00248137,0.00846298,0.542452,-0.19119869679902213,0.4543600853526173,0.0024844511464996444,0.6078887772698309,0.008498892251975976,-0.22961123350706947
697,0.6872,71.506,901.733,-0.18047,253.783,1.31385,4.94669,-0.212443,0.47546,-0.261157,0.374991,0.00248489,0.00847573,0.543072,-0.191393594426986,0.45497831975439684,0.002487979897978221,0.6087540541706176,0.00851175069482446,-0.22984000499647006
698,0.6882,71.5113,901.935,-0.181332,253.82,1.31391,4.94747,-0.212685,0.475999,-0.261453,0.375416,0.00248841,0.00848847,0.543691,-0.19158925350143186,0.45559681696163934,0.0024915086618779725,0.6096214063362255,0.008524599216373163,-0.23006793861915065
699,0.6892,71.5165,902.136,-0.182197,253.857,1.31398,4.94825,-0.212926,0.476537,-0.26175,0.37584,0.00249193,0.00850121,0.54431,-0.19178405701657153,0.4562141208712118,0.0024950374381991214,0.6104876156422445,0.008537447901613149,-0.2302965744872737
700,0.6902,71.5217,902.337,-0.183066,253.894,1.31404,4.94901,-0.213167,0.477075,-0.262046,0.376265,0.00249544,0.00851393,0.544929,-0.1919788135897208,0.45683314340555303,0.002498556201955937,0.6113542910942522,0.008550276579540661,-0.23052437298538453
701,0.6912,71.5268,902.538,-0.183937,253.93,1.31411,4.94977,-0.213408,0.477613,-0.262343,0.376689,0.00249895,0.00852665,0.545548,-0.1921735232321914,0.4574509716286843,0.002502074978063762,0.6122214329431024,0.008563105420650086,-0.23075287331262961
702,0.6922,71.5318,902.739,-0.184811,253.967,1.31417,4.95053,-0.213649,0.47815,-0.262639,0.377112,0.00250246,0.00853936,0.546166,-0.19236818595529215,0.4580676037981928,0.0025055937665223738,0.6130874283515495,0.008575924339184082,-0.23098053676627572
703,0.6932,71.5368,902.94,-0.185689,254.003,1.31423,4.95128,-0.21389,0.478687,-0.262934,0.377536,0.00250596,0.00855206,0.546783,-0.19256280177032914,0.45868595554350944,0.002509102542241015,0.6139538889244165,0.008588733334760068,-0.23120736404926046
704,0.6942,71.5418,903.14,-0.186569,254.039,1.31429,4.95202,-0.21413,0.479224,-0.26323,0.377959,0.00250946,0.00856475,0.547401,-0.19275656344557324,0.45930311022171644,0.0025126113302402775,0.6148208149115635,0.008601532406996126,-0.2314348929935569
705,0.6952,71.5466,903.34,-0.187452,254.075,1.31435,4.95276,-0.214371,0.47976,-0.263526,0.378381,0.00251296,0.00857744,0.548018,-0.19295108567291297,0.4599190660917778,0.002516120130520161,0.6156865908755866,0.008614331641653372,-0.23166235459925233
706,0.6962,71.5514,903.539,-0.188339,254.111,1.31441,4.9535,-0.214611,0.480296,-0.263821,0.378804,0.00251646,0.00859011,0.548634,-0.19314475417120203,0.4605367424860818,0.002519628943081109,0.6165528310199158,0.008627110866191279,-0.23188898077564113
707,0.6972,71.5561,903.739,-0.189228,254.147,1.31447,4.95422,-0.214851,0.480832,-0.264116,0.379226,0.00251995,0.00860278,0.549251,-0.1933383761946288,0.46115321905881923,0.002523127742691589,0.617419535593418,0.008639890252643223,-0.23211554010716784
708,0.6982,71.5608,903.938,-0.190121,254.182,1.31453,4.95495,-0.215091,0.481367,-0.264411,0.379648,0.00252344,0.00861543,0.549866,-0.19353195175434568,0.46176995583957003,0.0025266265545127453,0.6182850865591987,0.008652649627957976,-0.23234203261354902
709,0.6992,71.5654,904.137,-0.191016,254.218,1.31459,4.95567,-0.215331,0.481902,-0.264706,0.38007,0.00252693,0.00862808,0.550482,-0.19372548086150287,0.4623869529381659,0.002530125378544801,0.6191511007186392,0.008665409164679616,-0.23256845831449502
710,0.7002,71.5699,904.336,-0.191915,254.253,1.31464,4.95639,-0.215571,0.482437,-0.265001,0.380491,0.00253041,0.00864072,0.551097,-0.19391896352724758,0.46300274746100456,0.0025336141894516384,0.6200175783196147,0.008678158776028733,-0.23279481722971063
711,0.7012,71.5744,904.534,-0.192817,254.288,1.3147,4.9571,-0.215811,0.482972,-0.265295,0.380912,0.00253389,0.00865335,0.551712,-0.1941123997627242,0.463618801287917,0.002537103012499653,0.6208845196101325,0.008690898461625185,-0.23302034239962066
712,0.7022,71.5788,904.732,-0.193722,254.323,1.31475,4.95781,-0.21605,0.483506,-0.265589,0.381333,0.00253737,0.00866598,0.552326,-0.1943049838844617,0.4642351145280932,0.0025405918476886225,0.6217503030872191,0.008703638308124706,-0.2332458012748766
713,0.7032,71.5832,904.93,-0.19463,254.358,1.31481,4.95851,-0.21629,0.48404,-0.265884,0.381754,0.00254085,0.00867859,0.55294,-0.19449832748616913,0.4648516872907693,0.002544080695018991,0.6226165490161462,0.008716358141201974,-0.2334719604033889
714,0.7042,71.5875,905.128,-0.195541,254.392,1.31487,4.95921,-0.216529,0.484574,-0.266177,0.382174,0.00254432,0.0086912,0.553554,-0.19469081938220212,0.46546705421744017,0.0025475595290147535,0.6234832576439286,0.008729078134677604,-0.23369652021937115
715,0.7052,71.5917,905.325,-0.196455,254.427,1.31492,4.95991,-0.216768,0.485107,-0.266471,0.382594,0.00254779,0.00870379,0.554168,-0.19488326527816913,0.46608267965250305,0.002551038375081971,0.6243488048680972,0.008741778113717569,-0.23392178032756816
716,0.7062,71.5958,905.522,-0.197373,254.461,1.31498,4.96061,-0.217007,0.48564,-0.266765,0.383013,0.00255126,0.00871638,0.554781,-0.19507566518506292,0.4666970970067241,0.0025545172332210875,0.6252148135519042,0.008754478252651188,-0.23414697421902775
717,0.7072,71.5999,905.719,-0.198329,254.496,1.31502,4.96131,-0.217246,0.486173,-0.267058,0.383433,0.00255472,0.00872896,0.555393,-0.1952680191138736,0.4673132391682637,0.002557986077851737,0.6260812839413732,0.008767168463808872,-0.2343713362849339
718,0.7082,71.6039,905.916,-0.19921,254.53,1.31509,4.96199,-0.217485,0.486705,-0.267352,0.383852,0.00255819,0.00874153,0.556005,-0.19546032707558858,0.4679281722349562,0.0025614649600993467,0.6269465893352562,0.008779848746811814,-0.234596398026369
719,0.7092,71.6079,906.112,-0.200149,254.564,1.31514,4.96268,-0.217724,0.487237,-0.267645,0.384271,0.00256165,0.0087541,0.556617,-0.19565258908119265,0.46854336301259014,0.0025649338287692114,0.6278123551940817,0.008792529189207032,-0.23482062843038887
720,0.7102,71.6118,906.309,-0.201068,254.597,1.3152,4.96336,-0.217962,0.487769,-0.267938,0.384689,0.0025651,0.00876665,0.557229,-0.19584400098607113,0.4691573424510924,0.0025683926837574145,0.6286785817628819,0.008805189614892406,-0.23504479314452442
721,0.7112,71.6156,906.505,-0.202012,254.631,1.31525,4.96405,-0.2182,0.4883,-0.26823,0.385108,0.00256856,0.0087792,0.55784,-0.19603536734033689,0.4697730483589593,0.0025718615763972164,0.6295436397423657,0.008817850199466903,-0.23526812745652992
722,0.7122,71.6194,906.7,-0.202939,254.665,1.31531,4.96473,-0.218439,0.488831,-0.268523,0.385526,0.00257201,0.00879173,0.558451,-0.19622749192773992,0.47038754191337895,0.0025753204552863007,0.6304091571896142,0.00883049076632303,-0.23549216107265758
723,0.7132,71.6231,906.896,-0.203887,254.698,1.31536,4.96541,-0.218677,0.489362,-0.268815,0.385943,0.00257546,0.00880426,0.559061,-0.196418767022022,0.4710008213782384,0.0025787793461085062,0.63127513434867,0.008843131491566236,-0.23571536477229826
724,0.7142,71.6267,907.091,-0.204823,254.731,1.31542,4.96609,-0.218915,0.489893,-0.269107,0.386361,0.00257891,0.00881678,0.559672,-0.19660999659824852,0.4716158282490557,0.002582238248863833,0.6321415714637046,0.0088557622866412,-0.23593850330597332
725,0.7152,71.6303,907.286,-0.205776,254.764,1.31547,4.96677,-0.219153,0.490423,-0.269399,0.386778,0.00258235,0.00882929,0.560281,-0.19680118066725139,0.4722296200161247,0.0025856871376954693,0.6330068357713676,0.008868383151170667,-0.23616157669270854
726,0.7162,71.6338,907.481,-0.206719,254.797,1.31553,4.96745,-0.21939,0.490953,-0.269691,0.387195,0.00258579,0.0088418,0.560891,-0.19699151623177802,0.4728436677877339,0.002589136038391393,0.6338725587906613,0.00888100417358828,-0.23638458495152392
727,0.7172,71.6372,907.675,-0.207677,254.83,1.31558,4.96813,-0.219628,0.491483,-0.269983,0.387612,0.00258923,0.00885429,0.5615,-0.19718260950991273,0.4734579716706593,0.002592584950951382,0.6347387407647678,0.008893605176023556,-0.23660752810143415
728,0.7182,71.6406,907.87,-0.208629,254.863,1.31564,4.9688,-0.219865,0.492012,-0.270275,0.388028,0.00259266,0.00886678,0.562109,-0.197372854686515,0.47407105769992675,0.0025960238494155963,0.6356037463324329,0.008906206335846267,-0.23683040616144813
729,0.7192,71.6439,908.064,-0.209592,254.895,1.3157,4.96948,-0.220103,0.492541,-0.270566,0.388444,0.0025961,0.00887926,0.562717,-0.19756385721689684,0.47468439882603897,0.002599472785669743,0.6364692096090967,0.008918797563870484,-0.2370524562034071
730,0.7202,71.6472,908.257,-0.210551,254.928,1.31576,4.97016,-0.22034,0.49307,-0.270857,0.38886,0.00259953,0.00889173,0.563325,-0.19775401204849885,0.47529799515513815,0.002602911707759059,0.6373351308369515,0.008931378859720285,-0.23727444163820466
731,0.7212,71.6504,908.451,-0.21152,254.96,1.31582,4.97084,-0.220577,0.493599,-0.271148,0.389275,0.00260295,0.00890419,0.563933,-0.19794412181874566,0.47591037088230204,0.0026063406155805158,0.638201510258317,0.008943950223020192,-0.23749636248463868
732,0.7222,71.6535,908.644,-0.212487,254.992,1.31588,4.97152,-0.220814,0.494127,-0.271439,0.38969,0.00260638,0.00891664,0.56454,-0.19813418653831572,0.47652300079813315,0.002609779561226766,0.6390667090481137,0.008956511653395172,-0.2377182187615018
733,0.7232,71.6565,908.838,-0.213461,255.024,1.31594,4.97219,-0.221051,0.494655,-0.27173,0.390105,0.0026098,0.00892909,0.565147,-0.1983242062178847,0.47713588500814175,0.002613208492536323,0.6399323647834942,0.008969073240161052,-0.23794001048758096
734,0.7242,71.6595,909.03,-0.214435,255.055,1.316,4.97287,-0.221288,0.495182,-0.27202,0.39052,0.00261322,0.00894152,0.565753,-0.19851418086812578,0.47774902361788185,0.0026166374355727218,0.6407968369081327,0.008981614803687199,-0.23816097584301443
735,0.7252,71.6624,909.223,-0.215416,255.087,1.31606,4.97355,-0.221524,0.49571,-0.272311,0.390934,0.00261664,0.00895395,0.56636,-0.1987033092034195,0.4783609383712737,0.0026200663903364063,0.6416634063922317,0.008994156523105756,-0.23838263874552756
736,0.7262,71.6653,909.415,-0.216397,255.119,1.31613,4.97424,-0.221761,0.496237,-0.272601,0.391348,0.00262005,0.00896637,0.566965,-0.1988931940168991,0.4789731065098204,0.002623485330591979,0.6425287910162203,0.00900668830835194,-0.23860347575737695
737,0.7272,71.6681,909.608,-0.217384,255.15,1.31619,4.97492,-0.221997,0.496763,-0.272891,0.391762,0.00262346,0.00897878,0.567571,-0.19908223291564364,0.47958552813844557,0.002626904282506226,0.6433929884242879,0.009019210159051827,-0.23882424873577823
738,0.7282,71.6708,909.8,-0.218373,255.181,1.31626,4.97561,-0.222233,0.49729,-0.273181,0.392176,0.00262687,0.00899119,0.568176,-0.19927122720647206,0.4801982033621153,0.002630323246079369,0.6442592847782271,0.009031732165148743,-0.23904495769929834
739,0.7292,71.6735,909.991,-0.219366,255.212,1.31633,4.97629,-0.222469,0.497816,-0.27347,0.392589,0.00263028,0.00900358,0.568781,-0.19946017689991058,0.4808096514754481,0.002633742221310964,0.6451243926654486,0.009044234145759944,-0.23926484193172115
740,0.7302,71.6761,910.183,-0.220362,255.243,1.31639,4.97698,-0.222705,0.498342,-0.27376,0.393002,0.00263368,0.00901597,0.569385,-0.1996490820064828,0.48142135216900583,0.002637151181829722,0.6459899557191171,0.00905673628127146,-0.2394854231417396
741,0.7312,71.6786,910.374,-0.221362,255.274,1.31646,4.97768,-0.222941,0.498867,-0.274049,0.393415,0.00263708,0.00902835,0.56999,-0.19983794253671017,0.482033305547126,0.0026405601539389867,0.6468543273235623,0.00906922848099323,-0.23970518009804198
742,0.7322,71.6811,910.565,-0.222365,255.305,1.31654,4.97837,-0.223177,0.499392,-0.274338,0.393827,0.00264048,0.00904072,0.570593,-0.2000267585011113,0.48264402906941806,0.0026439691376387575,0.6477191528422419,0.009081710744552218,-0.23992487355376024
743,0.7332,71.6835,910.756,-0.223372,255.335,1.31661,4.97907,-0.223412,0.499917,-0.274627,0.394239,0.00264388,0.00905308,0.571197,-0.20021473012533264,0.4832550042616417,0.0026473781329290347,0.6485844325135233,0.009094183071575834,-0.24014450352724337
744,0.7342,71.6858,910.947,-0.224381,255.365,1.31668,4.97977,-0.223648,0.500442,-0.274916,0.394651,0.00264727,0.00906544,0.5718,-0.20040345717835495,0.4838662312275064,0.002650777113302194,0.6494501665758996,0.009106655552758358,-0.24036407003683513
745,0.7352,71.6881,911.137,-0.225395,255.395,1.31676,4.98048,-0.223883,0.500966,-0.275205,0.395063,0.00265066,0.00907778,0.572403,-0.2005913402887879,0.48447771007076446,0.002654176105197914,0.6503147049524582,0.009119108005719356,-0.24058357310087397
746,0.7362,71.6903,911.327,-0.226411,255.426,1.31684,4.98119,-0.224118,0.50149,-0.275493,0.395474,0.00265405,0.00909012,0.573005,-0.20077917925187738,0.48508795580651176,0.0026575751086161947,0.6511796964658376,0.009131560612344547,-0.24080225354032614
747,0.7372,71.6924,911.517,-0.227432,255.455,1.31691,4.9819,-0.224353,0.502014,-0.275782,0.395885,0.00265744,0.00910245,0.573607,-0.2009669740779969,0.4856984524048056,0.002660974123557258,0.6520451413535437,0.0091440032811958,-0.24102162998762944
748,0.7382,71.6945,911.707,-0.228456,255.485,1.317,4.98261,-0.224588,0.502538,-0.27607,0.396296,0.00266082,0.00911477,0.574209,-0.20115472477751728,0.486309199968771,0.0026643631233771448,0.652911039853207,0.009156436011901636,-0.2412401842848636
749,0.7392,71.6965,911.896,-0.229483,255.515,1.31708,4.98333,-0.224823,0.503061,-0.276358,0.396706,0.0026642,0.00912709,0.57481,-0.2013424313608072,0.4869187116821212,0.0026677521346518684,0.653775738426017,0.009168868895779836,-0.2414586756475231
750,0.7402,71.6984,912.086,-0.230514,255.544,1.31716,4.98406,-0.225058,0.503584,-0.276646,0.397117,0.00266758,0.00913939,0.575411,-0.20153009383823273,0.4875299608757273,0.0026711411573816513,0.6546408893544613,0.009181281749206072,-0.24167710409373055
751,0.7412,71.7003,912.275,-0.231549,255.574,1.31725,4.98479,-0.225292,0.504106,-0.276933,0.397527,0.00267096,0.00915169,0.576012,-0.2017169139374705,0.4881399732036684,0.002674530191566049,0.6555048373695187,0.00919369475531151,-0.24189471153669395
752,0.7422,71.7021,912.464,-0.232587,255.603,1.31734,4.98552,-0.225527,0.504629,-0.277221,0.397936,0.00267433,0.00916398,0.576612,-0.20190448842183006,0.48874874693845105,0.0026779092104265434,0.6563708928532308,0.00920609782203674,-0.24211301442264688
753,0.7432,71.7038,912.652,-0.233629,255.632,1.31743,4.98626,-0.225761,0.505151,-0.277508,0.398346,0.0026777,0.00917627,0.577212,-0.2020912209229846,0.48935925907113065,0.002681288240674151,0.6572357441658547,0.00921850104119648,-0.2423304967772969
754,0.7442,71.7055,912.841,-0.234674,255.661,1.31752,4.98701,-0.225995,0.505673,-0.277795,0.398755,0.00268107,0.00918854,0.577811,-0.20227790973384585,0.48996853159582887,0.0026846672823093165,0.6581010470487132,0.009230884228174974,-0.2425479167234671
755,0.7452,71.7071,913.029,-0.235723,255.689,1.31761,4.98776,-0.22623,0.506194,-0.278082,0.399164,0.00268444,0.00920081,0.578411,-0.20246535239968255,0.4905780533639563,0.0026880463353318174,0.6589651427716154,0.009243267567096147,-0.24276527427906636
756,0.7462,71.7086,913.217,-0.236775,255.718,1.31771,4.98851,-0.226463,0.506715,-0.278369,0.399572,0.0026878,0.00921307,0.57901,-0.2026511563255755,0.49118633329039585,0.002691415372827466,0.6598296888056854,0.00925564096540521,-0.24298256946199792
757,0.7472,71.7101,913.404,-0.237831,255.746,1.31781,4.98927,-0.226697,0.507236,-0.278656,0.39998,0.00269116,0.00922532,0.579608,-0.20283771412688134,0.4917948614456804,0.0026947844216429484,0.6606946853855957,0.009268004422733123,-0.24319980229016036
758,0.7482,71.7115,913.592,-0.238891,255.775,1.31791,4.99004,-0.226931,0.507757,-0.278942,0.400388,0.00269452,0.00923757,0.580206,-0.20302422827876876,0.4924036379311083,0.002698153481778709,0.6615601327461427,0.00928036803151433,-0.24341621619804144
759,0.7492,71.7129,913.779,-0.239955,255.803,1.31802,4.99082,-0.227165,0.508277,-0.279229,0.400796,0.00269788,0.0092498,0.580804,-0.2032106987914507,0.4930126628480189,0.0027015225532345255,0.6624243686970437,0.009292711605896065,-0.24363332458744846
760,0.7502,71.7141,913.966,-0.241022,255.831,1.31812,4.9916,-0.227398,0.508797,-0.279515,0.401204,0.00270123,0.00926203,0.581402,-0.20339632907186478,0.4936219362977927,0.002704881608961429,0.6632890541675043,0.009305055331240819,-0.243849614525681
761,0.7512,71.7153,914.153,-0.242092,255.859,1.31823,4.99239,-0.227631,0.509317,-0.279801,0.401611,0.00270458,0.00927425,0.581999,-0.20358191610546206,0.49422996415114095,0.0027082406759413313,0.6641541893913352,0.009317389114376073,-0.24406584261383613
762,0.7522,71.7165,914.34,-0.243167,255.887,1.31834,4.99318,-0.227865,0.509836,-0.280087,0.402018,0.00270793,0.00928647,0.582596,-0.2037682561344597,0.49483823952219175,0.00271159975417401,0.6650181095835268,0.009329723048231209,-0.2442820088696005
763,0.7532,71.7175,914.527,-0.244245,255.914,1.31846,4.99398,-0.228098,0.510355,-0.280372,0.402424,0.00271128,0.00929867,0.583192,-0.20395375651914638,0.4954452670656908,0.002714958843659687,0.6658824782666719,0.009342036945967136,-0.24449735780839132
764,0.7542,71.7185,914.713,-0.245327,255.942,1.31858,4.99479,-0.228331,0.510874,-0.280658,0.402831,0.00271463,0.00931087,0.583789,-0.20413921368727828,0.4960540371656983,0.002718317944398141,0.6667472956735971,0.009354350993933336,-0.24471340066845648
765,0.7552,71.7195,914.899,-0.246413,255.969,1.31869,4.99561,-0.228564,0.511393,-0.280943,0.403237,0.00271797,0.00932307,0.584384,-0.20432462764892378,0.4966615584232579,0.0027216670291732026,0.6676125620372506,0.009366665192132029,-0.24492862667810278
766,0.7562,71.7204,915.085,-0.247502,255.996,1.31882,4.99644,-0.228796,0.511911,-0.281228,0.403643,0.00272131,0.00933525,0.58498,-0.2045092029237494,0.49726932638452515,0.0027250161251339833,0.6684766091132581,0.009378959352985383,-0.2451437913570763
767,0.7572,71.7212,915.27,-0.248595,256.023,1.31894,4.99727,-0.229029,0.512429,-0.281513,0.404048,0.00272465,0.00934743,0.585575,-0.2046945306879453,0.49787584327309053,0.002728365232280927,0.6693411038815935,0.00939125366358251,-0.245358894722854
768,0.7582,71.7219,915.456,-0.249692,256.05,1.31907,4.99811,-0.229262,0.512947,-0.281798,0.404453,0.00272798,0.0093596,0.58617,-0.20487981527580224,0.49848260585074455,0.002731704323296613,0.6702060465742212,0.009403538029889802,-0.2455739367929074
769,0.7592,71.7225,915.641,-0.250793,256.077,1.3192,4.99897,-0.229494,0.513464,-0.282083,0.404858,0.00273131,0.00937176,0.586764,-0.2050642617620385,0.49908961421701115,0.002735043425431627,0.6710697663526242,0.00941581245154044,-0.24578891758470345
770,0.7602,71.7232,915.826,-0.251897,256.103,1.31934,4.99983,-0.229726,0.513981,-0.282368,0.405263,0.00273464,0.00938391,0.587358,-0.20524866546165355,0.4996968684714551,0.0027383825386859684,0.6719339327896039,0.009428076928168272,-0.24600383711570395
771,0.7612,71.7237,916.011,-0.253006,256.13,1.31948,5.00069,-0.229958,0.514498,-0.282652,0.405668,0.00273797,0.00939606,0.587952,-0.2054330263845724,0.5003043687136814,0.0027417216630594154,0.6727985461161425,0.00944034155381046,-0.2462179416216842
772,0.7622,71.7241,916.195,-0.254118,256.156,1.31962,5.00157,-0.23019,0.515015,-0.282936,0.406072,0.0027413,0.0094082,0.588546,-0.20561734454071834,0.5009106141319704,0.00274506079855219,0.6736636065633417,0.009452596233942678,-0.24643198533061828
773,0.7632,71.7245,916.38,-0.255234,256.182,1.31976,5.00246,-0.230422,0.515531,-0.28322,0.406476,0.00274462,0.00942034,0.589139,-0.205801619940012,0.5015171045228897,0.0027483899176803384,0.6745274398341454,0.009464851062847668,-0.24664596825977025
774,0.7642,71.7249,916.564,-0.256354,256.208,1.31991,5.00336,-0.230654,0.516047,-0.283504,0.406879,0.00274795,0.00943246,0.589732,-0.2059858525923719,0.502122337862339,0.002751729075378462,0.6753917189579373,0.009477085850985167,-0.2468598904263989
775,0.7652,71.7251,916.748,-0.257477,256.234,1.32006,5.00427,-0.230886,0.516563,-0.283788,0.407283,0.00275127,0.00944458,0.590324,-0.2061700425077142,0.502729317888545,0.0027550582166453452,0.6762564441648364,0.009489320787409161,-0.2470737518477586
776,0.7662,71.7253,916.932,-0.258605,256.259,1.32021,5.00518,-0.231117,0.517078,-0.284071,0.407686,0.00275458,0.0094567,0.590916,-0.20635339604974545,0.5033350398484311,0.0027583773413812906,0.6771199385643043,0.009501555872121648,-0.2472867998282745
777,0.7672,71.7254,917.115,-0.259737,256.285,1.32037,5.00611,-0.231349,0.517593,-0.284355,0.408089,0.0027579,0.0094688,0.591508,-0.20653750070489618,0.503941005963461,0.002761706504720518,0.6779838777779175,0.009513770914848507,-0.24750054002457877
778,0.7682,71.7255,917.299,-0.260872,256.31,1.32053,5.00705,-0.23158,0.518108,-0.284638,0.408491,0.00276121,0.0094809,0.592099,-0.20672076937388706,0.5045457117855849,0.002765025651462194,0.6788482620348146,0.00952598610537847,-0.24771346724112953
779,0.7692,71.7255,917.482,-0.262012,256.336,1.3207,5.008,-0.231811,0.518623,-0.284921,0.408893,0.00276452,0.009493,0.59269,-0.2069039957127048,0.5051506607483174,0.002768344809190193,0.6797130915642517,0.009538201443712868,-0.24792633420780386
780,0.7702,71.7254,917.665,-0.263155,256.361,1.32087,5.00896,-0.232042,0.519137,-0.285204,0.409295,0.00276783,0.00950508,0.593281,-0.20708717973112645,0.5057558529494206,0.002771663977904737,0.6805766860180771,0.009550396738845723,-0.2481391409416499
781,0.7712,71.7252,917.848,-0.264303,256.386,1.32104,5.00994,-0.232273,0.519651,-0.285487,0.409697,0.00277114,0.00951716,0.593872,-0.20727032143892699,0.5063612884866957,0.002774983157605826,0.6814407244735505,0.009562592181298735,-0.24835188745971126
782,0.7722,71.725,918.03,-0.265454,256.411,1.32122,5.01092,-0.232504,0.520165,-0.285769,0.410099,0.00277444,0.00952923,0.594462,-0.20745342084587892,0.506966967457984,0.0027782923205104115,0.6823052071589475,0.009574777675325663,-0.2485638223432245
783,0.7732,71.7247,918.213,-0.266609,256.435,1.3214,5.01191,-0.232735,0.520679,-0.286052,0.4105,0.00277775,0.0095413,0.595051,-0.20763647796175255,0.5075713823890291,0.002781611522151284,0.6831701343026606,0.009586963316432495,-0.24877644869345372
784,0.7742,71.7244,918.395,-0.267769,256.46,1.32158,5.01292,-0.232965,0.521192,-0.286334,0.410901,0.00278105,0.00955336,0.595641,-0.20781870061541297,0.5081760397390633,0.0027849207069292614,0.684033822098536,0.009599139008629187,-0.24898826386757889
785,0.7752,71.7239,918.577,-0.268932,256.484,1.32177,5.01394,-0.233196,0.521705,-0.286616,0.411301,0.00278434,0.00956541,0.59623,-0.20800167336140496,0.508779430825131,0.0027882198747455345,0.6848979530799182,0.009611304751552696,-0.24920001931824642
786,0.7762,71.7234,918.759,-0.2701,256.508,1.32197,5.01498,-0.233426,0.522217,-0.286898,0.411702,0.00278764,0.00957745,0.596819,-0.2081838120297821,0.5093845726997288,0.002791529081331401,0.6857608417125352,0.009623460544839757,-0.24941171506229587
787,0.7772,71.7229,918.94,-0.271271,256.533,1.32216,5.01602,-0.233657,0.52273,-0.28718,0.412102,0.00279094,0.00958949,0.597407,-0.208366700444778,0.5099884472956762,0.002794838298837643,0.6866258588822673,0.0096356164844833,-0.2496233511165622
788,0.7782,71.7222,919.122,-0.272447,256.557,1.32236,5.01708,-0.233887,0.523242,-0.287461,0.412502,0.00279423,0.00960153,0.597995,-0.2085487551665801,0.5105925634897783,0.0027981374992827046,0.6874896324291735,0.009647772570485325,-0.24983417733242785
789,0.7792,71.7215,919.303,-0.273627,256.58,1.32257,5.01815,-0.234117,0.523754,-0.287743,0.412901,0.00279752,0.00961355,0.598583,-0.2087307680206112,0.5111954101825282,0.0028014367105824167,0.6883538483413718,0.009659908609648937,-0.25004569426913026
790,0.7802,71.7207,919.484,-0.274811,256.604,1.32278,5.01923,-0.234347,0.524265,-0.288024,0.413301,0.00280081,0.00962557,0.59917,-0.20891273901649976,0.511800009258355,0.0028047359327363353,0.6892168176277484,0.00967204479468875,-0.2502564018232428
791,0.7812,71.7199,919.665,-0.275999,256.627,1.32299,5.02033,-0.234576,0.524777,-0.288305,0.4137,0.00280409,0.00963759,0.599757,-0.20909387725814477,0.5124033378180926,0.002808025137664538,0.6900819180851927,0.009684181125606539,-0.25046705017685067
792,0.7822,71.719,919.846,-0.277191,256.651,1.32321,5.02144,-0.234806,0.525288,-0.288586,0.414098,0.00280738,0.0096496,0.600344,-0.20927576474851217,0.5130053941478065,0.002811324381494451,0.6909457706408646,0.009696307505440593,-0.25067763934658704
793,0.7832,71.718,920.026,-0.278387,256.674,1.32343,5.02257,-0.235036,0.525798,-0.288867,0.414497,0.00281066,0.0096616,0.600931,-0.20945761040956734,0.513609203752077,0.002814613608032701,0.6918083729287781,0.00970842393382898,-0.25088816934908
794,0.7842,71.7169,920.206,-0.279588,256.697,1.32366,5.02371,-0.235265,0.526309,-0.289148,0.414895,0.00281394,0.0096736,0.601517,-0.20963862388994903,0.5142117401119521,0.0028179028453596544,0.6926731079283204,0.009720540507615505,-0.2510986402009533
795,0.7852,71.7158,920.386,-0.280792,256.72,1.32389,5.02486,-0.235494,0.526819,-0.289428,0.415293,0.00281722,0.00968559,0.602103,-0.2098195959229896,0.514814516329027,0.002821192093475311,0.6935365913829288,0.009732647129475192,-0.2513083032275035
796,0.7862,71.7146,920.566,-0.282001,256.743,1.32413,5.02603,-0.235724,0.527329,-0.289709,0.415691,0.0028205,0.00969757,0.602688,-0.21000131651725784,0.5154175324987837,0.002824481352379893,0.6944005153264141,0.009744743799046773,-0.25151865603834245
797,0.7872,71.7133,920.746,-0.283215,256.766,1.32437,5.02722,-0.235953,0.527839,-0.289989,0.416088,0.00282377,0.00970955,0.603273,-0.210182205503196,0.5160192726967119,0.0028277605937954142,0.6952648799834829,0.009756840613537321,-0.2517282014769213
798,0.7882,71.712,920.925,-0.284432,256.788,1.32462,5.02842,-0.236182,0.528348,-0.290269,0.416485,0.00282705,0.00972152,0.603858,-0.210363053070299,0.5166212518329245,0.00283104987424454,0.6961279894501191,0.009768927475259037,-0.2519376882509907
799,0.7892,71.7106,921.105,-0.285654,256.81,1.32487,5.02963,-0.236411,0.528857,-0.290549,0.416882,0.00283032,0.00973349,0.604442,-0.21054385922805074,0.5172234700022991,0.0028343291371393242,0.6969915383513006,0.009781014481661687,-0.2521471163769746
800,0.7902,71.7091,921.284,-0.28688,256.833,1.32513,5.03086,-0.236639,0.529366,-0.290829,0.417279,0.00283359,0.00974545,0.605026,-0.2107238347101621,0.517825927299751,0.0028376084107570865,0.697855526910756,0.009793091534815446,-0.2523564858712919
801,0.7912,71.7075,921.463,-0.28811,256.855,1.32539,5.03211,-0.236868,0.529874,-0.291108,0.417675,0.00283685,0.0097574,0.60561,-0.2109045582583774,0.5184271053923677,0.002840877666689501,0.6987182566332228,0.009805158634360156,-0.2525650493157804
802,0.7922,71.7059,921.642,-0.289344,256.876,1.32566,5.03337,-0.237096,0.530383,-0.291388,0.418071,0.00284012,0.00976935,0.606194,-0.2110844515104845,0.5190285215986528,0.0028441569617210227,0.699583124316002,0.009817225878107294,-0.2527743018052564
803,0.7932,71.7042,921.82,-0.290583,256.898,1.32593,5.03465,-0.237325,0.530891,-0.291667,0.418467,0.00284339,0.0097813,0.606777,-0.2112650924869074,0.5196301760129174,0.002847436267475967,0.7004467318809038,0.00982929326605908,-0.2529827486953594
804,0.7942,71.7025,921.999,-0.291827,256.92,1.32621,5.03594,-0.237553,0.531398,-0.291946,0.418862,0.00284665,0.00979323,0.60736,-0.21144490354658063,0.5202305484982022,0.002850705555447197,0.701309076959973,0.00984134060138997,-0.25319113743689214
805,0.7952,71.7006,922.177,-0.293074,256.941,1.32649,5.03726,-0.237781,0.531906,-0.292225,0.419257,0.00284991,0.00980517,0.607942,-0.2116246736140055,0.5208311581774614,0.0028539748540761245,0.7021735615315587,0.009853398178980344,-0.25339946804607594
806,0.7962,71.6987,922.355,-0.294326,256.963,1.32678,5.03858,-0.238009,0.532413,-0.292504,0.419652,0.00285317,0.00981709,0.608524,-0.2118044026985273,0.5214320051444052,0.002857244163363193,0.7030367823352381,0.009865435703230174,-0.25360774053912727
807,0.7972,71.6967,922.533,-0.295583,256.984,1.32707,5.03993,-0.238237,0.53292,-0.292782,0.420047,0.00285643,0.00982902,0.609106,-0.211984090809489,0.5220330894927807,0.0028605134833081802,0.7039004409028287,0.00987748346974282,-0.25381520874784025
808,0.7982,71.6947,922.71,-0.296844,257.005,1.32737,5.04129,-0.238465,0.533427,-0.293061,0.420442,0.00285968,0.00984093,0.609688,-0.21216373795623145,0.5226344113163721,0.0028637727852733885,0.7047645374563332,0.009889511182195942,-0.25402336526541514
809,0.7992,71.6925,922.888,-0.298109,257.026,1.32767,5.04267,-0.238693,0.533933,-0.293339,0.420836,0.00286294,0.00985285,0.610269,-0.21234334414809353,0.5232344474737916,0.0028670421265015733,0.7056273665896473,0.009901549136915211,-0.2542307179465132
810,0.8002,71.6903,923.065,-0.299379,257.046,1.32798,5.04407,-0.238921,0.534439,-0.293617,0.42123,0.00286619,0.00986475,0.61085,-0.21252290939441176,0.5238347200920366,0.00287030144968492,0.7064906324249791,0.009913567036856419,-0.25443801299157776
811,0.8012,71.6881,923.242,-0.300653,257.067,1.3283,5.04549,-0.239148,0.534945,-0.293895,0.421623,0.00286944,0.00987665,0.61143,-0.21270164640656086,0.5244337048298244,0.0028735607834611265,0.7073543351833558,0.009925585079811228,-0.25464525041662944
812,0.8022,71.6857,923.419,-0.301932,257.087,1.32862,5.04693,-0.239375,0.53545,-0.294173,0.422017,0.00287269,0.00988855,0.61201,-0.2128803428500129,0.525034450048564,0.002876820127830193,0.7082167668682953,0.009937603265781858,-0.2548524302376841
813,0.8032,71.6833,923.596,-0.303215,257.108,1.32895,5.04838,-0.239603,0.535956,-0.294451,0.42241,0.00287594,0.00990044,0.61259,-0.21305978567458372,0.5256339063728854,0.0028800794827918974,0.7090813432717138,0.009949611495273514,-0.25505955247075374
814,0.8042,71.6808,923.773,-0.304503,257.128,1.32928,5.04985,-0.23983,0.536461,-0.294728,0.422803,0.00287918,0.00991233,0.61317,-0.2132384008296485,0.526233598329841,0.0028833288195133644,0.70994464731599,0.009961619867543847,-0.2552658723980902
815,0.8052,71.6783,923.949,-0.305795,257.148,1.32962,5.05134,-0.240057,0.536965,-0.295006,0.423195,0.00288243,0.00992421,0.613749,-0.21341697544367466,0.52683199917929,0.002886588195628592,0.7108066766313774,0.009973618282858254,-0.25547287971021393
816,0.8062,71.6756,924.125,-0.307092,257.168,1.32996,5.05285,-0.240284,0.53747,-0.295283,0.423587,0.00288567,0.00993609,0.614328,-0.21359550952586404,0.5274306346478543,0.0028898375534383014,0.7116708521890391,0.00998561684071464,-0.25567908516176063
817,0.8072,71.6729,924.301,-0.308394,257.187,1.33031,5.05438,-0.240511,0.537974,-0.29556,0.423979,0.00288891,0.00994796,0.614907,-0.21377400308541616,0.528029504827523,0.0028930869217758115,0.7125337517309609,0.009997605441138813,-0.2558852335023075
818,0.8082,71.6701,924.477,-0.3097,257.207,1.33067,5.05593,-0.240737,0.538478,-0.295837,0.424371,0.00289215,0.00995983,0.615485,-0.21395167008359184,0.5286286098103201,0.0028963363006415666,0.7133970862838657,0.010009594183868487,-0.25609132474767216
819,0.8092,71.6673,924.653,-0.311011,257.226,1.33103,5.0575,-0.240964,0.538982,-0.296114,0.424763,0.00289539,0.0099717,0.616063,-0.21413008280387302,0.5292279496883072,0.0028995856900351225,0.7142608560670538,0.010021583068905215,-0.25629735891366767
820,0.8102,71.6644,924.828,-0.312326,257.245,1.3314,5.05909,-0.241191,0.539485,-0.29639,0.425154,0.00289863,0.00998355,0.616641,-0.21430845502906304,0.5298259947268211,0.0029028350899567013,0.7151233461757331,0.010033551895579862,-0.25650259251906715
821,0.8112,71.6614,925.004,-0.313646,257.264,1.33178,5.0607,-0.241417,0.539988,-0.296667,0.425545,0.00290186,0.00999541,0.617218,-0.21448600125474726,0.530424273646666,0.002906074471345832,0.7159862702260642,0.010045530964541083,-0.25670851277966655
822,0.8122,71.6583,925.179,-0.314971,257.283,1.33216,5.06233,-0.241643,0.540491,-0.296943,0.425936,0.0029051,0.0100073,0.617795,-0.21466350735951834,0.5310227865393073,0.002909323892291038,0.7168496284363748,0.010057540477300675,-0.25691363292225755
823,0.8132,71.6551,925.354,-0.3163,257.302,1.33255,5.06399,-0.241869,0.540994,-0.297219,0.426326,0.00290833,0.0100191,0.618371,-0.21484097335244257,0.5316200018754784,0.002912563294638959,0.7177134210251019,0.010069459226598632,-0.25711869645950114
824,0.8142,71.6519,925.529,-0.317635,257.321,1.33294,5.06566,-0.242095,0.541496,-0.297495,0.426716,0.00291156,0.0100309,0.618948,-0.21501839924258415,0.5322174501710548,0.002915802707450066,0.7185759296340044,0.010081378116538975,-0.25732370340701816
825,0.8152,71.6486,925.704,-0.318974,257.339,1.33335,5.06735,-0.242321,0.541998,-0.297771,0.427106,0.0029148,0.0100428,0.619524,-0.21519578503900527,0.5328151315169085,0.0029190521599149477,0.7194388713309245,0.010093398156457711,-0.25752865378042533
826,0.8162,71.6452,925.878,-0.320317,257.358,1.33375,5.06907,-0.242547,0.5425,-0.298047,0.427496,0.00291802,0.0100546,0.6201,-0.21537313075076625,0.5334130460039463,0.0029222815644620592,0.7203022463333271,0.01010531732887876,-0.25773354759533484
827,0.8172,71.6418,926.052,-0.321666,257.376,1.33417,5.0708,-0.242773,0.543002,-0.298322,0.427885,0.00292125,0.0100664,0.620675,-0.21555043638692495,0.5340096597126851,0.00292552100866339,0.7211660548587862,0.01011723664194708,-0.25793764280536846
828,0.8182,71.6383,926.227,-0.323019,257.394,1.33459,5.07256,-0.242998,0.543503,-0.298598,0.428274,0.00292448,0.0100783,0.62125,-0.21572691768384744,0.5346065055493021,0.0029287604633279063,0.7220285750955484,0.0101292571085847,-0.25814242375488317
829,0.8192,71.6347,926.401,-0.324378,257.412,1.33502,5.07434,-0.243224,0.544004,-0.298873,0.428663,0.00292771,0.0100901,0.621825,-0.21590414337319364,0.5352035836041134,0.0029319999284558307,0.7228915275632146,0.010141176704144161,-0.2583464065394322
830,0.8202,71.631,926.574,-0.325741,257.43,1.33545,5.07615,-0.243449,0.544505,-0.299148,0.429051,0.00293093,0.0101019,0.622399,-0.21608054509499686,0.5357993581673428,0.0029352293746951474,0.7237549124783857,0.010153096440355558,-0.25855033323642784
831,0.8212,71.6273,926.748,-0.327109,257.447,1.3359,5.07797,-0.243675,0.545005,-0.299423,0.42944,0.00293415,0.0101137,0.622973,-0.21625769087357838,0.5363969003320859,0.002938458831333035,0.7246170054399048,0.010165016317220665,-0.2587542038612921
832,0.8222,71.6234,926.922,-0.328481,257.465,1.33635,5.07982,-0.2439,0.545506,-0.299697,0.429828,0.00293737,0.0101255,0.623547,-0.2164340130561424,0.5369931379920407,0.0029416882983699377,0.725481255036077,0.01017693633474126,-0.2589572773870906
833,0.8232,71.6195,927.095,-0.329859,257.482,1.3368,5.0817,-0.244125,0.546006,-0.299972,0.430215,0.0029406,0.0101374,0.624121,-0.21661029557067824,0.5375880694482553,0.0029449278052549044,0.7263442113847038,0.010188957511809482,-0.2591610361176996
834,0.8242,71.6156,927.268,-0.331242,257.499,1.33726,5.08359,-0.24435,0.546505,-0.300247,0.430603,0.00294382,0.0101492,0.624694,-0.21678653842611006,0.5381847693715005,0.0029481572931220335,0.7272058721126569,0.01020087781183765,-0.25936473882236155
835,0.8252,71.6115,927.441,-0.332629,257.516,1.33774,5.08551,-0.244575,0.547005,-0.300521,0.43099,0.00294703,0.010161,0.625267,-0.2169627416313602,0.538780162078305,0.0029513767618740694,0.7280696909854352,0.010212798252526412,-0.2595676450844969
836,0.8262,71.6074,927.614,-0.334022,257.533,1.33821,5.08745,-0.244799,0.547504,-0.300795,0.431377,0.00295025,0.0101728,0.625839,-0.21713812233386276,0.5393757852466787,0.00295460627050681,0.7289322129425677,0.0102247188338771,-0.2597704957579323
837,0.8272,71.6032,927.786,-0.33542,257.549,1.3387,5.08942,-0.245024,0.548003,-0.301069,0.431764,0.00295347,0.0101845,0.626411,-0.21731424644163255,0.5399716389658271,0.0029578357895385654,0.7297951654055594,0.010236538532232498,-0.2599732908578972
838,0.8282,71.5989,927.959,-0.336822,257.566,1.33919,5.09141,-0.245249,0.548502,-0.301343,0.43215,0.00295668,0.0101963,0.626983,-0.21749033092593584,0.5405661827580377,0.0029610552893586384,0.7306585485892858,0.01024845939372021,-0.26017603039961656
839,0.8292,71.5946,928.131,-0.33823,257.582,1.33969,5.09342,-0.245473,0.549,-0.301617,0.432536,0.0029599,0.0102081,0.627555,-0.21766559346167158,0.54116095608845,0.0029642848291562274,0.7315206311872335,0.010260380395874735,-0.2603787143983112
840,0.8302,71.5901,928.303,-0.339642,257.599,1.3402,5.09546,-0.245697,0.549498,-0.30189,0.432922,0.00296311,0.0102199,0.628126,-0.21784081674299605,0.5417559590456833,0.002967504349677963,0.7323831432092327,0.01027230153869807,-0.260580603450171
841,0.8312,71.5856,928.475,-0.34106,257.615,1.34071,5.09753,-0.245922,0.549996,-0.302163,0.433308,0.00296632,0.0102317,0.628697,-0.2180167827623093,0.5423511917183903,0.0029707238805343206,0.7332460848691897,0.010284222822191547,-0.2607824373938422
842,0.8322,71.581,928.647,-0.342483,257.631,1.34124,5.09962,-0.246146,0.550494,-0.302437,0.433693,0.00296954,0.0102435,0.629268,-0.21819192738604032,0.5429451112493753,0.0029739534514647836,0.7341094563811179,0.010296144246357164,-0.2609849552597817
843,0.8332,71.5764,928.819,-0.343911,257.646,1.34177,5.10173,-0.24637,0.550991,-0.30271,0.434078,0.00297275,0.0102553,0.629838,-0.2183670327817694,0.5435392594834023,0.002977173003022582,0.734971522986746,0.010308065811196476,-0.2611866788304755
844,0.8342,71.5716,928.991,-0.345344,257.662,1.34231,5.10388,-0.246593,0.551488,-0.302983,0.434463,0.00297596,0.010267,0.630408,-0.21854131749999073,0.544133636508539,0.002980392564915446,0.7358340181459637,0.010319886484717156,-0.261388347338151
845,0.8352,71.5668,929.162,-0.346783,257.677,1.34285,5.10604,-0.246817,0.551985,-0.303256,0.434848,0.00297917,0.0102788,0.630978,-0.21871634464109901,0.5447282424128868,0.0029836121371429325,0.7366969420718152,0.010331808329716363,-0.26158996079783825
846,0.8362,71.5619,929.333,-0.348226,257.693,1.34341,5.10823,-0.247041,0.552482,-0.303528,0.435232,0.00298237,0.0102906,0.631547,-0.21889133258051852,0.5453215319622764,0.0029868216898369937,0.7375602949774507,0.010343730315394373,-0.2617907810157135
847,0.8372,71.557,929.504,-0.349675,257.708,1.34397,5.11045,-0.247264,0.552978,-0.303801,0.435616,0.00298558,0.0103023,0.632116,-0.21906550039292028,0.5459150493786009,0.002990041282702194,0.7384223386529178,0.010355551406192154,-0.2619922846260019
848,0.8382,71.5519,929.675,-0.351129,257.723,1.34454,5.1127,-0.247488,0.553474,-0.304073,0.436,0.00298879,0.0103141,0.632685,-0.21924041013021034,0.5465087947493774,0.002993260885902238,0.7392848100081042,0.01036747367204005,-0.2621929954266773
849,0.8392,71.5468,929.846,-0.352588,257.738,1.34512,5.11497,-0.247711,0.55397,-0.304345,0.436383,0.00299199,0.0103259,0.633254,-0.21941450010699737,0.5471012210601631,0.0029964704694722677,0.7401477092551907,0.010379396078571412,-0.2623936516414389
850,0.8402,71.5416,930.016,-0.354053,257.752,1.3457,5.11727,-0.247935,0.554466,-0.304617,0.436767,0.0029952,0.0103376,0.633822,-0.2195893316771066,0.5476954220083308,0.0029996900933100257,0.7410110366064653,0.010391217586661172,-0.2625942532851321
851,0.8412,71.5363,930.187,-0.355523,257.767,1.3463,5.1196,-0.248158,0.554961,-0.304889,0.43715,0.0029984,0.0103494,0.63439,-0.21976334385306384,0.5482883028844001,0.003002899697453598,0.7418730504003981,0.010403140273372413,-0.2627948003725983
852,0.8422,71.5309,930.357,-0.356998,257.781,1.3469,5.12195,-0.248381,0.555456,-0.305161,0.437532,0.00300161,0.0103611,0.634957,-0.2199373172286322,0.548879861996699,0.003006119341929292,0.7427354909967838,0.01041496205927106,-0.2629952929186745
853,0.8432,71.5255,930.527,-0.358479,257.796,1.34751,5.12433,-0.248604,0.555951,-0.305432,0.437915,0.00300481,0.0103729,0.635524,-0.22011125181246338,0.5494731966001674,0.0030093289666464074,0.7435983586069421,0.01042688502616862,-0.26319499413355674
854,0.8442,71.52,930.697,-0.359964,257.81,1.34813,5.12674,-0.248826,0.556446,-0.305704,0.438297,0.00300801,0.0103846,0.636091,-0.22028436789796446,0.5500652084283286,0.00301253860163464,0.744461653442297,0.01043870708988237,-0.2633953778417326
855,0.8452,71.5144,930.867,-0.361456,257.824,1.34876,5.12918,-0.249049,0.55694,-0.305975,0.438679,0.00301121,0.0103964,0.636658,-0.22045822509812496,0.5506574464482084,0.003015748246893546,0.745323630389874,0.010450630336973132,-0.26359497064829074
856,0.8462,71.5087,931.037,-0.362953,257.837,1.34939,5.13164,-0.249272,0.557434,-0.306246,0.43906,0.00301441,0.0104081,0.637224,-0.22063204353245236,0.5512483594970927,0.003018957902423347,0.7461860332592574,0.010462452678508649,-0.2637945093725268
857,0.8472,71.503,931.206,-0.364455,257.851,1.35004,5.13414,-0.249494,0.557928,-0.306517,0.439442,0.00301761,0.0104199,0.63779,-0.2208050440150241,0.5518410495670167,0.0030221675682242655,0.747048862260904,0.01047437620579883,-0.26399399402909496
858,0.8482,71.4971,931.375,-0.365962,257.864,1.35069,5.13666,-0.249717,0.558421,-0.306788,0.439823,0.00302081,0.0104316,0.638356,-0.2209787851173558,0.5524324136546068,0.003025377244295857,0.7479103696941318,0.010486198825162774,-0.2641934246326457
859,0.8492,71.4912,931.545,-0.367476,257.878,1.35136,5.13921,-0.249939,0.558915,-0.307059,0.440204,0.00302401,0.0104434,0.638921,-0.22115170863183942,0.5530240030948412,0.003028586930638566,0.7487740507284122,0.010498122632659035,-0.2643928011978255
860,0.8502,71.4852,931.714,-0.368994,257.891,1.35203,5.14179,-0.250161,0.559408,-0.307329,0.440584,0.00302721,0.0104551,0.639486,-0.22132459376156377,0.5536142643585547,0.00303179662725217,0.7496364088892415,0.010509945529857845,-0.2645913883310327
861,0.8512,71.4791,931.883,-0.370519,257.904,1.35271,5.1444,-0.250383,0.5599,-0.3076,0.440965,0.00303041,0.0104669,0.640051,-0.22149744051504916,0.5542063041696974,0.0030350063341368916,0.7504974417991421,0.01052186961756707,-0.26479065706266236
862,0.8522,71.473,932.051,-0.372048,257.917,1.3534,5.14704,-0.250605,0.560393,-0.30787,0.441345,0.00303361,0.0104786,0.640615,-0.22167024890081433,0.5547970147931922,0.0030382160512927303,0.7513606498012382,0.010533692792606963,-0.2649891367892865
863,0.8532,71.4667,932.22,-0.373584,257.929,1.35409,5.14971,-0.250827,0.560885,-0.30814,0.441725,0.00303681,0.0104903,0.64118,-0.2218430189273758,0.5553879499293786,0.0030414257787196863,0.7522225312463899,0.01054551610597887,-0.26518756293361856
864,0.8542,71.4604,932.388,-0.375125,257.942,1.3548,5.15241,-0.251049,0.561377,-0.30841,0.442104,0.00304,0.0105021,0.641743,-0.22201575060324852,0.555977553685256,0.0030446254859715083,0.7530848368415453,0.010557440613423452,-0.26538593551012346
865,0.8552,71.454,932.557,-0.376672,257.954,1.35552,5.15514,-0.251271,0.561869,-0.30868,0.442483,0.0030432,0.0105138,0.642307,-0.22218844393694526,0.5565673809433078,0.0030478352339085024,0.753947566795437,0.010569264204646434,-0.26558425453326284
866,0.8562,71.4475,932.725,-0.378224,257.966,1.35624,5.1579,-0.251492,0.562361,-0.30895,0.442862,0.0030464,0.0105256,0.64287,-0.22236032129768724,0.5571574317882575,0.003051044992117058,0.7548107213169011,0.01058118899232019,-0.26578252001749403
867,0.8572,71.441,932.893,-0.379782,257.978,1.35698,5.16069,-0.251714,0.562852,-0.309219,0.443241,0.00304959,0.0105373,0.643433,-0.22253293814518016,0.5577477063048604,0.003054244730054112,0.7556725449414534,0.010593012861400908,-0.2659799979576356
868,0.8582,71.4343,933.061,-0.381346,257.99,1.35772,5.16352,-0.251935,0.563343,-0.309488,0.44362,0.00305279,0.010549,0.643996,-0.22270473938111435,0.5583382045779044,0.0030574545087729277,0.7565347918253071,0.010604836868821632,-0.26617742278335543
869,0.8592,71.4276,933.228,-0.382915,258.002,1.35848,5.16637,-0.252156,0.563834,-0.309758,0.443998,0.00305599,0.0105608,0.644558,-0.22287650265317038,0.5589273677640618,0.0030606642977628606,0.7573974621763331,0.010616762076255393,-0.2663755281337781
870,0.8602,71.4208,933.396,-0.38449,258.014,1.35924,5.16926,-0.252377,0.564324,-0.310027,0.444376,0.00305918,0.0105725,0.64512,-0.22304822796973767,0.559516753696,0.003063864066385591,0.7582587979428286,0.010628586361543402,-0.26657284657618974
871,0.8612,71.4139,933.563,-0.386072,258.025,1.36001,5.17217,-0.252598,0.564815,-0.310296,0.444754,0.00306238,0.0105842,0.645682,-0.22321991533920316,0.5601063624579325,0.00306707387588645,0.759122314988705,0.010640410785176746,-0.2667701119470789
872,0.8622,71.4069,933.731,-0.387658,258.036,1.36079,5.17512,-0.252819,0.565305,-0.310564,0.445131,0.00306557,0.010596,0.646243,-0.2233915647699526,0.5606946334386915,0.003070273664955714,0.7599844961401807,0.010652336412384944,-0.2669665912276775
873,0.8632,71.3999,933.898,-0.389251,258.047,1.36159,5.1781,-0.25304,0.565794,-0.310833,0.445508,0.00306877,0.0106077,0.646804,-0.22356317627036904,0.5612831262394209,0.0030734834949670553,0.7608453390177232,0.010664161113895343,-0.2671637506954999
874,0.8642,71.3927,934.065,-0.39085,258.058,1.36239,5.18112,-0.253261,0.566284,-0.311101,0.445885,0.00307196,0.0106194,0.647365,-0.22373474984883457,0.561871840943762,0.0030766833044832964,0.761708364657856,0.010675985953755518,-0.267360124495049
875,0.8652,71.3855,934.231,-0.392454,258.069,1.3632,5.18417,-0.253482,0.566773,-0.31137,0.446262,0.00307516,0.0106312,0.647925,-0.22390628551372882,0.5624607776353887,0.003079893155005564,0.7625700507132436,0.010687912000753474,-0.26755717811665947
876,0.8662,71.3782,934.398,-0.394065,258.08,1.36402,5.18724,-0.253702,0.567262,-0.311638,0.446638,0.00307835,0.0106429,0.648485,-0.22407700735082514,0.5630483733488512,0.0030830929849683386,0.763432158236153,0.010699737118500696,-0.26775344649178723
877,0.8672,71.3708,934.565,-0.395681,258.09,1.36485,5.19036,-0.253923,0.567751,-0.311906,0.447014,0.00308155,0.0106546,0.649045,-0.22424846738516901,0.563636190039843,0.0030863028560017547,0.7642946874327314,0.010711562374602579,-0.26794966227403816
878,0.8682,71.3634,934.731,-0.397304,258.101,1.36569,5.1935,-0.254143,0.56824,-0.312174,0.44739,0.00308474,0.0106664,0.649605,-0.22441911395053382,0.5642242277914675,0.0030895027064117286,0.7651576385092285,0.010723488841404505,-0.26814582547750543
879,0.8692,71.3558,934.897,-0.398932,258.111,1.36654,5.19668,-0.254363,0.568728,-0.312442,0.447766,0.00308794,0.0106781,0.650164,-0.22458972297778357,0.5648124866868589,0.003092712597956071,0.7660192456518649,0.010735314375403204,-0.268341936116278
880,0.8702,71.3482,935.063,-0.400566,258.121,1.3674,5.1999,-0.254583,0.569216,-0.312709,0.448141,0.00309113,0.0106899,0.650723,-0.22476029447517576,0.5653994014089989,0.0030959124688130224,0.766881273361397,0.010747241122480489,-0.26853726274207
881,0.8712,71.3404,935.229,-0.402207,258.131,1.36827,5.20314,-0.254803,0.569704,-0.312977,0.448516,0.00309433,0.0107016,0.651282,-0.22493082845096612,0.5659865362654324,0.003099122380868957,0.7677437218431111,0.010759066934382444,-0.2687332684897118
882,0.8722,71.3326,935.395,-0.403853,258.14,1.36916,5.20642,-0.255023,0.570191,-0.313244,0.448891,0.00309752,0.0107133,0.65184,-0.22510132491340828,0.566573891338725,0.003102322272173108,0.7686048226966877,0.010770892884647276,-0.2689284906437077
883,0.8732,71.3248,935.561,-0.405506,258.15,1.37005,5.20974,-0.255243,0.570679,-0.313511,0.449265,0.00310072,0.0107251,0.652398,-0.22527178387075453,0.5671598995507907,0.003105532204740191,0.7694681124757377,0.010782820051553621,-0.26912366068034654
884,0.8742,71.3168,935.727,-0.407165,258.159,1.37095,5.21309,-0.255463,0.571166,-0.313778,0.44964,0.00310392,0.0107368,0.652956,-0.22544220533125492,0.5677476947178279,0.00310874214757928,0.7703300533120714,0.010794646279731479,-0.2693187786135417
885,0.8752,71.3087,935.892,-0.40883,258.168,1.37186,5.21648,-0.255682,0.571652,-0.314045,0.450014,0.00310711,0.0107486,0.653513,-0.2256118149153601,0.568334142014461,0.003111942069570439,0.7711906428242936,0.010806573726929392,-0.26951384445720283
886,0.8762,71.3006,936.057,-0.410501,258.177,1.37278,5.2199,-0.255902,0.572139,-0.314312,0.450387,0.00311031,0.0107603,0.65407,-0.22578216157725883,0.5689192397633789,0.00311515203292112,0.7720534227372056,0.010818400233026937,-0.26970885822523627
887,0.8772,71.2924,936.222,-0.412178,258.186,1.37372,5.22335,-0.256121,0.572625,-0.314579,0.450761,0.0031135,0.010772,0.654627,-0.22595169671909776,0.5695061252998048,0.003118351975359923,0.7729148500105281,0.010830226877495353,-0.2699038199315441
888,0.8782,71.284,936.387,-0.413862,258.195,1.37466,5.22685,-0.256341,0.573111,-0.314845,0.451134,0.0031167,0.0107838,0.655184,-0.22612196861522427,0.5700916602800266,0.0031215619592221966,0.7737766960392545,0.01084215474454675,-0.27009799968838966
889,0.8792,71.2756,936.552,-0.415552,258.203,1.37562,5.23037,-0.25656,0.573597,-0.315111,0.451507,0.0031199,0.0107955,0.65574,-0.22629142934747004,0.5706774137055337,0.0031247719533564755,0.7746389610269495,0.010853981666944623,-0.270292127800289
890,0.8802,71.2671,936.717,-0.417248,258.212,1.37658,5.23394,-0.256779,0.574083,-0.315377,0.45188,0.0031231,0.0108073,0.656296,-0.2264608529718789,0.5712633856578211,0.00312798195776276,0.7755016451772769,0.010865909814304242,-0.2704862042809779
891,0.8812,71.2586,936.882,-0.418951,258.22,1.37756,5.23754,-0.256998,0.574568,-0.315643,0.452252,0.00312629,0.010819,0.656852,-0.22663023949657668,0.5718480043696244,0.0031311819411292685,0.7763629723301386,0.010877737014638011,-0.2706802291441883
892,0.8822,71.2499,937.046,-0.42066,258.228,1.37855,5.24117,-0.257217,0.575053,-0.315909,0.452624,0.00312949,0.0108308,0.657407,-0.2267995889296871,0.5724328406000445,0.0031343919660473674,0.7772247173279887,0.010889665442312513,-0.2708742024036487
893,0.8832,71.2412,937.211,-0.422375,258.236,1.37955,5.24485,-0.257436,0.575538,-0.316175,0.452996,0.00313269,0.0108425,0.657962,-0.22696890127933256,0.5730178944300133,0.0031376020012376937,0.7780868803735312,0.010901492920588618,-0.2710681240730839
894,0.8842,71.2323,937.375,-0.424097,258.243,1.38056,5.24856,-0.257655,0.576023,-0.316441,0.453368,0.00313589,0.0108543,0.658517,-0.22713817655363333,0.5736031659404928,0.0031408120467002476,0.778949461669568,0.010913421628584441,-0.2712619941662149
895,0.8852,71.2234,937.539,-0.425825,258.251,1.38158,5.25231,-0.257873,0.576507,-0.316706,0.453739,0.00313909,0.0108661,0.659071,-0.22730664206773632,0.5741870810246072,0.003144022102434807,0.7798106816074291,0.010925350477339668,-0.27145508415220776
896,0.8862,71.2144,937.703,-0.42756,258.258,1.38261,5.25609,-0.258092,0.576991,-0.316971,0.45411,0.00314229,0.0108778,0.659625,-0.227475843384903,0.5747712127814082,0.003147232168441816,0.7806723184766291,0.01093717837313335,-0.2716481229761336
897,0.8872,71.2053,937.867,-0.429301,258.266,1.38365,5.25991,-0.25831,0.577475,-0.317237,0.454481,0.00314549,0.0108896,0.660179,-0.2276442352956599,0.5753555612912962,0.0031504422447208302,0.7815343724790118,0.01094910750221989,-0.27184183881007384
898,0.8882,71.1961,938.03,-0.431049,258.273,1.3847,5.26378,-0.258529,0.577959,-0.317502,0.454852,0.00314869,0.0109013,0.660733,-0.22781336268800478,0.5759401266347015,0.003153652331272072,0.782396843816519,0.010960935675972339,-0.272034775157594
899,0.8892,71.1869,938.194,-0.432803,258.28,1.38577,5.26767,-0.258747,0.578442,-0.317766,0.455222,0.00315189,0.0109131,0.661286,-0.2279816810275732,0.5765233323679635,0.0031568624280957636,0.7832579494323479,0.010972865085396633,-0.27222693261105246
900,0.8902,71.1775,938.357,-0.434564,258.286,1.38685,5.27161,-0.258965,0.578925,-0.318031,0.455592,0.0031551,0.0109249,0.661839,-0.2281499626777429,0.5771067539272723,0.003160082566792344,0.7841194710626489,0.010984794635588768,-0.2724197669222359
901,0.8912,71.1681,938.52,-0.436331,258.293,1.38794,5.27559,-0.259183,0.579408,-0.318296,0.455962,0.0031583,0.0109367,0.662392,-0.22831820764651123,0.577690391392498,0.0031632926841929088,0.7849814089084053,0.010996724326550522,-0.272612550139097
902,0.8922,71.1585,938.684,-0.438105,258.299,1.38904,5.2796,-0.259401,0.579891,-0.31856,0.456331,0.0031615,0.0109484,0.662944,-0.2284864159418739,0.5782726665700852,0.0031665028118657013,0.7858437631706976,0.011008553057423098,-0.27280455508009294
903,0.8932,71.1489,938.847,-0.439886,258.306,1.39015,5.28366,-0.259619,0.580374,-0.318824,0.456701,0.00316471,0.0109602,0.663496,-0.22865458757182489,0.5788567355028056,0.003169722981507972,0.7867065340507033,0.011020483028735928,-0.27299650933847486
904,0.8942,71.1392,939.01,-0.441674,258.312,1.39127,5.28775,-0.259837,0.580856,-0.319089,0.45707,0.00316791,0.010972,0.664048,-0.22882272254435632,0.5794394411407844,0.00317293312975786,0.7875679341808703,0.01103241314082326,-0.27318913973884484
905,0.8952,71.1294,939.172,-0.443468,258.318,1.39241,5.29188,-0.260054,0.581338,-0.319353,0.457438,0.00317112,0.0109838,0.6646,-0.22899004985789417,0.5800207818152476,0.003176153320041619,0.788429749605978,0.01104434339368665,-0.2733809924802776
906,0.8962,71.1195,939.335,-0.445269,258.323,1.39355,5.29606,-0.260272,0.581819,-0.319616,0.457807,0.00317433,0.0109956,0.665151,-0.2291581117076179,0.5806039170655746,0.003179373520662221,0.7892901912351609,0.011056273787327875,-0.2735720681517031
907,0.8972,71.1095,939.497,-0.447077,258.329,1.39471,5.30027,-0.26049,0.582301,-0.31988,0.458175,0.00317754,0.0110074,0.665702,-0.22932613692385162,0.5811856863460367,0.003182593731619665,0.7901528369882616,0.011068204321748487,-0.27376381981337805
908,0.8982,71.0994,939.66,-0.448892,258.334,1.39588,5.30452,-0.260707,0.582782,-0.320144,0.458543,0.00318075,0.0110192,0.666252,-0.2294933550083208,0.5817676697569918,0.0031858139529139518,0.7910141076218349,0.011080134996950486,-0.27395552085929586
909,0.8992,71.0893,939.822,-0.450714,258.339,1.39707,5.30882,-0.260924,0.583263,-0.320407,0.458911,0.00318396,0.011031,0.666803,-0.22966053681040244,0.5823498673772542,0.003189034184545081,0.7918757926262312,0.011092065812934981,-0.27414644544962574
910,0.9002,71.079,939.984,-0.452542,258.344,1.39826,5.31315,-0.261141,0.583744,-0.320671,0.459278,0.00318717,0.0110428,0.667353,-0.22982768233796902,0.5829306963541798,0.0031922544265132746,0.7927378922008108,0.011103996769704194,-0.27433804549570806
911,0.9012,71.0687,940.146,-0.454378,258.349,1.39947,5.31753,-0.261358,0.584225,-0.320934,0.459646,0.00319038,0.0110546,0.667902,-0.22999479159889102,0.5835133220469904,0.003195474678818533,0.7936004065450297,0.011115927867259456,-0.2745288694952869
912,0.9022,71.0583,940.308,-0.45622,258.354,1.40069,5.32195,-0.261575,0.584705,-0.321197,0.460012,0.00319359,0.0110664,0.668452,-0.2301618646010377,0.5840929939963555,0.0031986949414608556,0.7944615413960019,0.011127859105602322,-0.27471964331475274
913,0.9032,71.0477,940.47,-0.45807,258.359,1.40192,5.3264,-0.261792,0.585185,-0.32146,0.460379,0.00319681,0.0110782,0.669001,-0.23032890135227635,0.5846744628181544,0.0032019252464592363,0.7953230896909209,0.01113979048473479,-0.2749103669673013
914,0.9042,71.0371,940.632,-0.459926,258.363,1.40316,5.3309,-0.262009,0.585665,-0.321722,0.460745,0.00320003,0.01109,0.66955,-0.23049590186047242,0.5852545598228223,0.0032051555618595184,0.796185051628288,0.011151722004658415,-0.2751003155668027
915,0.9052,71.0264,940.793,-0.46179,258.367,1.40442,5.33545,-0.262226,0.586144,-0.321985,0.461112,0.00320324,0.0111018,0.670098,-0.23066286613348996,0.5858364550175141,0.0032083758555774278,0.7970456303601698,0.011163653665374751,-0.27529093911571323
916,0.9062,71.0156,940.955,-0.46366,258.371,1.40569,5.34003,-0.262443,0.586624,-0.322247,0.461477,0.00320646,0.0111137,0.670647,-0.23082979417919092,0.5864153909729801,0.0032116061917484284,0.7979084193155266,0.011175686584449007,-0.2754807880183726
917,0.9072,71.0047,941.116,-0.465538,258.375,1.40697,5.34466,-0.262659,0.587103,-0.32251,0.461843,0.00320968,0.0111255,0.671195,-0.2309959170017375,0.5869961252739704,0.0032148365383213307,0.7987698237382679,0.01118761852794914,-0.2756713115161856
918,0.9082,70.9938,941.277,-0.467423,258.379,1.40826,5.34933,-0.262875,0.587582,-0.322772,0.462208,0.0032129,0.0111373,0.671742,-0.23116200394562947,0.5875754845863379,0.0032180668952956903,0.7996316408725641,0.011199550612246867,-0.27586106077433015
919,0.9092,70.9827,941.438,-0.469315,258.382,1.40957,5.35404,-0.263092,0.58806,-0.323034,0.462574,0.00321612,0.0111492,0.67229,-0.23132882369017638,0.5881566435593011,0.0032212972626719516,0.8004920704231808,0.011211583958497418,-0.276050760324681
920,0.9102,70.9715,941.599,-0.471215,258.386,1.41089,5.35879,-0.263308,0.588539,-0.323296,0.462938,0.00321935,0.011161,0.672837,-0.23149483873398913,0.5887348378025248,0.003224537672695371,0.8013547127112477,0.011223516325588934,-0.27624041018026
921,0.9112,70.9603,941.76,-0.473121,258.389,1.41222,5.36359,-0.263524,0.589017,-0.323558,0.463303,0.00322257,0.0111729,0.673384,-0.23166081792242488,0.5893148318607992,0.003227768060907632,0.802215966087082,0.01123554995703313,-0.27643001035408554
922,0.9122,70.9489,941.92,-0.475035,258.392,1.41357,5.36843,-0.26374,0.589495,-0.323819,0.463667,0.0032258,0.0111848,0.67393,-0.23182676126322765,0.5898934477613018,0.003231008491831888,0.8030776312404369,0.011247583731678557,-0.27661883747837146
923,0.9132,70.9374,942.081,-0.476956,258.395,1.41493,5.37332,-0.263956,0.589973,-0.324081,0.464031,0.00322902,0.0111966,0.674477,-0.2319926687641397,0.5904722743163289,0.0032342389008801486,0.803939708368189,0.011259516523569824,-0.27680833851723197
924,0.9142,70.9259,942.241,-0.478885,258.398,1.4163,5.37825,-0.264172,0.59045,-0.324342,0.464395,0.00323225,0.0112085,0.675022,-0.23215854043290152,0.5910513116025728,0.0032374793527050194,0.8048003928660143,0.011271550583418888,-0.2769970669107523
925,0.9152,70.9143,942.402,-0.480821,258.4,1.41768,5.38322,-0.264388,0.590928,-0.324603,0.464759,0.00323548,0.0112204,0.675568,-0.232324376277252,0.5916305596967535,0.003240719814996851,0.8056632936706665,0.011283584786474288,-0.2771857460525895
926,0.9162,70.9025,942.562,-0.482764,258.402,1.41908,5.38824,-0.264604,0.591405,-0.324864,0.465122,0.00323871,0.0112322,0.676114,-0.23249017630492852,0.5922084264663967,0.0032439602877551987,0.8065248005147949,0.011295518003180627,-0.27737437595559655
927,0.9172,70.8907,942.722,-0.484715,258.405,1.42049,5.39331,-0.264819,0.591881,-0.325125,0.465485,0.00324195,0.0112441,0.676659,-0.23265517317922335,0.5927865030397546,0.0032472108034522496,0.8073849110098978,0.01130755249144988,-0.2775629566326233
928,0.9182,70.8788,942.882,-0.486674,258.406,1.42191,5.39841,-0.265035,0.592358,-0.325386,0.465847,0.00324518,0.011256,0.677203,-0.23282090176248527,0.5933631961290065,0.003250451297176493,0.8082472392613873,0.011319587122930574,-0.27775148809651595
929,0.9192,70.8668,943.042,-0.488639,258.408,1.42335,5.40357,-0.26525,0.592834,-0.325647,0.46621,0.00324842,0.0112679,0.677748,-0.2329858275384501,0.5939416919598421,0.003253701833904721,0.8091081698324958,0.011331621897624045,-0.2779399703601174
930,0.9202,70.8547,943.201,-0.490613,258.41,1.4248,5.40877,-0.265465,0.59331,-0.325907,0.466572,0.00325166,0.0112798,0.678292,-0.23315071785918473,0.5945188033031825,0.003256952381164524,0.8099695103041051,0.011343656815532288,-0.2781276815643098
931,0.9212,70.8425,943.361,-0.492594,258.411,1.42627,5.41401,-0.265681,0.593786,-0.326168,0.466934,0.0032549,0.0112917,0.678836,-0.233316339416355,0.5950961235986472,0.003260202938956125,0.8108312608713739,0.01135569187665686,-0.2783160656542283
932,0.9222,70.8302,943.521,-0.494583,258.413,1.42775,5.4193,-0.265896,0.594262,-0.326428,0.467296,0.00325814,0.0113037,0.67938,-0.23348115868467423,0.5956736529218907,0.0032634535072795234,0.8116934217295542,0.011367828217777154,-0.2785036790863551
933,0.9232,70.8178,943.68,-0.496579,258.414,1.42924,5.42464,-0.266111,0.594737,-0.326688,0.467657,0.00326139,0.0113156,0.679923,-0.23364594252065995,0.5962497950980012,0.003266714118801861,0.812554180518904,0.011379863566543191,-0.2786912437453304
934,0.9242,70.8053,943.839,-0.498583,258.415,1.43074,5.43002,-0.266326,0.595212,-0.326948,0.468018,0.00326463,0.0113275,0.680466,-0.2338106909319292,0.5968261452989836,0.0032699647082214955,0.8134153482657986,0.011391899058530663,-0.27887875964383346
935,0.9252,70.7927,943.998,-0.500595,258.415,1.43226,5.43545,-0.266541,0.595687,-0.327208,0.468379,0.00326788,0.0113395,0.681009,-0.2339754039260974,0.5974027035999485,0.0032732253409053502,0.814276925164539,0.011404035834139847,-0.2790662267945404
936,0.9262,70.78,944.157,-0.502614,258.416,1.4338,5.44093,-0.266755,0.596162,-0.327467,0.46874,0.00327113,0.0113514,0.681552,-0.2341393156504772,0.5979794700760332,0.0032764859841862837,0.8151389114095182,0.011416071613779,-0.2792529244634089
937,0.9272,70.7672,944.316,-0.504642,258.416,1.43534,5.44645,-0.26697,0.596636,-0.327727,0.4691,0.00327438,0.0113633,0.682094,-0.2343039579979258,0.5985548462467574,0.003279746638064296,0.815999491194823,0.011428107536644916,-0.2794402943439084
938,0.9282,70.7543,944.475,-0.506677,258.417,1.43691,5.45203,-0.267185,0.597111,-0.327986,0.46946,0.00327763,0.0113753,0.682636,-0.2344685649510747,0.5991304295901916,0.003283007302539387,0.8168622958530241,0.01144024474675831,-0.2796268951418269
939,0.9292,70.7414,944.634,-0.50872,258.417,1.43848,5.45765,-0.267399,0.597585,-0.328246,0.46982,0.00328089,0.0113873,0.683177,-0.23463237115028668,0.599706220180932,0.0032862780104745415,0.8177236927161873,0.01145238210251942,-0.27981416780258916
940,0.9302,70.7283,944.793,-0.510771,258.417,1.44007,5.46331,-0.267613,0.598059,-0.328505,0.47018,0.00328415,0.0113992,0.683719,-0.2347961422987226,0.6002822180936005,0.003289548729072056,0.8185854979782461,0.011464418457482584,-0.2800006717798207
941,0.9312,70.7151,944.951,-0.51283,258.416,1.44167,5.46903,-0.267828,0.598532,-0.328764,0.470539,0.00328741,0.0114112,0.68426,-0.23496064344362166,0.600856822545224,0.0032928194583323744,0.8194458923860259,0.01147655610332965,-0.28018712745877694
942,0.9322,70.7018,945.109,-0.514897,258.416,1.44329,5.47479,-0.268042,0.599005,-0.329022,0.470898,0.00329067,0.0114232,0.684801,-0.23512434434930307,0.6014316333168777,0.003296090198255053,0.8203066938566237,0.011488693894829538,-0.2803728152251407
943,0.9332,70.6885,945.268,-0.516972,258.415,1.44492,5.4806,-0.268256,0.599479,-0.329281,0.471257,0.00329393,0.0114352,0.685341,-0.23528801022673884,0.602006650482644,0.003299360948840313,0.8211697237514382,0.011500831831983804,-0.2805591745314254
944,0.9342,70.675,945.426,-0.519055,258.414,1.44657,5.48646,-0.26847,0.599951,-0.32954,0.471615,0.0032972,0.0114472,0.685881,-0.2354516410834242,0.6025802715355588,0.003302641743114787,0.8220295187567077,0.011512969914794224,-0.28074548557689993
945,0.9352,70.6614,945.584,-0.521146,258.413,1.44823,5.49237,-0.268684,0.600424,-0.329798,0.471974,0.00330047,0.0114592,0.686421,-0.2356152369268527,0.6031557011364732,0.003305922548117346,0.8228915425716401,0.011525108143262353,-0.2809310293054509
946,0.9362,70.6478,945.742,-0.523246,258.412,1.44991,5.49833,-0.268898,0.600897,-0.330057,0.472332,0.00330374,0.0114713,0.686961,-0.2357787977645166,0.6037297336231642,0.003309203363848212,0.8237539742202824,0.011537347671119802,-0.28111724405301
947,0.9372,70.634,945.9,-0.525353,258.411,1.4516,5.50434,-0.269112,0.601369,-0.330315,0.472689,0.00330701,0.0114833,0.6875,-0.2359423236039061,0.6043023673471057,0.0033124841903073854,0.8246149892796832,0.011549486192122815,-0.28130269188024604
948,0.9382,70.6201,946.057,-0.527469,258.409,1.4533,5.5104,-0.269325,0.601841,-0.330573,0.473047,0.00331029,0.0114953,0.688039,-0.23610505055794262,0.6048768104137896,0.003315775060652504,0.8254764108341175,0.011561624858789088,-0.28148809186811397
949,0.9392,70.6061,946.215,-0.529593,258.407,1.45502,5.51651,-0.269539,0.602312,-0.330831,0.473404,0.00331356,0.0115074,0.688578,-0.23626850658670429,0.6054498537172508,0.003319055908601154,0.82633641273817,0.011573864828501534,-0.2816734440289551
950,0.9402,70.5921,946.373,-0.531725,258.405,1.45676,5.52267,-0.269752,0.602784,-0.331088,0.473761,0.00331684,0.0115194,0.689117,-0.23643116407116427,0.6060231016336928,0.0033223468005016965,0.8271986469962598,0.011586003787713128,-0.2818580302334964
951,0.9412,70.5779,946.53,-0.533866,258.403,1.45851,5.52888,-0.269966,0.603255,-0.331346,0.474118,0.00332013,0.0115315,0.689655,-0.23659455031910104,0.6065965542361751,0.0033256477364527193,0.8280594602646061,0.011598244052412277,-0.28204328696255054
952,0.9422,70.5636,946.687,-0.536015,258.401,1.46027,5.53514,-0.270179,0.603726,-0.331603,0.474474,0.00332341,0.0115436,0.690193,-0.23675713836364154,0.6071686044283757,0.003328938649974411,0.8289206790714987,0.011610484465219839,-0.2822277781296707
953,0.9432,70.5493,946.844,-0.538172,258.399,1.46205,5.54145,-0.270392,0.604197,-0.331861,0.47483,0.0033267,0.0115557,0.690731,-0.23691969178061667,0.6077408583066988,0.0033322396076125305,0.829782303607991,0.011622725026136926,-0.2824129394760725
954,0.9442,70.5348,947.002,-0.540338,258.396,1.46385,5.54781,-0.270605,0.604668,-0.332118,0.475186,0.00332999,0.0115677,0.691268,-0.2370822105774011,0.6083133159436693,0.0033355405761108514,0.830644334065227,0.011634864571674397,-0.28259733565470324
955,0.9452,70.5202,947.159,-0.542512,258.393,1.46566,5.55423,-0.270819,0.605138,-0.332375,0.475542,0.00333328,0.0115798,0.691805,-0.237245457516292,0.6088859774118387,0.003338841555469596,0.8315049391285851,0.011647105427592841,-0.28278168444960516
956,0.9462,70.5055,947.315,-0.544695,258.39,1.46749,5.5607,-0.271031,0.605608,-0.332632,0.475897,0.00333658,0.011592,0.692342,-0.23740714433988974,0.6094572333257451,0.0033421525791099693,0.8323659487713919,0.011659447597566208,-0.2829659858729543
957,0.9472,70.4907,947.472,-0.546886,258.387,1.46933,5.56721,-0.271244,0.606078,-0.332889,0.476252,0.00333988,0.0116041,0.692879,-0.23756955932033585,0.6100286920715017,0.0033454636136764915,0.8332273631838443,0.011671688750940934,-0.28315023993692356
958,0.9482,70.4759,947.629,-0.549086,258.384,1.47118,5.57378,-0.271457,0.606548,-0.333145,0.476607,0.00334318,0.0116162,0.693415,-0.23773193971007522,0.6106003537211262,0.0033487746591698286,0.8340891825562284,0.01168393005243451,-0.2833337299877712
959,0.9492,70.4609,947.785,-0.551295,258.38,1.47306,5.58041,-0.27167,0.607018,-0.333402,0.476962,0.00334648,0.0116284,0.693951,-0.23789428551647485,0.6111722183466626,0.0033520857155893147,0.8349514070789206,0.011696272671670949,-0.28351788955364643
960,0.9502,70.4458,947.942,-0.553512,258.376,1.47494,5.58708,-0.271882,0.607487,-0.333658,0.477316,0.00334979,0.0116405,0.694487,-0.23805583480311587,0.6117426742766996,0.0033554068164893813,0.835812201129267,0.011708514270631687,-0.28370128549823825
961,0.9512,70.4306,948.098,-0.555738,258.372,1.47685,5.59381,-0.272095,0.607956,-0.333915,0.47767,0.0033531,0.0116527,0.695022,-0.23821811162720752,0.6123133321838836,0.0033587279283824323,0.8366733989867083,0.01172085718979754,-0.2838853506144846
962,0.9522,70.4153,948.255,-0.557973,258.368,1.47876,5.60059,-0.272307,0.608425,-0.334171,0.478024,0.00335641,0.0116648,0.695557,-0.23837959226998962,0.6128841921397274,0.0033620490512684675,0.8375350008406746,0.011733099086232768,-0.2840686525010847
963,0.9532,70.3999,948.411,-0.560217,258.364,1.4807,5.60743,-0.27252,0.608893,-0.334427,0.478378,0.00335973,0.011677,0.696092,-0.2385418001410845,0.6134552542157687,0.0033653802188009507,0.8383951684845969,0.011745442305335141,-0.2842519074684078
964,0.9542,70.3844,948.567,-0.562469,258.359,1.48265,5.61432,-0.272732,0.609362,-0.334683,0.478731,0.00336304,0.0116892,0.696627,-0.23870321216917512,0.6140249044578594,0.0033687013637060392,0.8392575780378484,0.011757785675025723,-0.2844351155284637
965,0.9552,70.3687,948.723,-0.56473,258.355,1.48462,5.62126,-0.272944,0.60983,-0.334938,0.479084,0.00336636,0.0117014,0.697161,-0.2388645899815427,0.6145947558219815,0.003372032553324189,0.8401185520365713,0.01177012919530629,-0.284617561311178
966,0.9562,70.353,948.879,-0.567001,258.35,1.4866,5.62826,-0.273156,0.610298,-0.335194,0.479437,0.00336969,0.0117136,0.697695,-0.23902593358544033,0.6151648083791434,0.0033753737877557644,0.8409799290654274,0.011782472866178617,-0.2848006757758308
967,0.9572,70.3372,949.034,-0.56928,258.345,1.4886,5.63531,-0.273368,0.610766,-0.335449,0.479789,0.00337302,0.0117259,0.698229,-0.23918724298811944,0.6157334464661248,0.0033787150333137728,0.8418417093130788,0.011794917867131494,-0.2849830283525663
968,0.9582,70.3213,949.19,-0.571568,258.339,1.49061,5.64242,-0.27358,0.611233,-0.335705,0.480141,0.00337635,0.0117381,0.698763,-0.23934851819682978,0.6163022847489452,0.0033820562899979922,0.8427020502653044,0.011807261840427685,-0.2851660492696311
969,0.9592,70.3052,949.346,-0.573866,258.334,1.49264,5.64958,-0.273792,0.6117,-0.33596,0.480493,0.00337968,0.0117503,0.699296,-0.23950975921881978,0.616871323298086,0.003385397557808645,0.8435627930905847,0.01181960596432119,-0.28534830868800387
970,0.9602,70.2891,949.501,-0.576172,258.328,1.49469,5.6568,-0.274004,0.612167,-0.336215,0.480845,0.00338302,0.0117626,0.699829,-0.2396709660613363,0.6174405621840533,0.003388748870633229,0.8444239379766385,0.011832051422013823,-0.2855305216361502
971,0.9612,70.2728,949.657,-0.578487,258.323,1.49675,5.66407,-0.274215,0.612634,-0.33647,0.481196,0.00338636,0.0117749,0.700361,-0.2398313785633832,0.6180083834681855,0.003392100194651082,0.8452854851112717,0.011844497032786672,-0.28571268812591843
972,0.9622,70.2565,949.812,-0.580812,258.317,1.49883,5.6714,-0.274427,0.613101,-0.336725,0.481548,0.0033897,0.0117872,0.700894,-0.23999251722982562,0.6185780226697841,0.0033954515298624255,0.8461474346823783,0.011856942796641512,-0.2858948081691539
973,0.9632,70.24,949.967,-0.583146,258.31,1.50093,5.67878,-0.274638,0.613567,-0.336979,0.481898,0.00339305,0.0117995,0.701426,-0.24015286189173346,0.6191446241271896,0.0033988129102553444,0.8470079398690769,0.01186938871358012,-0.28607616785422396
974,0.9642,70.2234,950.122,-0.585489,258.304,1.50304,5.68622,-0.27485,0.614033,-0.337234,0.482249,0.0033964,0.0118118,0.701958,-0.24031393241093413,0.6197130436420473,0.0034021743019090334,0.8478688461446389,0.011881834783604495,-0.2862581952219454
975,0.9652,70.2068,950.277,-0.587842,258.297,1.50517,5.69372,-0.275061,0.614499,-0.337488,0.4826,0.00339975,0.0118241,0.702489,-0.24047420926139307,0.6202816627071737,0.0034055357048232704,0.8487301536960152,0.011894281006716412,-0.2864394626184251
976,0.9662,70.19,950.432,-0.590204,258.291,1.50732,5.70127,-0.275272,0.614965,-0.337743,0.48295,0.00340311,0.0118364,0.703021,-0.2406344522970041,0.6208488605429523,0.0034089071530871706,0.8495918627102439,0.01190672738291787,-0.28662139735779224
977,0.9672,70.1731,950.587,-0.592575,258.284,1.50948,5.70888,-0.275484,0.615431,-0.337997,0.483299,0.00340647,0.0118488,0.703552,-0.24079542072986038,0.621414635517272,0.0034122786126793425,0.8504539733744505,0.011919275104133042,-0.2868025725126446
978,0.9682,70.1561,950.742,-0.594956,258.277,1.51166,5.71655,-0.275695,0.615896,-0.338251,0.483649,0.00340984,0.0118611,0.704082,-0.24095559599700145,0.621982229962937,0.0034156601177561807,0.8513146345602876,0.011931721787763916,-0.28698370165485154
979,0.9692,70.1389,950.896,-0.597346,258.269,1.51386,5.72428,-0.275906,0.616361,-0.338505,0.483998,0.00341321,0.0118735,0.704613,-0.24111573747072645,0.622548400552215,0.00341904163422857,0.8521756960466385,0.011944269818911613,-0.28716478479609875
980,0.9702,70.1217,951.051,-0.599746,258.262,1.51608,5.73206,-0.276116,0.616826,-0.338758,0.484347,0.00341658,0.0118859,0.705143,-0.24127508643363083,0.6231147687695131,0.0034224231620967327,0.8530371580196863,0.011956818005655956,-0.2873451092935345
981,0.9712,70.1044,951.205,-0.602155,258.254,1.51831,5.7399,-0.276327,0.617291,-0.339012,0.484696,0.00341995,0.0118983,0.705673,-0.24143516050198532,0.623681334683815,0.0034258047013606685,0.8538990206657011,0.011969366347998722,-0.2875261006488987
982,0.9722,70.0869,951.359,-0.604574,258.246,1.52056,5.7478,-0.276538,0.617755,-0.339265,0.485045,0.00342333,0.0119107,0.706203,-0.24159520079827435,0.6242480983641292,0.0034291962863122194,0.854759429410682,0.011981914845942132,-0.28770633374498655
983,0.9732,70.0694,951.514,-0.607002,258.238,1.52282,5.75576,-0.276749,0.618219,-0.339519,0.485393,0.00342671,0.0119231,0.706732,-0.2417552073296233,0.6248134350652406,0.003432587882727489,0.8556202374779558,0.01199446349948774,-0.28788723336099153
984,0.9742,70.0517,951.668,-0.609441,258.23,1.5251,5.76378,-0.276959,0.618683,-0.339772,0.485741,0.0034301,0.0119355,0.707261,-0.24191442201795665,0.62537896853776,0.0034359895249662653,0.8564814450528517,0.012007012308637544,-0.28806737510206004
985,0.9752,70.0339,951.822,-0.611889,258.221,1.5274,5.77185,-0.27717,0.619147,-0.340025,0.486089,0.00343349,0.011948,0.70779,-0.24207436120073367,0.6259446988501762,0.003439391178736484,0.8573430523207841,0.012019662475354798,-0.28824747127303296
986,0.9762,70.016,951.976,-0.614347,258.212,1.52972,5.77999,-0.27738,0.619611,-0.340278,0.486436,0.00343689,0.0119605,0.708319,-0.24223350887379103,0.6265089995611883,0.0034428028784665443,0.8582050594672535,0.012032312800200007,-0.2884275218854381
987,0.9772,69.998,952.13,-0.616814,258.203,1.53206,5.78818,-0.27759,0.620074,-0.340531,0.486784,0.00344028,0.0119729,0.708847,-0.24239262312934584,0.6270751231928342,0.0034462045553340648,0.8590656076113092,0.01204486207868416,-0.28860752695080005
988,0.9782,69.9799,952.284,-0.619292,258.194,1.53441,5.79644,-0.277801,0.620537,-0.340783,0.487131,0.00344369,0.0119854,0.709375,-0.24255246142233267,0.6276398162291579,0.0034496263127257176,0.8599265542814074,0.012057512718526509,-0.28878677526777197
989,0.9792,69.9617,952.437,-0.621779,258.185,1.53678,5.80475,-0.278011,0.621,-0.341036,0.487477,0.00344709,0.0119979,0.709903,-0.24271150870488478,0.6282030770440747,0.0034530380472550526,0.8607878996621081,0.012070163516502808,-0.288966689453525
990,0.9802,69.9434,952.591,-0.624277,258.176,1.53917,5.81313,-0.278221,0.621463,-0.341288,0.487824,0.0034505,0.0120105,0.71043,-0.24287052259101438,0.6287681615483005,0.0034564598279489545,0.8616496439380572,0.012082915680901474,-0.28914584727294934
991,0.9812,69.9249,952.744,-0.626784,258.166,1.54158,5.82156,-0.278431,0.621925,-0.34154,0.48817,0.00345392,0.012023,0.710957,-0.24302950308773386,0.6293318128382461,0.003459891654910008,0.86250992478313,0.012095566796416879,-0.2893249599502914
992,0.9822,69.9063,952.898,-0.629302,258.156,1.544,5.83006,-0.278641,0.622388,-0.341793,0.488516,0.00345734,0.0120356,0.711484,-0.24318845020205426,0.6298956591852811,0.003463323493607895,0.8633724665413132,0.01210831928089906,-0.2895047379925427
993,0.9832,69.8877,953.051,-0.63183,258.146,1.54645,5.83862,-0.27885,0.62285,-0.342045,0.488861,0.00346076,0.0120481,0.712011,-0.24334660728797086,0.6304580701980214,0.0034667553440426158,0.86423354351432,0.012120970713961343,-0.2896837602408179
994,0.9842,69.8689,953.204,-0.634367,258.136,1.54891,5.84724,-0.27906,0.623311,-0.342297,0.489207,0.00346419,0.0120607,0.712537,-0.2435054878174009,0.631022306297526,0.0034701972409163506,0.8650931533027124,0.012133723518534811,-0.2898627373811704
995,0.9852,69.85,953.358,-0.636916,258.125,1.55139,5.85592,-0.27927,0.623773,-0.342548,0.489552,0.00346762,0.0120733,0.713063,-0.24366433498542284,0.6315851060705773,0.003473639149595753,0.8659550254166668,0.012146476483794633,-0.2900409594662804
996,0.9862,69.8309,953.511,-0.639474,258.114,1.55388,5.86466,-0.279479,0.624235,-0.3428,0.489897,0.00347106,0.0120859,0.713589,-0.2438223926218126,0.6321481000430478,0.003477091104851837,0.8668172958075322,0.012159229609742805,-0.29021984660376887
997,0.9872,69.8118,953.664,-0.642043,258.104,1.5564,5.87347,-0.279689,0.624696,-0.343051,0.490241,0.0034745,0.0120986,0.714115,-0.2439811732468129,0.6327096555714757,0.0034805430719826447,0.867678096980325,0.012172084113584836,-0.2903979790657121
998,0.9882,69.7925,953.817,-0.644622,258.092,1.55893,5.88233,-0.279898,0.625157,-0.343303,0.490586,0.00347794,0.0121112,0.71464,-0.24413916467092533,0.6332730375804565,0.0034839950509881756,0.8685392950739415,0.012184837562191131,-0.29057677624559675
999,0.9892,69.7732,953.969,-0.647211,258.081,1.56149,5.89126,-0.280108,0.625618,-0.343554,0.49093,0.00348139,0.0121239,0.715165,-0.2442978787807797,0.6338349801539651,0.003487457076743139,0.8694008902714048,0.01219769239125612,-0.29075481912944245
