,Time,S11,S22,S33,S12,S13,S23,LE11,LE22,LE33,LE12,LE13,LE23,SDV_EPBAR,E11,E12,E13,E22,E23,E33
0,1e-05,0.139606,1.94446,-1.11022e-16,0.521016,1.03943e-17,6.00106e-18,-2.12914e-06,9.12912e-06,-3e-06,6.49996e-06,2.31945e-22,4.74637e-23,0.0,-2.1291377333421124e-06,6.499981124896692e-06,0.0,9.129161670617947e-06,0.0,-2.9999955000192813e-06
1,2e-05,0.27921,3.8889,1.11022e-16,1.04203,8.19771e-18,-2.19668e-18,-4.25827e-06,1.82581e-05,-5.99996e-06,1.29999e-05,8.14908e-38,-5.51668e-39,0.0,-4.258260933531766e-06,1.2999984499106887e-05,0.0,1.8258266680115653e-05,0.0,-5.9999420002343484e-06
2,3.5e-05,0.488615,6.80552,-5.55112e-16,1.82353,-1.25908e-17,-1.41987e-17,-7.45192e-06,3.19515e-05,-1.04998e-05,2.27496e-05,7.08564e-22,-6.2831e-22,0.0,-7.451892234500157e-06,2.2749858774151477e-05,0.0,3.19520104545834e-05,0.0,-1.0499744877323636e-05
3,5.75e-05,0.802715,11.1804,-4.32987e-15,2.99577,2.02003e-17,-2.29845e-17,-1.22423e-05,5.24912e-05,-1.72495e-05,3.73739e-05,4.09671e-27,1.52891e-26,0.0,-1.2242225063352485e-05,3.737459841279822e-05,0.0,5.249257768724647e-05,0.0,-1.7249351228265652e-05
4,9.125e-05,1.27385,17.7425,-2.83107e-14,4.75408,-2.78096e-17,6.01679e-17,-1.94277e-05,8.32998e-05,-2.73738e-05,5.93098e-05,-3.05355e-21,1.69506e-21,0.0,-1.9427511283476306e-05,5.931155886096384e-05,0.0,8.330326952465938e-05,0.0,-2.737342534098186e-05
5,0.00014188,1.98053,27.5852,-1.53544e-13,7.39143,-7.81729e-17,3.37333e-18,-3.02053e-05,0.000129511,-4.25596e-05,9.22122e-05,-3.27281e-21,8.76987e-22,0.0,-3.0204843824543914e-05,9.221645167567516e-05,0.0,0.0001295193869115252,0.0,-4.255869435310089e-05
6,0.00021781,3.04047,42.3484,-8.02802e-13,11.3472,-1.25906e-17,-1.41977e-17,-4.63708e-05,0.000198823,-6.53367e-05,0.000141563,1.30916e-20,-3.50782e-21,0.0,-4.636972489102664e-05,0.00014157302051431842,0.0,0.0001988427666026471,0.0,-6.533456560431361e-05
7,0.00033172,4.63024,64.491,-4.04998e-12,17.2803,-1.25899e-17,-1.41952e-17,-7.06166e-05,0.000302781,-9.94992e-05,0.000215581,1.3092e-20,-3.50791e-21,0.0,-7.061410670661239e-05,0.00021560423925381933,0.0,0.00030282684279359096,0.0,-9.949425011879232e-05
8,0.00050258,7.01456,97.7002,-2.05221e-11,26.1787,-3.83405e-17,4.14358e-16,-0.00010698,0.000458697,-0.000150736,0.000326594,1.75327e-21,6.54328e-21,0.0,-0.00010697427784389646,0.00032664733762688414,0.0,0.00045880221755600914,0.0,-0.00015072463989995732
9,0.00075887,10.5903,147.503,-1.03755e-10,39.5234,-1.96334e-17,1.53348e-15,-0.000161514,0.00069252,-0.000227574,0.000493077,-2.44379e-20,1.35462e-20,0.0,-0.00016150095731615188,0.0004931985824463414,0.0,0.0006927598473382979,0.0,-0.0002275481070015406
10,0.0011433,15.9521,222.184,-5.2473e-10,59.5341,1.72248e-16,1.20028e-15,-0.000243289,0.00104314,-0.000342794,0.000742721,-5.7803e-24,-2.15724e-23,0.0,-0.00024325940763114673,0.0007429968855396929,0.0,0.0010436842597596474,0.0,-0.00034273525284966855
11,0.00172,23.9389,333.425,-0.000468227,89.342,-6.74379e-05,3.12608e-05,-0.000366601,0.00156877,-0.000516281,0.00111738,-8.43567e-10,3.91071e-10,3.73612e-06,-0.00036653381006424013,0.0011180045016123685,-8.435669940354273e-10,0.0015700011633763555,3.910709533982981e-10,-0.0005161477498970557
12,0.0025849,25.2144,347.494,0.362545,92.9661,0.0789943,0.0610274,-0.000702871,0.00234764,-0.000929217,0.00175319,-1.19951e-06,5.05438e-06,0.000798258,-0.0007026240440414222,0.0017547277361045222,-1.199509280569444e-06,0.0023503978645202928,5.054392773429228e-06,-0.0009287854115735961
13,0.0032337,25.7607,356.354,0.23476,95.4283,0.0564591,0.0441918,-0.000956207,0.00293087,-0.00124147,0.00223181,-2.06965e-06,6.25038e-06,0.00139995,-0.0009557499797668845,0.002234302341737493,-2.0696478583159816e-06,0.002935169198583054,6.25039953372486e-06,-0.0012406996949226867
14,0.0038824,26.1096,364.149,-0.131767,97.7133,-0.00785161,-0.0303582,-0.00121007,0.00351335,-0.00155528,0.00271173,-3.58849e-06,6.1314e-06,0.00200574,-0.0012093381605196019,0.002715410065492696,-3.588483561411948e-06,0.003519529048378711,6.131418797128418e-06,-0.00155407117882711
15,0.0048555,26.8254,375.029,-0.256601,100.715,-0.0158385,-0.0485621,-0.00159194,0.00438674,-0.0020251,0.00342999,-5.52298e-06,8.10809e-06,0.00291984,-0.0015906735356524537,0.0034358791470134875,-5.522964748427839e-06,0.0043963758287199894,8.108122870664758e-06,-0.002023050868460441
16,0.0058555,27.8707,385.54,0.167378,103.355,0.0613381,0.0396751,-0.00198471,0.00528402,-0.00250687,0.00416522,-5.56309e-06,1.15651e-05,0.00386338,-0.001982741765448215,0.0041739065851496004,-5.563074526038214e-06,0.005298005055267119,1.1565166875948663e-05,-0.002503730425451267
17,0.0068555,28.6556,394.789,0.323997,105.79,0.0950572,0.075378,-0.00237834,0.00618013,-0.00299,0.00490111,-5.62124e-06,1.41469e-05,0.00481119,-0.0023755139902701394,0.004913140085176737,-5.621224200891284e-06,0.006199266404920856,1.414700006785452e-05,-0.002985534401821588
18,0.0078555,29.2098,403.004,0.250289,108.053,0.0856134,0.0678632,-0.00277252,0.00707505,-0.00347421,0.00563762,-6.07272e-06,1.58091e-05,0.00576234,-0.002768680115962985,0.005653541284955654,-6.072701561055105e-06,0.007100137295976472,1.5809224964469237e-05,-0.003468181915402546
19,0.0088555,29.4884,410.241,-0.128826,110.203,0.0159158,0.00568061,-0.00316704,0.00796858,-0.00395966,0.0063755,-7.57514e-06,1.61427e-05,0.00671629,-0.003162030218940348,0.006395866759878688,-7.5751113086663935e-06,0.00800041363371462,1.61428302940525e-05,-0.003951830883297869
20,0.0098555,30.3713,417.823,0.342453,112.018,0.114226,0.103219,-0.00356073,0.00886219,-0.00444255,0.0071089,-6.23467e-06,1.89107e-05,0.00767053,-0.003554398118536417,0.00713422821260945,-6.2346505644850225e-06,0.008901575466987,1.8910878808453546e-05,-0.004432696471746489
21,0.010855,30.855,424.433,0.345857,113.807,0.116377,0.103389,-0.00395512,0.00975442,-0.00492686,0.00784374,-5.99805e-06,2.03198e-05,0.00862698,-0.0039473088143449075,0.007874582716605794,-5.998032011733656e-06,0.009802149419471107,2.0320006448582006e-05,-0.004914742933135097
22,0.011855,30.895,430.049,-0.193411,115.615,0.00604405,0.0127247,-0.0043499,0.0106449,-0.00541283,0.00858122,-7.78426e-06,1.99155e-05,0.00958544,-0.004340452887956481,0.008618144211032686,-7.784229702711976e-06,0.010701758519996218,1.9915698314942887e-05,-0.00539820703147309
23,0.012855,31.1921,435.713,-0.354954,117.235,-0.026662,-0.0115847,-0.00474402,0.0115348,-0.00589757,0.00931681,-8.74192e-06,2.01011e-05,0.0105441,-0.004732784910637555,0.009360346576585243,-8.741881789564587e-06,0.011601582332125826,2.0101302028452395e-05,-0.005880213471257667
24,0.013855,31.6594,441.326,-0.274549,118.714,-0.00816461,0.00880434,-0.00513767,0.0124241,-0.00638144,0.0100507,-8.89845e-06,2.08984e-05,0.0115029,-0.005124494746510666,0.010101377925822996,-8.898410408963997e-06,0.01250159975272469,2.0898618373177413e-05,-0.006361121854412732
25,0.014855,32.4255,447.096,0.203721,120.02,0.098989,0.103963,-0.00553079,0.0133131,-0.0068639,0.0107817,-7.26903e-06,2.31406e-05,0.0124614,-0.005515523339519768,0.010840031978250675,-7.269003580612221e-06,0.013402113894132706,2.314086774579671e-05,-0.006840397242664276
26,0.015855,32.3518,451.481,-0.352041,121.509,-0.0227408,0.00537584,-0.00592502,0.0141999,-0.00734927,0.0115174,-9.18875e-06,2.23255e-05,0.013422,-0.005907501684865424,0.011583980617728695,-9.1887077835473e-06,0.01430119748347658,2.2325749215790225e-05,-0.0073223301517052475
27,0.016855,33.1999,456.945,0.281388,122.645,0.119043,0.125167,-0.00631759,0.0150873,-0.0078308,0.0122464,-6.9615e-06,2.48975e-05,0.0143807,-0.0062976759865553955,0.01232169420353002,-6.961475768840764e-06,0.01520168785460796,2.489780994530122e-05,-0.00780021916188578
28,0.017855,33.5636,461.548,0.316821,123.874,0.128071,0.135703,-0.00671084,0.0159731,-0.00831386,0.0129775,-6.32172e-06,2.61266e-05,0.0153406,-0.006688372599717107,0.013062073206728808,-6.3217000180193494e-06,0.016101351912094497,2.6126941302662132e-05,-0.008279395443252291
29,0.018855,33.5185,465.408,-0.151353,125.18,0.024456,0.0589883,-0.00710434,0.0168573,-0.00879817,0.0137109,-7.66858e-06,2.57877e-05,0.0163013,-0.007079163831881563,0.013805325448500883,-7.668550596529045e-06,0.017000186043464982,2.5788032505635883e-05,-0.008759579360922753
30,0.019855,33.7134,469.46,-0.292982,126.352,-0.00583699,0.0340874,-0.00749706,0.017741,-0.00928124,0.0144425,-8.25597e-06,2.59243e-05,0.0172614,-0.007469027144090923,0.014547296804626741,-8.255935919576629e-06,0.01789930632565606,2.5924636037677473e-05,-0.00923830223328248
31,0.020855,34.5206,474.218,0.349953,127.292,0.140973,0.160892,-0.00788864,0.0186248,-0.00976161,0.015169,-5.79137e-06,2.8648e-05,0.0182198,-0.007857606337556278,0.015284633220777888,-5.791353230089058e-06,0.01879932339154422,2.8648410357767773e-05,-0.009714120136565807
32,0.021855,34.7862,478.099,0.326601,128.353,0.135838,0.15423,-0.00828097,0.019507,-0.0102436,0.0158979,-5.24439e-06,2.9642e-05,0.0191792,-0.008246777216164625,0.016024943963405702,-5.244376248159099e-06,0.019698504725208954,2.964243932845889e-05,-0.010191313017464565
33,0.022855,34.7189,481.381,-0.112427,129.492,0.0358915,0.0820679,-0.00867338,0.0203877,-0.0107266,0.0166289,-6.42881e-06,2.93926e-05,0.0201392,-0.008635874750442585,0.016767929725653774,-6.4287893352110714e-06,0.020596948770083667,2.939303196680676e-05,-0.010669275176123927
34,0.023855,35.3961,485.599,0.399154,130.348,0.158391,0.183638,-0.00906432,0.0212688,-0.0112064,0.0173541,-4.15559e-06,3.18539e-05,0.021097,-0.009023362894325038,0.01750555725970715,-4.1555813655724805e-06,0.021496593021717914,3.185440734077005e-05,-0.01114384220016118
35,0.024855,35.5624,489.009,0.288538,131.33,0.130681,0.157378,-0.0094559,0.0221483,-0.0116877,0.0180816,-3.90472e-06,3.25548e-05,0.0220556,-0.009411333560148782,0.018246061878508968,-3.90471237654566e-06,0.022395394465278384,3.255532991319754e-05,-0.011619664153171949
36,0.025855,35.56,492.069,-0.0339449,132.347,0.0554149,0.10669,-0.0098473,0.0230265,-0.0121693,0.0188101,-4.65199e-06,3.26567e-05,0.0230142,-0.009798974097991353,0.018988124398041872,-4.651979179537413e-06,0.023293656469813184,3.2657233235866556e-05,-0.012095553519558266
37,0.026855,36.0594,495.747,0.282015,133.164,0.134042,0.170577,-0.0102376,0.0239047,-0.0126486,0.0195345,-3.05112e-06,3.45192e-05,0.0239713,-0.010185374147526072,0.019726546819665902,-3.0511153453760542e-06,0.024192707674527192,3.451979579449649e-05,-0.012568942663985339
38,0.027855,35.8538,498.357,-0.270285,134.181,0.00269565,0.0679845,-0.0106286,0.0247808,-0.0131301,0.020263,-4.77016e-06,3.37363e-05,0.0249294,-0.010572316014169858,0.020469688265429387,-4.770148622768033e-06,0.025090396080708732,3.373686907526263e-05,-0.013044276272342836
39,0.028855,36.0268,501.417,-0.342953,135.048,-0.013333,0.0541087,-0.0110186,0.0256566,-0.0136099,0.0209888,-5.12889e-06,3.39761e-05,0.0258861,-0.010958117574729975,0.021210614014601115,-5.128876847226849e-06,0.025988563499699247,3.397667719418074e-05,-0.013517704044182621
40,0.029855,36.7862,505.223,0.333186,135.704,0.145839,0.186854,-0.0114074,0.0265326,-0.014087,0.0217096,-2.4575e-06,3.67398e-05,0.026841,-0.011342582313828453,0.02194696797526907,-2.4574969803570212e-06,0.02688772325579869,3.674047491464272e-05,-0.013988242491711045
41,0.030855,36.9725,508.158,0.294511,136.516,0.136963,0.176426,-0.011797,0.0274069,-0.0145659,0.0224331,-1.92901e-06,3.76478e-05,0.0277967,-0.01172768822025716,0.022686614141335548,-1.9290081394451875e-06,0.0277859237833864,3.764850868726022e-05,-0.014460330471892324
42,0.031855,36.8967,510.644,-0.0730851,137.405,0.0499775,0.116407,-0.0121865,0.0282798,-0.0150453,0.0231581,-2.82782e-06,3.76103e-05,0.0287523,-0.012112545329907798,0.023428330776379624,-2.8278160016936837e-06,0.028683469793222116,3.7611007276172614e-05,-0.01493268495704747
43,0.032855,37.4238,513.922,0.323845,138.065,0.148897,0.195492,-0.0125748,0.029153,-0.0155221,0.0238782,-8.93083e-07,3.97113e-05,0.029706,-0.012496067562895785,0.02416556692739036,-8.930826012054638e-07,0.029582108487600234,3.971208850406249e-05,-0.015402253098918961
44,0.033855,37.1061,515.953,-0.327733,138.985,-0.00842456,0.0726626,-0.012964,0.0300238,-0.0160017,0.0246036,-2.96547e-06,3.86441e-05,0.0306611,-0.012880329311213523,0.024908766155409934,-2.9654656029665105e-06,0.03047905906327264,3.864484669291457e-05,-0.015874352959736937
45,0.034855,37.2664,518.6,-0.375966,139.727,-0.019053,0.0631375,-0.013352,0.0308944,-0.0164791,0.0253255,-3.25735e-06,3.89362e-05,0.0316144,-0.01326325745057777,0.025648914918249943,-3.2573446948624962e-06,0.03137658476834293,3.8936958023594315e-05,-0.01634406241506592
46,0.035855,38.0195,522.028,0.331696,140.258,0.150145,0.201789,-0.0137388,0.0317653,-0.0169538,0.0260423,-4.42422e-07,4.17808e-05,0.0325657,-0.013644853417178249,0.026384363613786377,-4.424219021137432e-07,0.03227520188204225,4.178167282975487e-05,-0.01681089307761352
47,0.036855,38.1717,524.559,0.286269,140.965,0.139434,0.189703,-0.0141264,0.0326345,-0.0174303,0.026762,7.25783e-08,4.26715e-05,0.0335177,-0.014027090589644353,0.02712331832123427,7.257830270113175e-08,0.03317284554694,4.2672410441424447e-05,-0.017279271087139003
48,0.037855,38.0839,526.69,-0.0612385,141.748,0.0556495,0.132812,-0.0145139,0.0335023,-0.0179073,0.0274831,-7.46579e-07,4.27058e-05,0.0344697,-0.014409081076604102,0.027864244054743192,-7.465787212890262e-07,0.03406982208413423,4.270671190576003e-05,-0.017747917093872023
49,0.038855,38.5557,529.57,0.298906,142.32,0.147076,0.204644,-0.0149002,0.0343702,-0.0183819,0.0281996,1.0785e-06,4.47021e-05,0.0354197,-0.014789741319324534,0.028600972687122805,1.0785005815083792e-06,0.034967680852173944,4.470309915372006e-05,-0.018213983326154093
50,0.039855,38.2671,531.334,-0.284466,143.133,0.00375095,0.0941355,-0.0152873,0.035236,-0.0188588,0.0289207,-7.40201e-07,4.38586e-05,0.0363708,-0.015171042404873436,0.029342964341466438,-7.402007260459698e-07,0.03586414389310644,4.3859561802417346e-05,-0.01868208544968264
51,0.040855,38.4124,533.669,-0.321608,143.783,-0.00449352,0.0858327,-0.0156733,0.0361016,-0.0193338,0.0296387,-9.11444e-07,4.42455e-05,0.0373201,-0.01555111302415646,0.030082297978877515,-9.1144358460582e-07,0.036761176075579494,4.424647884659905e-05,-0.019148100771692933
52,0.041855,39.0637,536.676,0.286447,144.254,0.142762,0.206088,-0.0160582,0.0369672,-0.0198063,0.0303522,1.58429e-06,4.6829e-05,0.0382676,-0.01592995448803669,0.03081752395916304,1.5842912550745325e-06,0.03765898506526333,4.6830096494643314e-05,-0.01961144382066271
53,0.042855,38.6945,538.195,-0.396046,145.053,-0.0212268,0.0767385,-0.0164444,0.0378304,-0.0202824,0.0310719,-6.09089e-07,4.56479e-05,0.0392168,-0.01630992896181982,0.031559670360505,-6.090888144960616e-07,0.0385550789996727,4.5648941881193394e-05,-0.020078095716961064
54,0.043855,38.8723,540.456,-0.377854,145.655,-0.0165856,0.0811363,-0.0168292,0.0386934,-0.0207559,0.0317878,-6.72425e-07,4.61561e-05,0.040164,-0.01668838008248985,0.032298428335381324,-6.724247739731126e-07,0.03945173888593989,4.6157165209281814e-05,-0.020541978905627145
55,0.044855,39.5579,543.4,0.286646,146.075,0.145144,0.211928,-0.017213,0.0395567,-0.0212271,0.0324991,2.01061e-06,4.88776e-05,0.0411093,-0.017065702669378013,0.03303296341388706,2.010612021319247e-06,0.04034948502848601,4.887879452941668e-05,-0.02100339080798541
56,0.045855,39.16,544.767,-0.420083,146.849,-0.0263231,0.0776108,-0.0175982,0.0404172,-0.021702,0.0332171,-2.94436e-07,4.76258e-05,0.0420564,-0.017444256046648565,0.03377494742200127,-2.944359566159349e-07,0.041245091039576076,4.762693412652119e-05,-0.021468205918606875
57,0.046855,39.3435,546.93,-0.383924,147.414,-0.0171527,0.0856068,-0.017982,0.0412778,-0.0221743,0.0339309,-2.98217e-07,4.81882e-05,0.0430014,-0.01782128858400578,0.034513119401708536,-2.9821695557430417e-07,0.04214157226546589,4.8189361069983505e-05,-0.021930257362913874
58,0.047855,40.0184,549.758,0.277488,147.803,0.144801,0.215815,-0.0183648,0.0421386,-0.0226442,0.0346403,2.38069e-06,5.09011e-05,0.0439446,-0.01819719464172609,0.03524726337869266,2.3806928337588573e-06,0.0430390339429616,5.0902395482887997e-05,-0.022389744370051923
59,0.048855,39.6286,551.038,-0.408875,148.543,-0.0227524,0.0851199,-0.0187489,0.0429967,-0.0231178,0.0353563,1.47224e-07,4.97191e-05,0.0448895,-0.01857423268447267,0.035988765845476944,1.472240107602829e-07,0.04393444986124373,4.972033601502446e-05,-0.02285263096692014
60,0.049855,39.8097,553.104,-0.366086,149.078,-0.0119145,0.094167,-0.0191316,0.0438548,-0.0235888,0.0360681,1.94003e-07,5.03245e-05,0.0458323,-0.018949752465331038,0.036726445157927,1.9400301876082438e-07,0.04483063446568325,5.032576629893093e-05,-0.02331275900907448
61,0.050855,40.4498,555.792,0.260964,149.448,0.142401,0.217999,-0.0195134,0.044713,-0.0240577,0.0367757,2.76088e-06,5.29497e-05,0.0467733,-0.019324245954483454,0.037460292395053774,2.760883811125936e-06,0.04572769298893653,5.2951101860099214e-05,-0.023770620302405843
62,0.051855,40.09,557.025,-0.378536,150.15,-0.0144109,0.0960723,-0.0198964,0.0455687,-0.0245299,0.0374896,7.05461e-07,5.19186e-05,0.0477159,-0.019699772850291897,0.038201199733201685,7.054612487511491e-07,0.046622905137720494,5.191994779374376e-05,-0.02423148699630928
63,0.052855,40.264,558.996,-0.335898,150.658,-0.00365429,0.104703,-0.0202781,0.0464244,-0.0249996,0.0381994,7.93796e-07,5.2558e-05,0.0486564,-0.020073882043713187,0.038938376537870134,7.937963151238847e-07,0.04751888364738077,5.2559381195971255e-05,-0.024689697847624537
64,0.053855,40.8581,561.537,0.241424,151.016,0.139046,0.21929,-0.020659,0.0472801,-0.0254674,0.0389054,3.19478e-06,5.50567e-05,0.0495953,-0.02044706482487013,0.039672126014794085,3.1947851033553576e-06,0.04841562917397346,5.505821564799618e-05,-0.025145841306697836
65,0.054855,40.5381,562.747,-0.339797,151.679,-0.00395093,0.108387,-0.0210409,0.0481334,-0.0259382,0.0396169,1.36405e-06,5.42109e-05,0.0505355,-0.020821084667178802,0.0404121159526567,1.3640509302081938e-06,0.049310624025595606,5.4212369437367514e-05,-0.025604694622064716
66,0.055855,40.7023,564.628,-0.301432,152.165,0.00566082,0.115744,-0.0214216,0.0489866,-0.0264067,0.0403249,1.48406e-06,5.48758e-05,0.0514738,-0.02119378713183051,0.04114898855287108,1.4840611011202043e-06,0.05020627788161658,5.4877305704303936e-05,-0.026061091903223255
67,0.056855,41.2477,567.026,0.222037,152.516,0.135547,0.220301,-0.0218015,0.0498398,-0.0268734,0.0410292,3.70389e-06,5.7238e-05,0.0524105,-0.02156556498842388,0.04188252807112813,3.7038968594416133e-06,0.051102696235596046,5.7239638125539116e-05,-0.026515523141854236
68,0.057855,40.9688,568.221,-0.300026,153.141,0.00678903,0.120635,-0.0221823,0.0506907,-0.0273427,0.0417385,2.10278e-06,5.65795e-05,0.0533483,-0.021938081889556815,0.04262179749919737,2.1027822107999583e-06,0.051997460143140994,5.658110065009936e-05,-0.02697227222228904
69,0.058855,41.7219,570.872,0.491961,153.403,0.204523,0.277693,-0.0225612,0.0515426,-0.0278077,0.0424399,5.48074e-06,5.98525e-05,0.054283,-0.02230859935136298,0.04335334895306686,5.4807550193824994e-06,0.05289403862281716,5.985429119670371e-05,-0.02742462493554898
70,0.059855,41.7037,572.403,0.309605,153.918,0.15822,0.235674,-0.0229411,0.0523926,-0.0282752,0.0431455,5.59972e-06,6.04363e-05,0.0552187,-0.022679953771231,0.04408979886506237,5.5997356784853736e-06,0.05378937902140901,6.0438126310069507e-05,-0.027879197658738475
71,0.060855,41.5841,573.755,-0.00215082,154.476,0.0790851,0.18419,-0.0233207,0.0532414,-0.0287427,0.0438517,4.94789e-06,6.06615e-05,0.0561538,-0.023050874055655424,0.04482739549573678,4.947902240814983e-06,0.054684215161055594,6.0663339946032124e-05,-0.028333557918846952
72,0.061855,41.8941,575.706,0.225733,154.866,0.141109,0.229914,-0.0236992,0.0540902,-0.0292082,0.0445542,6.3375e-06,6.23074e-05,0.0570872,-0.023420579328688684,0.045561644615879526,6.337520082055903e-06,0.05557981116005606,6.230934114626052e-05,-0.028785763388646912
73,0.062855,41.706,576.929,-0.160383,155.427,0.0410874,0.1558,-0.0240782,0.0549373,-0.029675,0.0452596,5.25226e-06,6.21122e-05,0.0580209,-0.02379063279956084,0.046299443991237865,5.2522737932214625e-06,0.05647437165569458,6.211412900269941e-05,-0.02923902039588111
74,0.063855,42.2308,579.148,0.345625,155.731,0.170738,0.254935,-0.0244557,0.0557849,-0.0301389,0.0459593,7.61527e-06,6.45304e-05,0.0589522,-0.024159082286462796,0.047031795895633666,7.615298996288544e-06,0.05737021893955552,6.453248213111884e-05,-0.029689251975030362
75,0.064855,41.7946,579.976,-0.353711,156.365,-0.00696352,0.119552,-0.0248344,0.0566299,-0.0306058,0.0466652,5.34483e-06,6.33976e-05,0.059885,-0.02452856327635977,0.04777115656700359,5.34484428360571e-06,0.05826407437529468,6.339960967038927e-05,-0.030142184317999643
76,0.065855,41.9418,581.621,-0.317005,156.787,0.00285323,0.125434,-0.0252116,0.0574751,-0.0310702,0.0473667,5.46042e-06,6.40579e-05,0.0608157,-0.024896441716056428,0.048506425898901195,5.46043490801118e-06,0.059158897269842914,6.405995175118306e-05,-0.030592481720452702
77,0.066855,42.4833,583.811,0.222979,157.068,0.13878,0.233184,-0.025588,0.0583202,-0.0315327,0.0480646,7.75371e-06,6.64728e-05,0.0617446,-0.025263401629206372,0.04923843393803007,7.753740060012504e-06,0.060054370782963495,6.647500936551864e-05,-0.03104072903247579
78,0.067855,42.1878,584.782,-0.300247,157.636,0.00795105,0.132533,-0.0259654,0.0591631,-0.0319979,0.0487676,6.13633e-06,6.58245e-05,0.0626747,-0.025631197813925977,0.04997630788939378,6.1363488272903055e-06,0.06094826729185554,6.582666647991786e-05,-0.03149138405484453
79,0.068855,42.9129,587.203,0.47695,157.841,0.204594,0.28721,-0.0263408,0.060007,-0.0324588,0.0494628,9.47384e-06,6.90585e-05,0.0636016,-0.025996907214317355,0.050706505205816876,9.473884877042593e-06,0.061843979427200546,6.906088459301962e-05,-0.031937666822169586
80,0.069855,42.8713,588.512,0.283878,158.303,0.155047,0.243085,-0.0267173,0.0608489,-0.0329222,0.0501621,9.51821e-06,6.96023e-05,0.0645296,-0.026363550353849075,0.05144152123330814,9.518255298379685e-06,0.06273832229428455,6.960472229633474e-05,-0.032386162982777966
81,0.070855,42.7709,589.707,0.0155152,158.794,0.0858392,0.199232,-0.0270934,0.0616898,-0.0333854,0.0508617,9.01232e-06,6.99517e-05,0.0654569,-0.026729666170166144,0.05217736709043108,9.01236061112698e-06,0.06363235479278417,6.995414667732014e-05,-0.03283425792528394
82,0.071855,43.0228,591.398,0.188679,159.145,0.134419,0.234197,-0.0274686,0.0625305,-0.0338469,0.0515582,1.0188e-05,7.14391e-05,0.0663826,-0.027094768701901084,0.05291046389793652,1.0188051897896955e-05,0.0645269264939845,7.144165183325946e-05,-0.03328050193652565
83,0.072855,42.8886,592.523,-0.111811,159.631,0.0550845,0.176406,-0.027844,0.0633698,-0.0343094,0.0522568,9.42009e-06,7.15066e-05,0.0673084,-0.027459928780895204,0.0536462841401002,9.420134369220179e-06,0.06542075898772715,7.150915665787849e-05,-0.03372750632664667
84,0.073855,43.3006,594.414,0.269407,159.917,0.154368,0.251327,-0.0282182,0.0642092,-0.0347695,0.052951,1.13121e-05,7.35617e-05,0.0682321,-0.027823785193764716,0.05437797933256716,1.1312163981980206e-05,0.06631544862152805,7.356440572814371e-05,-0.03417198604058658
85,0.074855,42.9954,595.262,-0.247684,160.453,0.0210099,0.15104,-0.0285932,0.0650465,-0.0352318,0.0536495,9.72133e-06,7.29796e-05,0.0691568,-0.02818828292672071,0.055114719627724185,9.721377252303043e-06,0.06720864843257668,7.29822630758381e-05,-0.03461838513833815
86,0.075855,43.6434,597.464,0.438236,160.646,0.197683,0.28671,-0.0289664,0.0658848,-0.0356901,0.0543407,1.27623e-05,7.59418e-05,0.0700784,-0.02855089539183775,0.055844267024465655,1.276238143854691e-05,0.06810366453614325,7.594468365157425e-05,-0.03506071816407419
87,0.076855,43.0272,597.835,-0.472874,161.284,-0.0358072,0.108315,-0.0293412,0.0667201,-0.0361528,0.0550403,9.67654e-06,7.41893e-05,0.0710022,-0.028914926292592735,0.056583194120235714,9.676586817830568e-06,0.06899622425279928,7.419205209413526e-05,-0.03550709229316107
88,0.077855,43.2056,599.338,-0.376264,161.632,-0.0108845,0.126608,-0.0297142,0.0675558,-0.036612,0.0557341,9.92631e-06,7.49809e-05,0.0719233,-0.02927707348043629,0.05731650589675619,9.926359265888252e-06,0.06988995779195184,7.498371113801028e-05,-0.03594988576321856
89,0.078855,43.7732,601.386,0.21665,161.84,0.140508,0.244402,-0.0300865,0.0683915,-0.0370694,0.0564241,1.24013e-05,7.75249e-05,0.0728428,-0.029638406359690395,0.05804630603791883,1.240137689650922e-05,0.07078443853639915,7.75279051328237e-05,-0.03639074145408783
90,0.079855,43.4579,602.147,-0.312887,162.359,0.00571355,0.141914,-0.0304597,0.0692249,-0.0375297,0.0571197,1.07274e-05,7.68624e-05,0.0737635,-0.030000477739715037,0.058782539080564966,1.0727457538717289e-05,0.07167720225044216,7.686535398998551e-05,-0.03683418872857669
91,0.080855,44.1732,604.382,0.469948,162.505,0.206811,0.298303,-0.0308311,0.0700594,-0.0379857,0.0578073,1.41006e-05,8.01138e-05,0.074681,-0.03036066867068632,0.059510808304702456,1.4100699413877038e-05,0.07257189013231802,8.011700919619003e-05,-0.037273292215312726
92,0.081855,43.4879,604.584,-0.526542,163.147,-0.048379,0.10222,-0.0312043,0.0708907,-0.0384466,0.0585042,1.06939e-05,7.81021e-05,0.075601,-0.030722470552707937,0.06024943873288868,1.0693957180007985e-05,0.07346388985290009,7.810515004846863e-05,-0.03771691071519423
93,0.082855,43.6845,606.049,-0.39896,163.468,-0.0158949,0.127103,-0.0315756,0.0717225,-0.0389037,0.0591948,1.10192e-05,7.89682e-05,0.0765182,-0.03108229649357197,0.060981899885002466,1.1019260711675471e-05,0.07435716857959784,7.897131807044211e-05,-0.03815666980071031
94,0.083855,44.2596,608.048,0.210568,163.651,0.140506,0.248087,-0.0319461,0.0725544,-0.039359,0.0598816,1.35493e-05,8.15511e-05,0.0774337,-0.03144121400914557,0.06171083254066456,1.3549391792100351e-05,0.07525129816977638,8.155442538138047e-05,-0.03859449738993603
95,0.084855,43.943,608.745,-0.313992,164.151,0.00603557,0.146392,-0.0323177,0.073384,-0.0398172,0.0605741,1.18815e-05,8.09054e-05,0.0783505,-0.03180106358982682,0.0624463219260063,1.1881570585403622e-05,0.07614369676249266,8.090867293009119e-05,-0.039034912484428474
96,0.085855,44.6479,610.906,0.461891,164.28,0.206501,0.301643,-0.0326873,0.0742146,-0.0402712,0.0612586,1.52342e-05,8.41374e-05,0.0792641,-0.03215884379486922,0.06317381538959754,1.5234316041112805e-05,0.07703791303363117,8.414093965036784e-05,-0.03947109161400619
97,0.086855,43.9746,611.066,-0.513499,164.899,-0.0446701,0.109366,-0.0330588,0.075042,-0.04073,0.0619523,1.18969e-05,8.21935e-05,0.0801802,-0.03251833000570137,0.06391159493458232,1.1896970768310311e-05,0.07792942296967587,8.219687797828001e-05,-0.03991168119819444
98,0.087855,44.1706,612.473,-0.380699,165.201,-0.010654,0.135163,-0.0334284,0.07587,-0.0411851,0.0626398,1.22653e-05,8.30952e-05,0.0810934,-0.0328758451580613,0.064643285645962,1.2265375219033814e-05,0.07882231813948204,8.30986525017785e-05,-0.0403485179823313
99,0.088855,44.715,614.372,0.195824,165.376,0.137977,0.249951,-0.0337973,0.076698,-0.0416384,0.0633237,1.46808e-05,8.55924e-05,0.082005,-0.03323255146025972,0.06537164422284181,1.4680907763464646e-05,0.07971595293265077,8.559606313407464e-05,-0.04078342941900559
100,0.089855,44.4256,615.052,-0.288815,165.848,0.0132273,0.155879,-0.0341671,0.0775238,-0.0420945,0.0640129,1.31646e-05,8.50705e-05,0.0829179,-0.03358999596716694,0.06610615144215393,1.3164686653688307e-05,0.0806079506217372,8.50741185975945e-05,-0.04122082834044094
101,0.090855,45.0771,617.084,0.425215,165.978,0.198549,0.299071,-0.0345352,0.0783505,-0.0425466,0.0646947,1.62847e-05,8.81224e-05,0.0838277,-0.033945666024561394,0.06683327046291443,1.628483259641378e-05,0.08150165857780078,8.812628289267543e-05,-0.041654194434161296
102,0.091855,44.4687,617.283,-0.462485,166.558,-0.0311032,0.123773,-0.0349049,0.0791742,-0.0430031,0.0653849,1.32754e-05,8.64417e-05,0.0847397,-0.034302750300736484,0.06756985295156404,1.327548811858037e-05,0.08239285848426414,8.644543619129585e-05,-0.04209157945367581
103,0.092855,44.6526,618.622,-0.339581,166.847,0.000498583,0.147304,-0.0352729,0.0799984,-0.0434562,0.0660692,1.36609e-05,8.73558e-05,0.085649,-0.034658061507353954,0.06830064101255684,1.3660993310571357e-05,0.08328533441703678,8.73596156290013e-05,-0.04252550944476208
104,0.093855,45.1456,620.396,0.177034,167.023,0.134206,0.250799,-0.0356402,0.0808225,-0.0439077,0.0667505,1.58679e-05,8.96997e-05,0.0865568,-0.03501256649253626,0.0690287222319832,1.5868025895704463e-05,0.08417843781383927,8.970372313843455e-05,-0.042957711600268955
105,0.094855,44.8974,621.085,-0.250481,167.464,0.0239063,0.167758,-0.0360083,0.0816446,-0.0443616,0.0674363,1.45757e-05,8.93541e-05,0.0874656,-0.03536771299808594,0.06976211358083928,1.4575806225991528e-05,0.08507010737812104,8.935809219656754e-05,-0.04339201452246899
106,0.095855,45.4751,622.963,0.375351,167.603,0.186922,0.293594,-0.0363748,0.0824674,-0.044812,0.0681155,1.73601e-05,9.21486e-05,0.0883717,-0.03572118595339646,0.07048894281164886,1.7360250687437073e-05,0.08596327045937424,9.215284581265415e-05,-0.0438227737448692
107,0.096855,44.9556,623.241,-0.394783,168.136,-0.0131084,0.141255,-0.0367427,0.0832875,-0.0452661,0.068802,1.47962e-05,9.08182e-05,0.0892796,-0.036075878879319845,0.0712240857798414,1.479630946432664e-05,0.08685423422723515,9.082232409762803e-05,-0.04425687525310462
108,0.097855,45.1213,624.507,-0.290114,168.416,0.0138594,0.160793,-0.037109,0.0841079,-0.0457173,0.0694833,1.51786e-05,9.17277e-05,0.090185,-0.03642889962518947,0.07195415942082906,1.5178715195629522e-05,0.08774625529800661,9.173190711408985e-05,-0.044688009279839735
109,0.098855,45.5568,626.152,0.158387,168.597,0.130313,0.251417,-0.0374747,0.0849282,-0.046167,0.0701619,1.71481e-05,9.38983e-05,0.0910891,-0.03678121315214178,0.07268183438560327,1.7148247029474817e-05,0.08863889961924154,9.390270858333771e-05,-0.04511751650012985
110,0.099855,45.3521,626.858,-0.209559,169.008,0.0353061,0.179924,-0.0378411,0.0857466,-0.0466187,0.0708443,1.60922e-05,9.37361e-05,0.0919939,-0.03713407186797846,0.0734140822839553,1.609232948007744e-05,0.08953020636766307,9.37404933654129e-05,-0.04554873951887606
111,0.1009,45.8534,628.582,0.324389,169.159,0.17478,0.287599,-0.0382061,0.0865655,-0.0470674,0.0715211,1.8525e-05,9.62623e-05,0.0928962,-0.03748545380064283,0.07414081483339952,1.8525171588956724e-05,0.09042278807135595,9.62669333639532e-05,-0.04597690573318014
112,0.1019,45.4245,628.947,-0.326525,169.646,0.00513885,0.15863,-0.0385722,0.087382,-0.0475191,0.0722038,1.6415e-05,9.5286e-05,0.0938,-0.03783776588134513,0.07487438114205403,1.6415134726832648e-05,0.09131348185406951,9.529053985501967e-05,-0.04640774065346831
113,0.1029,46.1565,630.989,0.503131,169.706,0.222069,0.324734,-0.0389362,0.0881999,-0.0479661,0.0728777,2.00006e-05,9.8691e-05,0.0947002,-0.0381879292009738,0.07559898311471769,2.0000800013297848e-05,0.09220643227317282,9.869587011701597e-05,-0.046833901139431644
114,0.1039,45.4197,630.891,-0.538108,170.3,-0.0500269,0.117722,-0.0393021,0.0890143,-0.0484183,0.0735614,1.639e-05,9.65627e-05,0.0956031,-0.038539791860479955,0.07633462158882964,1.63901343168682e-05,0.09309628749147825,9.656736232765972e-05,-0.047264825410015754
115,0.1049,45.6305,632.162,-0.36979,170.544,-0.00630119,0.150699,-0.039666,0.0898296,-0.0488664,0.0742384,1.69019e-05,9.75877e-05,0.096503,-0.03888960357811966,0.07706354684100258,1.6902042837996234e-05,0.09398785229167461,9.759246183449477e-05,-0.047691650404467545
116,0.1059,46.1292,633.843,0.165394,170.681,0.133702,0.257783,-0.0400293,0.0906447,-0.0493131,0.0749122,1.9171e-05,9.99727e-05,0.0974015,-0.03923871156583392,0.07778951681068058,1.9171183764710165e-05,0.09487992530504386,9.997769743685936e-05,-0.04811695154614981
117,0.1069,45.8838,634.433,-0.247781,171.089,0.0257523,0.177223,-0.0403935,0.0914578,-0.0497622,0.0755908,1.79137e-05,9.96699e-05,0.0983009,-0.039588557116339906,0.07852115299286844,1.7913860451246322e-05,0.09577053420028836,9.967486720952046e-05,-0.0485443462445474
118,0.1079,46.4365,636.176,0.356799,171.201,0.184989,0.299211,-0.0407561,0.0922717,-0.0502078,0.0762629,2.06226e-05,0.000102402,0.0991977,-0.039936739176307134,0.07924627070830748,2.0622812647363986e-05,0.09666274487395499,0.00010240724326382455,-0.0489682204376769
119,0.1089,45.9447,636.393,-0.36807,171.694,-0.0053025,0.155284,-0.04112,0.0930829,-0.0506571,0.0769419,1.82133e-05,0.000101209,0.100096,-0.04028604263730151,0.07997932777082695,1.8213465863059497e-05,0.09755271861714343,0.00010121412180352785,-0.0493954230379835
120,0.1099,46.7392,638.474,0.546667,171.712,0.235441,0.338621,-0.0414815,0.0938957,-0.051101,0.0776111,2.21349e-05,0.000104865,0.100991,-0.04063291653165424,0.08070229181375965,2.2135144978729926e-05,0.09844517211080239,0.00010487049852625496,-0.04981730276656371
121,0.1109,46.602,639.198,0.277104,172.065,0.163758,0.278808,-0.0418444,0.0947062,-0.0515481,0.0782858,2.18698e-05,0.000105218,0.101887,-0.04098100768128554,0.08143168768407372,2.1870039145888143e-05,0.09933582281023767,0.00010522353560782349,-0.050242034494643595
122,0.1119,46.4956,639.948,0.0460575,172.417,0.101558,0.240631,-0.0422068,0.0955159,-0.0519946,0.0789602,2.14794e-05,0.000105689,0.102782,-0.04132849319592358,0.0821612511954124,2.147963068388492e-05,0.10022631549327832,0.00010569458527909248,-0.050666006767388194
123,0.1129,46.6467,641.07,0.136513,172.662,0.12947,0.259041,-0.0425684,0.0963254,-0.0524399,0.0796322,2.2323e-05,0.000106944,0.103676,-0.04167508614500215,0.08288870795431103,2.2323249160072223e-05,0.101117309276749,0.00010694971871338943,-0.05108865108583327
124,0.1139,46.5727,641.862,-0.0458432,172.99,0.0786402,0.223457,-0.04293,0.0971337,-0.0528855,0.0803052,2.19839e-05,0.000107375,0.10457,-0.04202155378872696,0.08361773734563793,2.198414164777951e-05,0.10200770220165989,0.0001073807649016878,-0.051511391789285765
125,0.1149,46.8109,643.097,0.158857,173.2,0.134563,0.264002,-0.0432908,0.0979418,-0.0533296,0.0809754,2.31951e-05,0.000108924,0.105462,-0.042367130066410685,0.08434422137081099,2.3195369008410793e-05,0.10289859454237793,0.00010892993243438731,-0.05193252206129384
126,0.1159,46.6752,643.784,-0.103147,173.547,0.0639203,0.212729,-0.0436519,0.0987485,-0.0537747,0.0816477,2.25501e-05,0.000109111,0.106354,-0.042712868868846066,0.08507347110066776,2.2550354255468363e-05,0.10378866179895452,0.00010911695282156408,-0.05235441299693144
127,0.1169,47.0024,645.136,0.21802,173.719,0.150177,0.277157,-0.0440119,0.0995554,-0.0542177,0.082316,2.41986e-05,0.000111007,0.107244,-0.04305743021129038,0.08579886806580173,2.4198892788485082e-05,0.10467966829838882,0.0001110131615049692,-0.052774127018453965
128,0.1179,46.7608,645.656,-0.179224,174.101,0.0442404,0.198581,-0.0443725,0.10036,-0.0546624,0.0829879,2.30355e-05,0.000110789,0.108135,-0.043402441492683574,0.08652866147189453,2.3035765319256996e-05,0.10556885122982496,0.00011079513732781265,-0.053195264717261215
129,0.1189,47.2171,647.184,0.309248,174.221,0.174456,0.296703,-0.0447317,0.101166,-0.0551041,0.0836542,2.53241e-05,0.000113182,0.109024,-0.04374598963076004,0.08725285675790029,2.5324420657835134e-05,0.10646029892907927,0.00011318840532426044,-0.05361337602215621
130,0.1199,46.8163,647.458,-0.290713,174.658,0.0150406,0.177304,-0.0450919,0.101969,-0.0555486,0.084326,2.33795e-05,0.000112362,0.109914,-0.04409037029861329,0.08798351862891285,2.33797733026897e-05,0.10734914337240209,0.00011236831284588966,-0.05403395139671252
131,0.1209,47.4648,649.254,0.444907,174.702,0.210694,0.325099,-0.0454502,0.102774,-0.0559888,0.0849897,2.66216e-05,0.000115486,0.1108,-0.04443281136695432,0.0887058529703626,2.6621954357874955e-05,0.10824091832407712,0.00011549266876476061,-0.05445027401197733
132,0.1219,46.8285,649.172,-0.454818,175.222,-0.0282,0.145411,-0.0458101,0.103575,-0.0564335,0.0856621,2.35177e-05,0.000113777,0.111689,-0.044776658119208834,0.08943814495487445,2.3517976543319108e-05,0.10912897491883955,0.00011378347284840551,-0.0548706664939278
133,0.1229,47.0211,650.294,-0.297091,175.431,0.0135202,0.17583,-0.0461683,0.104378,-0.0568747,0.0863283,2.40829e-05,0.000114839,0.112575,-0.045118757846551616,0.09016417045928682,2.4083189995360854e-05,0.1100199631696055,0.00011484559425034568,-0.05528756558116932
134,0.1239,47.4231,651.714,0.128079,175.561,0.126116,0.262019,-0.0465259,0.10518,-0.0573146,0.0869922,2.59612e-05,0.000116934,0.11346,-0.045460162331985465,0.090888170757361,2.596153699485626e-05,0.11091055626016089,0.00011694083704671954,-0.05570305318787094
135,0.1249,47.2525,652.292,-0.178288,175.903,0.0454104,0.20213,-0.0468841,0.10598,-0.0577564,0.0876595,2.51156e-05,0.000116952,0.114346,-0.0458020172719632,0.0916163633681506,2.5115915399220867e-05,0.11179964029136369,0.00011695883915185945,-0.05612015143518534
136,0.1259,47.6683,653.72,0.26537,176.024,0.163591,0.292301,-0.0472411,0.10678,-0.0581955,0.088322,2.72032e-05,0.00011921,0.115229,-0.04614260515324298,0.09233979882041554,2.720357001040341e-05,0.11268943587437419,0.00011921710579443356,-0.05653451809583199
137,0.1269,47.3332,654.047,-0.248723,176.423,0.0270111,0.189704,-0.047599,0.107579,-0.0586371,0.0889893,2.55885e-05,0.000118636,0.116113,-0.04648392963119985,0.09306896042588075,2.558882738856738e-05,0.11357882999927482,0.00011864303752862071,-0.056951060473314774
138,0.1279,47.8952,655.678,0.382833,176.486,0.195255,0.317117,-0.0479551,0.108378,-0.0590749,0.0896495,2.84186e-05,0.000121454,0.116995,-0.04682341625467745,0.09379084282071215,2.841900381223006e-05,0.11446893503405198,0.00012146137583557426,-0.057363836935678925
139,0.1289,47.3656,655.709,-0.378358,176.954,-0.00741698,0.164707,-0.0483127,0.109175,-0.0595165,0.0903171,2.58473e-05,0.000120151,0.117878,-0.04716421126324555,0.09452130138731896,2.5847634044229295e-05,0.1153575208296771,0.00012015821842048524,-0.05778001316681303
140,0.1299,48.1538,657.66,0.542994,176.927,0.238432,0.350352,-0.0486679,0.109973,-0.0599526,0.0909745,2.98062e-05,0.000123827,0.118757,-0.0475025984342855,0.09524107625492761,2.98066442092626e-05,0.11624793135784861,0.0001238346668794854,-0.05819082571888323
141,0.1309,47.3495,657.279,-0.567682,177.495,-0.0577608,0.127576,-0.0490252,0.110768,-0.0603945,0.0916429,2.58763e-05,0.000121489,0.11964,-0.04784286496362955,0.09597338009897749,2.587663479425295e-05,0.11713570130507445,0.00012149638008751573,-0.05860691925036121
142,0.1319,47.5856,658.415,-0.348613,177.671,0.000360226,0.170975,-0.0493804,0.111564,-0.060832,0.0923037,2.65975e-05,0.000122682,0.120519,-0.04818101111968187,0.0966978386432884,2.6597853716614495e-05,0.11802529533476536,0.00012268952574423508,-0.05901868864206683
143,0.1329,48.0197,659.833,0.122816,177.771,0.126106,0.265983,-0.0497351,0.112359,-0.0612684,0.0929621,2.8632e-05,0.000124886,0.121397,-0.048518561446948216,0.09742014225650797,2.8632409899698175e-05,0.11891447884817086,0.00012489379858116045,-0.0594292432968021
144,0.1339,47.8374,660.344,-0.192773,178.102,0.0420515,0.204177,-0.0500905,0.113153,-0.0617067,0.0936244,2.77289e-05,0.000124869,0.122276,-0.0488566578669174,0.09814720435676216,2.772928444949585e-05,0.11980324973972745,0.00012487679645811767,-0.05984140512760161
145,0.1349,48.2649,661.742,0.270481,178.202,0.166464,0.298474,-0.0504447,0.113947,-0.0621424,0.0942815,2.98943e-05,0.000127182,0.123152,-0.04919349318164512,0.09886903401590685,2.9894746839120856e-05,0.12069272659560282,0.00012719008797335007,-0.060250943003082646
146,0.1359,47.9162,662.0,-0.255835,178.591,0.0256147,0.193232,-0.0507997,0.114739,-0.0625806,0.0949438,2.8219e-05,0.00012657,0.12403,-0.049530969585959705,0.09959705603501567,2.821939815977892e-05,0.12158066681297819,0.000126578010320344,-0.060662650828086195
147,0.1369,48.4808,663.59,0.383808,178.635,0.197154,0.322489,-0.0511531,0.115532,-0.0630149,0.0955987,3.10845e-05,0.000129411,0.124904,-0.04986680599551918,0.1003174180037929,3.108498312798247e-05,0.12247043302743754,0.00012941937396471204,-0.06107051646439787
148,0.1379,47.9479,663.568,-0.376733,179.091,-0.00665745,0.169848,-0.0515078,0.116323,-0.0634531,0.0962612,2.85018e-05,0.000128107,0.125781,-0.050203758477377236,0.10104661981464935,2.8502206180114342e-05,0.12335865838677962,0.00012811520605215954,-0.06148186523098609
149,0.1389,48.7225,665.456,0.532174,179.053,0.237354,0.35336,-0.0518602,0.117115,-0.0638859,0.0969135,3.24186e-05,0.000131746,0.126654,-0.05053840770423279,0.10176506682077102,3.241912548856973e-05,0.124248710858476,0.0001317546788854873,-0.061887967992737436
150,0.1399,47.9374,665.055,-0.549471,179.6,-0.0528415,0.135897,-0.0522146,0.117903,-0.0643242,0.0975766,2.8585e-05,0.00012949,0.127529,-0.050874837273701456,0.10249588951406507,2.8585408555104053e-05,0.12513496798207946,0.0001294983841919617,-0.062299052400637156
151,0.1409,48.172,666.144,-0.327817,179.761,0.00633815,0.179791,-0.0525671,0.118693,-0.0647583,0.0982323,2.9342e-05,0.00013071,0.128402,-0.05120934493312379,0.10321903312554337,2.9342430480694404e-05,0.12602417579762615,0.00013071854292423524,-0.06270602004327241
152,0.1419,48.5755,667.475,0.109466,179.858,0.123603,0.268276,-0.052919,0.119482,-0.0651914,0.0988858,3.12535e-05,0.000132822,0.129273,-0.05154316562544614,0.10394022238661593,3.125398839576299e-05,0.1269129594513747,0.00013283082123249912,-0.06311187417193609
153,0.1429,48.4174,667.977,-0.17101,180.165,0.0485765,0.213305,-0.0532716,0.120269,-0.0656262,0.0995427,3.04844e-05,0.000132909,0.130145,-0.05187753255289307,0.10466563895568792,3.0484864653956834e-05,0.1278001890295084,0.00013291783279245628,-0.06351914458204266
154,0.1439,48.8012,669.27,0.241326,180.266,0.159892,0.297491,-0.053623,0.121057,-0.0660587,0.100195,3.24516e-05,0.000135071,0.131015,-0.052210644256799776,0.10538644741810033,3.2452126558890626e-05,0.12868924582083485,0.0001350801224981879,-0.06392408497733826
155,0.1449,48.5007,669.555,-0.219388,180.625,0.0359447,0.205175,-0.0539752,0.121843,-0.0664933,0.100852,3.10234e-05,0.00013465,0.131886,-0.05254439689060375,0.10611292493578661,3.102388123066291e-05,0.12957674430926502,0.00013465906571807906,-0.06433081518113193
156,0.1459,48.9941,671.0,0.334203,180.681,0.185198,0.317348,-0.0543259,0.12263,-0.0669245,0.101502,3.35547e-05,0.000137236,0.132754,-0.05287661131341026,0.10683213205398623,3.355526296533462e-05,0.1304660711112311,0.00013724541729054351,-0.06473418876003223
157,0.1469,48.5449,671.059,-0.315635,181.092,0.0101157,0.186664,-0.0546777,0.123414,-0.067359,0.102159,3.13923e-05,0.000136256,0.133624,-0.05320975071889289,0.10755955969856079,3.13927927433344e-05,0.13135270402567034,0.0001362652832703759,-0.06514047348326801
158,0.1479,49.2046,672.739,0.451312,181.082,0.217117,0.341924,-0.0550275,0.1242,-0.0677888,0.102807,3.47589e-05,0.000139475,0.13449,-0.05354088003019841,0.10827749087782568,3.47595040974813e-05,0.13224229681520194,0.00013948472709013338,-0.06554218977275028
159,0.1489,48.5576,672.498,-0.450289,181.566,-0.0260813,0.160305,-0.055379,0.124982,-0.0682233,0.103464,3.16128e-05,0.000137748,0.135359,-0.05387350194914087,0.1090058684351598,3.161329968981441e-05,0.13312805657824,0.00013775748769129237,-0.06594812349580625
160,0.1499,48.7592,673.5,-0.266582,181.725,0.0232371,0.196162,-0.0557287,0.125765,-0.0686541,0.104115,3.23071e-05,0.000138913,0.136224,-0.05420430454130487,0.1097280663054121,3.2307621880001136e-05,0.13401564329139148,0.00013892264885750905,-0.06635042638194066
161,0.1509,49.1001,674.701,0.0951584,181.832,0.120606,0.270191,-0.056078,0.126548,-0.0690841,0.104764,3.39518e-05,0.000140832,0.137089,-0.054534613285947886,0.11044851358029728,3.395237636882875e-05,0.13490392525709538,0.0001408419172916897,-0.06675180939506398
162,0.1519,48.9801,675.22,-0.133172,182.113,0.0595701,0.225436,-0.0564278,0.12733,-0.0695154,0.105415,3.3394e-05,0.000141077,0.137954,-0.05486527924137319,0.11117165091830272,3.3394557585886275e-05,0.1357917672276121,0.00014108695182790676,-0.06715423255088016
163,0.1529,49.2977,676.378,0.199301,182.226,0.149583,0.293589,-0.0567766,0.128111,-0.0699447,0.106063,3.50483e-05,0.000143003,0.138818,-0.055194884745432216,0.11189192349120769,3.5048914198920755e-05,0.1366791670823535,0.0001430132254163219,-0.06755461729011258
164,0.1539,49.0684,676.729,-0.167071,182.545,0.0506502,0.220015,-0.0571259,0.128891,-0.0703758,0.106714,3.39833e-05,0.000142858,0.139682,-0.05552484754083353,0.11261600079499079,3.398387743880349e-05,0.13756612270040014,0.00014286820469000538,-0.06795650786086216
165,0.1549,49.4655,677.996,0.267968,182.624,0.168439,0.308478,-0.057474,0.129672,-0.070804,0.10736,3.60505e-05,0.000145092,0.140544,-0.055853562125311784,0.11333498293773281,3.60511498271876e-05,0.13845490886805045,0.00014510252635324683,-0.06835552344886187
166,0.1559,49.1275,678.18,-0.236529,182.982,0.0319074,0.206849,-0.0578228,0.13045,-0.0712347,0.108011,3.44472e-05,0.000144539,0.141406,-0.05618282297641186,0.11405999997906702,3.4447793311631614e-05,0.1393409714207896,0.00014454944626463018,-0.0687566963261318
167,0.1569,49.6438,679.615,0.351643,183.013,0.191408,0.326288,-0.0581701,0.131229,-0.0716618,0.108655,3.71158e-05,0.000147227,0.142267,-0.056510553768245986,0.11477768568904789,3.711648879978213e-05,0.14022886382671773,0.0001472378384266282,-0.06915434541712273
168,0.1579,49.1651,679.584,-0.331723,183.423,0.006187,0.188407,-0.0585186,0.132006,-0.0720923,0.109306,3.4811e-05,0.000146142,0.143128,-0.05683930255245484,0.11550364223564902,3.481160590990129e-05,0.1411151659376908,0.00014615267926232356,-0.06955498822686834
169,0.1589,49.8418,681.247,0.462082,183.39,0.22172,0.349488,-0.058865,0.132784,-0.072518,0.109948,3.82858e-05,0.00014944,0.143986,-0.05716595683826198,0.11622002550838917,3.8286532910492e-05,0.14200329897574426,0.00014945116671305492,-0.06995099437249164
170,0.1599,49.1773,680.935,-0.457961,183.868,-0.0279751,0.163609,-0.0592132,0.133559,-0.0729485,0.110599,3.50524e-05,0.000147651,0.144847,-0.057494194502597185,0.1169469213239116,3.505301434247876e-05,0.14288869457893094,0.00014766190094550602,-0.07035129429867293
171,0.1609,49.3859,681.905,-0.260676,184.01,0.0253202,0.202344,-0.0595597,0.134335,-0.0733753,0.111244,3.58028e-05,0.00014886,0.145705,-0.05782071619105256,0.11766758447704784,3.5803440927795194e-05,0.1437759204050224,0.00014887108019956408,-0.07074798370672486
172,0.1619,49.7101,683.039,0.0843907,184.108,0.118769,0.273141,-0.0599057,0.13511,-0.0738012,0.111887,3.73838e-05,0.00015073,0.146562,-0.05814665383278683,0.1183864758326687,3.738449878287753e-05,0.1446626903222945,0.0001507413603372143,-0.07114366787353976
173,0.1629,49.6049,683.537,-0.120745,184.37,0.0636233,0.232911,-0.0602521,0.135884,-0.0742285,0.112532,3.69095e-05,0.000151039,0.147419,-0.05847285533053792,0.11910806779797278,3.691018116391831e-05,0.14554900220305456,0.00015105040696394845,-0.07154048339858265
174,0.1639,49.8943,684.613,0.180285,184.478,0.145624,0.294811,-0.0605976,0.136658,-0.0746539,0.113174,3.84395e-05,0.000152869,0.148275,-0.0587980967703271,0.11982676585489038,3.8440238806947136e-05,0.1464360003547629,0.0001528806850610298,-0.07193536607944373
175,0.1649,49.6942,684.965,-0.144783,184.774,0.0573153,0.229391,-0.0609436,0.137431,-0.0750808,0.113819,3.75268e-05,0.000152841,0.149131,-0.05912369629687819,0.12054928710692159,3.7527504139101e-05,0.14732253798568706,0.00015285268078080172,-0.0723314723167724
176,0.1659,50.0457,686.126,0.236534,184.856,0.161177,0.307152,-0.0612884,0.138204,-0.0755052,0.114459,3.93831e-05,0.000154914,0.149984,-0.05944805452382329,0.12126666818812937,3.9383875524379164e-05,0.1482097611751343,0.00015492599979327615,-0.07272509130806315
177,0.1669,49.7584,686.343,-0.199234,185.182,0.0425427,0.219178,-0.0616339,0.138975,-0.0759317,0.115104,3.80382e-05,0.000154558,0.150839,-0.05977295909048941,0.12199011847674779,3.803892346154747e-05,0.1490953722602033,0.0001545699447029758,-0.07312048973191276
178,0.1679,50.203,687.634,0.301759,185.226,0.179209,0.321207,-0.061978,0.139747,-0.076355,0.115742,4.0366e-05,0.000156987,0.151692,-0.0600964355579483,0.1227061765705788,4.0366814717973654e-05,0.14998281639694966,0.000156999323103868,-0.07351275479985031
179,0.1689,49.8069,687.684,-0.272279,185.592,0.0227011,0.205138,-0.0623231,0.140516,-0.0767812,0.116387,3.8477e-05,0.00015622,0.152545,-0.06042074031603273,0.12343055564160399,3.847774024934303e-05,0.15086749329743032,0.00015623220297955598,-0.07390753952915285
180,0.1699,50.3734,689.148,0.385199,185.587,0.202265,0.338937,-0.0626665,0.141287,-0.0772034,0.117023,4.14199e-05,0.000159112,0.153396,-0.060743336440883366,0.1241452847347515,4.142075781587984e-05,0.15175515428410113,0.0001591246589855988,-0.07429845323827289
181,0.1709,49.8379,688.986,-0.366475,186.005,-0.00293177,0.186756,-0.0630112,0.142055,-0.0776293,0.117667,3.88316e-05,0.000157815,0.154248,-0.06106704241888172,0.12486946745992955,3.883235395640838e-05,0.15264004199597858,0.00015782745344217197,-0.07469262558207979
182,0.1719,50.5613,690.674,0.492426,185.937,0.231895,0.361475,-0.0633537,0.142824,-0.0780502,0.118302,4.25665e-05,0.000161306,0.155097,-0.061388571891787924,0.12558398640752322,4.256740596630948e-05,0.15352676308883617,0.00016131901051230635,-0.07508200550521904
183,0.1729,49.8472,690.242,-0.486946,186.421,-0.0357609,0.162978,-0.0636981,0.143591,-0.0784761,0.118946,3.90819e-05,0.00015933,0.155948,-0.06171177400902916,0.12630909595498307,3.908266370733493e-05,0.15441185750644348,0.0001593426936985498,-0.07547584420516995
184,0.1739,50.0722,691.192,-0.263872,186.541,0.0249353,0.207187,-0.0640406,0.144358,-0.0788982,0.119584,3.99223e-05,0.000160609,0.156797,-0.062033082699176956,0.12702791043563932,3.992309690570295e-05,0.1552976310518812,0.00016062189831589357,-0.07586600350241846
185,0.1749,50.3861,692.268,0.0727635,186.628,0.116754,0.276313,-0.0643828,0.145125,-0.0793195,0.120219,4.14673e-05,0.000162448,0.157645,-0.06235400006618419,0.12774380042978373,4.1468159780455593e-05,0.15618408424624053,0.00016246119539076176,-0.07625525915268261
186,0.1759,50.2937,692.742,-0.111403,186.871,0.0668743,0.240191,-0.0647254,0.14589,-0.079742,0.120858,4.10648e-05,0.000162813,0.158492,-0.06267518256405802,0.1284646590080456,4.1065643170412613e-05,0.15706890347089075,0.00016282625475572132,-0.0766454588701958
187,0.1769,50.5592,693.74,0.163532,186.973,0.142322,0.296913,-0.0650671,0.146656,-0.0801628,0.121493,4.24905e-05,0.000164562,0.159339,-0.06299541173990542,0.1291814616272613,4.249140273415719e-05,0.15795555779620196,0.00016457554106863448,-0.07703392472215587
188,0.1779,50.3833,694.085,-0.126086,187.246,0.0630908,0.238497,-0.0654092,0.14742,-0.080585,0.122131,4.17063e-05,0.000164632,0.160185,-0.06331590618584848,0.12990210926193035,4.170716971985122e-05,0.15884057387545214,0.00016464555259143587,-0.0774235187500516
189,0.1789,50.6954,695.146,0.209259,187.328,0.155059,0.30709,-0.0657503,0.148184,-0.0810049,0.122764,4.33808e-05,0.000166565,0.16103,-0.06363535464521652,0.1306175637145377,4.338174096041314e-05,0.15972626636534293,0.00016657887271986915,-0.07781082729340905
190,0.1799,50.4507,695.383,-0.16761,187.625,0.0517647,0.230825,-0.0660919,0.148947,-0.0814266,0.123402,4.22555e-05,0.000166377,0.161876,-0.0639551621818325,0.13133912787467894,4.225639277621873e-05,0.16061147517079388,0.00016639084142067162,-0.07819963248220363
191,0.1809,50.8336,696.543,0.258937,187.678,0.168902,0.317963,-0.0664323,0.14971,-0.0818455,0.124034,4.42908e-05,0.000168582,0.162719,-0.0642737376200101,0.13205436019310168,4.4291780851857254e-05,0.1614973596482996,0.00016859621074383213,-0.07858569378997049
192,0.1819,50.507,696.654,-0.222163,188.005,0.0368652,0.220457,-0.0667735,0.150471,-0.0822668,0.12467,4.27538e-05,0.000168082,0.163563,-0.0645929529595004,0.13277457577046103,4.275471395676078e-05,0.16238159554807852,0.00016809612657087136,-0.07897380387604658
193,0.1829,50.9799,697.941,0.320193,188.021,0.18596,0.331175,-0.0671132,0.151233,-0.0826847,0.125301,4.52455e-05,0.000170631,0.164405,-0.06491065676833296,0.13348958208854156,4.524652359316761e-05,0.16326766787456815,0.00017064555829704453,-0.07935862031041241
194,0.1839,50.5518,697.895,-0.290319,188.385,0.0182122,0.207285,-0.0674539,0.151992,-0.0831057,0.125937,4.31971e-05,0.000169745,0.165248,-0.06522918744279049,0.1342107107573589,4.319803300822933e-05,0.16415092318747382,0.0001697594074976383,-0.07974612875501064
195,0.1849,51.1369,699.342,0.396324,188.355,0.207155,0.347403,-0.0677929,0.152753,-0.0835224,0.126566,4.62578e-05,0.000172723,0.166088,-0.06554602104191809,0.13492435371160538,4.6258869908610833e-05,0.16503717921766836,0.00017273791747629552,-0.0801295186583244
196,0.1859,50.5829,699.105,-0.374704,188.767,-0.00492247,0.190772,-0.0681332,0.153511,-0.0839432,0.127202,4.3575e-05,0.000171356,0.16693,-0.06586396163029817,0.1356463951854161,4.35759494041843e-05,0.16592061217830834,0.00017137068227790486,-0.08051651872634813
197,0.1869,51.3072,700.752,0.490586,188.681,0.233404,0.367307,-0.0684714,0.154271,-0.0843587,0.127828,4.73408e-05,0.000174866,0.167768,-0.06617983302161179,0.13635753239152448,4.7341920593302333e-05,0.16680704864675455,0.0001748812899502461,-0.08089848475387984
198,0.1879,50.5979,700.28,-0.478615,189.152,-0.0334497,0.170232,-0.0688114,0.155028,-0.0847793,0.128465,4.38748e-05,0.000172907,0.168609,-0.0664972779096954,0.13708162273794877,4.387576251319025e-05,0.16769065598576227,0.0001729219492769829,-0.08128497756605624
199,0.1889,50.8249,701.189,-0.248208,189.255,0.0297241,0.216049,-0.0691496,0.155785,-0.0851961,0.129094,4.47609e-05,0.000174219,0.169447,-0.06681293514965836,0.1377970720638757,4.47619017840406e-05,0.16857493246876443,0.00017423417701123434,-0.08166781819787672
200,0.1899,51.1132,702.184,0.0605194,189.337,0.114522,0.279747,-0.0694875,0.156543,-0.0856122,0.129722,4.62013e-05,0.000175977,0.170284,-0.06712820579089673,0.1385118330365862,4.620236729646621e-05,0.16946104806295836,0.0001759924848605543,-0.0820498567300958
201,0.1909,51.0399,702.642,-0.0948121,189.558,0.072232,0.249303,-0.0698257,0.157298,-0.0860294,0.130353,4.59058e-05,0.000176422,0.171121,-0.06744364968712868,0.1392304607064181,4.59068536873275e-05,0.17034432454916204,0.00017643756327623272,-0.08243274565368486
202,0.1919,51.2711,703.547,0.141006,189.659,0.13739,0.298164,-0.0701632,0.158054,-0.0864451,0.13098,4.71747e-05,0.00017805,0.171957,-0.06775833434933543,0.13994498218435614,4.717581274360505e-05,0.17122943938977464,0.00017806585184199086,-0.08281409909151294
203,0.1929,51.1292,703.899,-0.100779,189.904,0.070792,0.249277,-0.0705009,0.158809,-0.0868618,0.13161,4.65685e-05,0.000178255,0.172793,-0.0680730992087879,0.14066337379272809,4.6569584329470004e-05,0.17211405151557058,0.0001782708883666384,-0.08319621083790996
204,0.1939,51.3912,704.845,0.175174,189.991,0.146999,0.30594,-0.0708378,0.159563,-0.0872767,0.132236,4.80064e-05,0.000180006,0.173628,-0.06838701250000134,0.1413776526106667,4.800755232570175e-05,0.17299815877696512,0.0001800222020522657,-0.08357651383072195
205,0.1949,51.2,705.119,-0.129282,190.254,0.0629749,0.244182,-0.071175,0.160316,-0.0876929,0.132865,4.71548e-05,0.000180025,0.174463,-0.06870109944135194,0.14209580498940433,4.715591180515233e-05,0.1738817590242665,0.00018004120547265856,-0.08395784992411992
206,0.1959,51.5106,706.132,0.209407,190.32,0.156639,0.313635,-0.0715113,0.16107,-0.0881069,0.133489,4.88421e-05,0.000181964,0.175296,-0.06901424260363576,0.14280869517032224,4.884329279475352e-05,0.17476719963973397,0.00018198055645290978,-0.08433701288210349
207,0.1969,51.2634,706.317,-0.166038,190.604,0.0528846,0.237366,-0.071848,0.161821,-0.0885226,0.134118,4.77088e-05,0.000181769,0.176129,-0.06932765274259334,0.14352774795797885,4.770993808289603e-05,0.17564978117454833,0.00018178552098557788,-0.08471757488055676
208,0.1979,51.6339,707.414,0.249875,190.645,0.168023,0.32259,-0.0721836,0.162574,-0.0889357,0.134741,4.97015e-05,0.000183938,0.176961,-0.06963993397861068,0.14424038770918957,4.970273514004475e-05,0.17653537884545067,0.00018395491763123495,-0.08509559996391669
209,0.1989,51.3201,707.496,-0.210379,190.953,0.0406845,0.228978,-0.0725199,0.163324,-0.089351,0.135369,4.82313e-05,0.000183489,0.177793,-0.0699527614639236,0.14495919635496168,4.8232463147890314e-05,0.17741811136290075,0.00018350583513626617,-0.08547548087352086
210,0.1999,51.7627,708.694,0.298324,190.963,0.18164,0.333167,-0.0728548,0.164075,-0.0897631,0.13599,5.0591e-05,0.000185934,0.178623,-0.07026418213380747,0.1456704368332098,5.059227974624214e-05,0.17830268448016473,0.0001859512867976587,-0.08585227878331103
211,0.2009,51.3693,708.653,-0.263322,191.301,0.0260885,0.218812,-0.0731907,0.164824,-0.0901781,0.136618,4.87181e-05,0.000185181,0.179454,-0.07057642795040797,0.1463901438318851,4.8719286745990686e-05,0.17918556378786632,0.0001851981470597508,-0.08623157137895865
212,0.2019,51.898,709.974,0.356136,191.276,0.197882,0.345649,-0.0735249,0.165574,-0.0905892,0.137238,5.15162e-05,0.000187957,0.180283,-0.07088698941047644,0.14710112610278991,5.151752698218104e-05,0.1800702846895741,0.00018797466502373794,-0.08660714437564587
213,0.2029,51.41,709.788,-0.326193,191.649,0.00872432,0.206591,-0.0738603,0.166321,-0.0910038,0.137865,4.91641e-05,0.00018684,0.181113,-0.07119856166064098,0.14782058403534815,4.9165308574128375e-05,0.18095212651915427,0.00018685745567981193,-0.08698575856144364
214,0.2039,52.0409,711.255,0.424799,191.583,0.217175,0.360339,-0.0741938,0.16707,-0.0914138,0.138483,5.24833e-05,0.000190009,0.18194,-0.07150826529437582,0.14853015639155642,5.248467727247963e-05,0.18183699100229855,0.00019002705285342536,-0.08736001767207302
215,0.2049,51.441,710.899,-0.400487,191.999,-0.0118262,0.192005,-0.0745289,0.167816,-0.0918282,0.13911,4.95635e-05,0.000188463,0.182769,-0.0718193507493966,0.14925051060706118,4.956472829054093e-05,0.18271897033497453,0.00018848076026678484,-0.08773813732894564
216,0.2059,52.1928,712.541,0.505962,191.882,0.239991,0.377571,-0.0748616,0.168564,-0.0922371,0.139726,5.3499e-05,0.000192097,0.183594,-0.07212810508727019,0.14995866701137484,5.3500431097086576e-05,0.18360397507529425,0.0001921154518103041,-0.08811108495025433
217,0.2069,51.461,711.984,-0.487851,192.349,-0.0360223,0.174709,-0.0751963,0.169309,-0.0926513,0.140353,4.99099e-05,0.000190044,0.184422,-0.07243861184429301,0.1506799171838913,4.991114551988751e-05,0.18448608858320736,0.00019006205950500288,-0.0884887111270879
218,0.2079,51.6984,712.862,-0.238953,192.432,0.0328284,0.224535,-0.0755292,0.170054,-0.0930614,0.140973,5.08753e-05,0.000191415,0.185247,-0.07274734563881868,0.1513935599389391,5.087659417002399e-05,0.1853688595105425,0.00019143332102000699,-0.0888624452672313
219,0.2089,51.9647,713.778,0.0467591,192.505,0.111978,0.283708,-0.0758618,0.1708,-0.0934712,0.141591,5.22262e-05,0.000193102,0.186071,-0.07305569858972094,0.15210534107669904,5.222756381173532e-05,0.18625347460014052,0.00019312064539134255,-0.08923575294119401
220,0.2099,51.9099,714.216,-0.0799919,192.703,0.0772242,0.258927,-0.0761946,0.171544,-0.0938818,0.142211,5.20338e-05,0.000193622,0.186896,-0.07336413432667688,0.15281986786858348,5.203515378160439e-05,0.18713637558368235,0.00019364074594929725,-0.08960963597759619
221,0.2109,52.1087,715.028,0.119429,192.801,0.132804,0.300456,-0.0765268,0.172287,-0.0942911,0.142829,5.31547e-05,0.000195135,0.187719,-0.07367191163661191,0.15353253073707074,5.3156112736152394e-05,0.1880187456706357,0.0001951540400726426,-0.08998218250674239
222,0.2119,51.9979,715.379,-0.0778187,193.019,0.0780194,0.260474,-0.0768592,0.17303,-0.0947012,0.143449,5.27124e-05,0.000195462,0.188542,-0.07397977192396954,0.1542479426609069,5.2713789322922366e-05,0.1889017716021797,0.00019548110394129736,-0.0903553042998434
223,0.2129,52.2136,716.212,0.143747,193.108,0.139723,0.306174,-0.0771908,0.173773,-0.0951098,0.144066,5.39313e-05,0.000197044,0.189363,-0.0742867893253012,0.1549603333914693,5.3932754318752885e-05,0.18978545386578816,0.000197063414444143,-0.09072690919845561
224,0.2139,52.0698,716.51,-0.0952576,193.339,0.0732163,0.257565,-0.0775227,0.174514,-0.0955194,0.144685,5.33255e-05,0.000197246,0.190185,-0.07459398255838712,0.1556754751513787,5.3326921829688345e-05,0.1906674116120921,0.00019726545427123376,-0.09109927119150574
225,0.2149,52.3155,717.383,0.165216,193.414,0.145855,0.311222,-0.0778537,0.175255,-0.0959272,0.1453,5.47e-05,0.000198946,0.191006,-0.0749002412615487,0.15638643416608522,5.4701496072340206e-05,0.19155002313127922,0.00019896579106792878,-0.09146984534350866
226,0.2159,52.1373,717.625,-0.117567,193.657,0.0670672,0.253629,-0.0781851,0.175995,-0.0963362,0.145918,5.39194e-05,0.000199016,0.191826,-0.0752067685272213,0.15710130185376325,5.3920853676947544e-05,0.1924320964752817,0.00019903580499791573,-0.09184135819720562
227,0.2169,52.4187,718.547,0.189205,193.717,0.152699,0.316775,-0.0785155,0.176736,-0.0967432,0.146533,5.54777e-05,0.000200853,0.192645,-0.07551226973932057,0.1578131380215888,5.547923891602302e-05,0.19331601611054938,0.0002008731723144308,-0.09221090355683748
228,0.2179,52.2012,718.726,-0.143372,193.973,0.059937,0.248961,-0.0788464,0.177474,-0.0971517,0.14715,5.44979e-05,0.000200772,0.193465,-0.07581813212154176,0.15852772915644353,5.4499385037543036e-05,0.1941970083765996,0.00020079215604695833,-0.09258165967064247
229,0.2189,52.5239,719.705,0.216613,194.015,0.160508,0.323023,-0.0791762,0.178214,-0.0975579,0.147763,5.62674e-05,0.000202769,0.194282,-0.07612287704636778,0.15923812436830342,5.626898303989769e-05,0.1950810412146069,0.00020278955902330864,-0.09295017814931417
230,0.2199,52.2617,719.814,-0.172823,194.288,0.0517801,0.243533,-0.0795067,0.178951,-0.0979659,0.14838,5.50603e-05,0.000202516,0.1951,-0.07642816798339769,0.15995359499102824,5.5061815846135787e-05,0.19596214058721872,0.00020253650774959553,-0.09332017899132483
231,0.2209,52.6314,720.859,0.247854,194.31,0.1694,0.330054,-0.0798359,0.179689,-0.0983713,0.148991,5.70708e-05,0.000204694,0.195916,-0.07673215779102993,0.1606625431991897,5.7072428569115985e-05,0.19684508641390797,0.00020471495124629868,-0.09368767249479548
232,0.2219,52.3184,720.888,-0.206247,194.602,0.0425025,0.237278,-0.0801658,0.180425,-0.0987788,0.149608,5.56053e-05,0.000204245,0.196733,-0.07703669361622834,0.16137889295951924,5.5606846003364296e-05,0.19772628864014918,0.00020426585943011943,-0.09405691952906103
233,0.2229,52.7414,722.008,0.283298,194.601,0.179485,0.337943,-0.0804944,0.181162,-0.0991833,0.150218,5.78896e-05,0.00020663,0.197548,-0.07733992953431612,0.16208755020270948,5.789127563526897e-05,0.19860933827869842,0.0002066513494489719,-0.09442329939978711
234,0.2239,52.3711,721.948,-0.243995,194.915,0.0320034,0.230122,-0.0808239,0.181897,-0.0995904,0.150833,5.61315e-05,0.000205959,0.198364,-0.07764389594631804,0.16280245385642478,5.613307540208723e-05,0.19949063998103367,0.00020598021101103647,-0.09479188464398447
235,0.2249,52.8544,723.154,0.323319,194.889,0.190869,0.346765,-0.0811519,0.182633,-0.099994,0.151442,5.87251e-05,0.000208577,0.199177,-0.07794637913849223,0.16351081622527142,5.8726824352373086e-05,0.2003737900514191,0.00020859875369483305,-0.09515715292324511
236,0.2259,52.4194,722.994,-0.286424,195.227,0.0201814,0.22199,-0.081481,0.183366,-0.100401,0.152057,5.66374e-05,0.000207657,0.199991,-0.07824977705825176,0.16422659545680318,5.66390039278275e-05,0.201253986592149,0.00020767856220738068,-0.09552534902901522
237,0.2269,52.9705,724.296,0.368287,195.172,0.203662,0.356597,-0.0818082,0.184101,-0.100803,0.152664,5.95791e-05,0.000210537,0.200803,-0.07855132439536361,0.16493349552271086,5.9580874869791245e-05,0.2021372328255222,0.00021055916446965917,-0.09588887476513697
238,0.2279,52.4632,724.024,-0.333882,195.538,0.00693641,0.212808,-0.0821369,0.184833,-0.10121,0.153279,5.71219e-05,0.000209337,0.201617,-0.07885415480213098,0.16565014997111205,5.712353148679128e-05,0.2030175194255397,0.00020935891251872008,-0.09625677312071368
239,0.2289,53.0902,725.436,0.418572,195.451,0.217971,0.367514,-0.0824635,0.185567,-0.101611,0.153885,6.04531e-05,0.000212511,0.202427,-0.07915495191233068,0.16635674803958533,6.0454927325537255e-05,0.20390085843055417,0.00021253358206219097,-0.09661910150299646
240,0.2299,52.5022,725.04,-0.386711,195.848,-0.00782863,0.202503,-0.0827918,0.186298,-0.102017,0.154499,5.75835e-05,0.000210999,0.203239,-0.07945721572229858,0.16707311098379996,5.75851579616149e-05,0.20478123169529194,0.0002110212618546825,-0.09698579970301446
241,0.2309,53.2137,726.574,0.474531,195.726,0.233903,0.379589,-0.0831178,0.18703,-0.102418,0.155103,6.13486e-05,0.0002145,0.204048,-0.07975726375948577,0.1677782360691733,6.135048186384218e-05,0.20566345441101386,0.00021452300677005098,-0.097347835804244
242,0.2319,52.5361,726.041,-0.445229,196.157,-0.0242054,0.191008,-0.0834456,0.18776,-0.102824,0.155717,5.80212e-05,0.000212641,0.204859,-0.08005886989247946,0.16849547207504045,5.802288326228755e-05,0.2065439100599462,0.000212663609699959,-0.09771423819818847
243,0.2329,53.3412,727.71,0.536505,195.997,0.251557,0.39289,-0.0837709,0.188491,-0.103224,0.156319,6.22673e-05,0.000216504,0.205666,-0.08035807807325435,0.16919911812544064,6.226923864849354e-05,0.20742621610176926,0.00021652743868250113,-0.09807508032967172
244,0.2339,52.5648,727.026,-0.509733,196.467,-0.0422784,0.178258,-0.0840984,0.189219,-0.103629,0.156933,5.84338e-05,0.000214262,0.206477,-0.08065921148939692,0.1699172268207787,5.8435507287679656e-05,0.20830554242303645,0.00021428495574182804,-0.09844028596300547
245,0.2349,52.8206,727.877,-0.231081,196.523,0.0356785,0.234563,-0.0844239,0.189949,-0.10403,0.157539,5.95198e-05,0.000215722,0.207284,-0.08095840821914768,0.17062641152149327,5.9521571338372325e-05,0.2091879275003734,0.00021574526966383623,-0.09880173893217048
246,0.2359,53.0625,728.703,0.0294172,196.586,0.108662,0.288729,-0.0847492,0.190678,-0.104431,0.158144,6.07699e-05,0.000217327,0.20809,-0.08125732382769435,0.17133485478294141,6.077174652774353e-05,0.21006974688363345,0.00021735061722338855,-0.09916304698775202
247,0.2369,53.0294,729.118,-0.0636768,196.758,0.0828994,0.270672,-0.0850747,0.191405,-0.104833,0.158751,6.06976e-05,0.000217934,0.208897,-0.08155632590356066,0.17204607087204038,6.06994421366025e-05,0.21094978744560144,0.00021795774933930367,-0.09952511066318825
248,0.2379,53.192,729.823,0.0951926,196.85,0.127698,0.303989,-0.0853997,0.192133,-0.105233,0.159356,6.16513e-05,0.000219315,0.209702,-0.0818547715975898,0.17275537328726331,6.165320048046041e-05,0.2118316798607518,0.0002193390512927884,-0.09988522859053595
249,0.2389,53.1148,730.169,-0.0535349,197.038,0.0859346,0.273765,-0.0857247,0.192859,-0.105634,0.159962,6.13863e-05,0.00021977,0.210508,-0.0821531203125283,0.17346627842597662,6.138818417755765e-05,0.21271178910132815,0.00021979415119566248,-0.10024610225386588
250,0.2399,53.281,730.876,0.110489,197.128,0.132123,0.307806,-0.0860492,0.193585,-0.106034,0.160566,6.237e-05,0.00022117,0.211312,-0.08245091330546062,0.17417526615088463,6.237194504898902e-05,0.21359253753321128,0.00022119445988777464,-0.10060593184224897
251,0.2409,53.1857,731.192,-0.0610689,197.322,0.0838693,0.272813,-0.0863737,0.194311,-0.106435,0.161171,6.20161e-05,0.000221558,0.212116,-0.08274860968024389,0.1748858571189993,6.201802303817949e-05,0.21447392562062295,0.00022158254578652503,-0.10096651656151212
252,0.2419,53.3657,731.916,0.120916,197.405,0.13518,0.310538,-0.0866976,0.195036,-0.106834,0.161774,6.30726e-05,0.000223012,0.212919,-0.08304565929578622,0.1755945269333179,6.30745891183615e-05,0.21535473847277542,0.00022303686902480635,-0.10132515936740627
253,0.2429,53.2539,732.204,-0.0712299,197.605,0.0810772,0.271296,-0.0870217,0.19576,-0.107234,0.162378,6.26357e-05,0.000223336,0.213722,-0.08334279604399741,0.17630480050861208,6.263766165637286e-05,0.21623497391020807,0.00022336094134112194,-0.10168455741925697
254,0.2439,53.4498,732.948,0.131491,197.68,0.138283,0.313292,-0.087345,0.196484,-0.107632,0.16298,6.37748e-05,0.000224852,0.214523,-0.08363910341736869,0.17701314919007904,6.377683365577091e-05,0.21711584686885255,0.000224877281105762,-0.10204201582646255
255,0.2449,53.3209,733.207,-0.0823491,197.885,0.078013,0.269571,-0.0876686,0.197207,-0.108032,0.163584,6.32501e-05,0.00022511,0.215325,-0.08393558982941407,0.17772427987203643,6.325210032964712e-05,0.21799613981369204,0.00022513533915735628,-0.10240112719307048
256,0.2459,53.534,733.974,0.142761,197.953,0.141585,0.316184,-0.0879914,0.19793,-0.10843,0.164184,6.44782e-05,0.000226693,0.216125,-0.0842312476992696,0.1784311264727345,6.44802787637122e-05,0.21887706944046337,0.0002267186967999102,-0.1027583004622522
257,0.2469,53.3867,734.202,-0.0942387,198.164,0.0747278,0.267682,-0.0883145,0.198651,-0.108829,0.164787,6.38598e-05,0.000226879,0.216925,-0.08452708478808268,0.17914193472914874,6.386183908047016e-05,0.21975619669482138,0.00022690473898689945,-0.10311622848897795
258,0.2479,53.6181,734.992,0.154775,198.223,0.1451,0.319227,-0.0886367,0.199373,-0.109226,0.165386,6.51831e-05,0.000228533,0.217724,-0.08482200264754547,0.17984845232894786,6.518522446441466e-05,0.22063717866505606,0.00022855911565544673,-0.10347222067714279
259,0.2489,53.4514,735.188,-0.106863,198.442,0.0712307,0.265635,-0.0889593,0.200093,-0.109624,0.165988,6.4465e-05,0.000228644,0.218524,-0.08511719145297691,0.18055893493105635,6.446707791285533e-05,0.22151635389879876,0.0002286701410316727,-0.10382896773593941
260,0.2499,53.7023,736.004,0.167518,198.491,0.148825,0.322418,-0.089281,0.200814,-0.11002,0.166587,6.58894e-05,0.000230374,0.219321,-0.08541146191654458,0.18126630156823742,6.589157075409524e-05,0.2223973847634202,0.00023040053812772854,-0.1041837812070121
261,0.2509,53.515,736.166,-0.120196,198.717,0.0675285,0.263436,-0.0896031,0.201533,-0.110418,0.167188,6.50658e-05,0.000230404,0.220119,-0.08570600344620138,0.1819764559955097,6.506791682503454e-05,0.22327660452469233,0.00023043054504023885,-0.1045402451210673
262,0.2519,53.7865,737.01,0.180963,198.757,0.152754,0.325751,-0.0899242,0.202253,-0.110814,0.167785,6.65971e-05,0.000232215,0.220915,-0.08599953611930211,0.1826823066151846,6.659931763608462e-05,0.22415768082935728,0.00023224196399018737,-0.10489477698205785
263,0.2529,53.5775,737.136,-0.1342,198.99,0.0636308,0.261093,-0.0902459,0.202971,-0.111211,0.168386,6.56624e-05,0.000232161,0.221712,-0.08629352277824309,0.18339331231727263,6.566455582257547e-05,0.22503694166105803,0.0002321879514506353,-0.10525006322661012
264,0.2539,53.8706,738.009,0.195069,199.021,0.156875,0.329218,-0.0905665,0.203689,-0.111606,0.168982,6.73059e-05,0.000234056,0.222507,-0.08658641012249035,0.1840988249532951,6.730816509281645e-05,0.22591683402873008,0.0002340833932426012,-0.10560341965914577
265,0.2549,53.6391,738.098,-0.14883,199.262,0.0595503,0.258614,-0.0908876,0.204406,-0.112002,0.169581,6.62549e-05,0.000233913,0.223303,-0.08687966014238968,0.18480831261978437,6.625709490437615e-05,0.2267961315892344,0.00023394035977908345,-0.1059575305863697
266,0.2559,53.9548,739.001,0.209786,199.283,0.161174,0.332808,-0.0912076,0.205124,-0.112397,0.170176,6.80157e-05,0.000235897,0.224096,-0.08717181190436918,0.18551348333327655,6.801801312006361e-05,0.22767728750883598,0.00023592482588519204,-0.1063106076244823
267,0.2569,53.6996,739.052,-0.16403,199.532,0.0553027,0.256013,-0.0915283,0.205839,-0.112793,0.170775,6.68436e-05,0.000235662,0.224891,-0.08746450896780877,0.18622381863397663,6.684583408311795e-05,0.22855539065386998,0.0002356897704705041,-0.10666443856071373
268,0.2579,54.0388,739.987,0.225051,199.542,0.165634,0.336508,-0.0918478,0.206555,-0.113186,0.171369,6.87264e-05,0.000237737,0.225683,-0.08775601748622797,0.18692864489492056,6.87287617131549e-05,0.22943535130189718,0.0002377652616800674,-0.10701545045800376
269,0.2589,53.7593,739.999,-0.17973,199.801,0.0509071,0.253302,-0.092168,0.20727,-0.113582,0.171967,6.74288e-05,0.000237407,0.226476,-0.08804807124912606,0.18763864049209333,6.743107337259246e-05,0.23031471191203345,0.00023743518327212776,-0.10736900233173119
270,0.2599,54.1226,740.967,0.240792,199.799,0.170236,0.340305,-0.0924869,0.207985,-0.113975,0.17256,6.94375e-05,0.000239577,0.227267,-0.08833884635265021,0.18834311906315726,6.943991083896428e-05,0.23119470148983523,0.00023960570086134503,-0.10771973738986174
271,0.2609,53.8181,740.938,-0.195853,200.067,0.0463854,0.250497,-0.0928067,0.208698,-0.11437,0.173157,6.80108e-05,0.000239148,0.228059,-0.08863034897583277,0.18905277171547752,6.801311278681332e-05,0.23207285633699826,0.00023917659816263814,-0.10807211849374299
272,0.2619,54.2063,741.941,0.256925,200.055,0.174954,0.34418,-0.0931251,0.209412,-0.114762,0.173749,7.01488e-05,0.000241416,0.228849,-0.08892048288095011,0.1897568993575509,7.015126048459663e-05,0.23295287048408775,0.00024144514318780175,-0.10842168570364397
273,0.2629,53.8762,741.87,-0.212309,200.332,0.0417629,0.247618,-0.0934443,0.210124,-0.115156,0.174346,6.859e-05,0.000240886,0.22964,-0.08921125305342614,0.1904673962886989,6.859235234779604e-05,0.2338310455210868,0.0002409150153621642,-0.10877289836603887
274,0.2639,54.2897,742.908,0.273356,200.308,0.179763,0.348114,-0.0937622,0.210837,-0.115548,0.174936,7.08599e-05,0.000243254,0.230428,-0.08950074677861486,0.19116997929411506,7.086241062204124e-05,0.23471108075182134,0.00024328358865344235,-0.10912219092406517
275,0.2649,53.9336,742.795,-0.228999,200.595,0.0370674,0.244684,-0.094081,0.211548,-0.115942,0.175532,6.91667e-05,0.000242622,0.231218,-0.08979096767687256,0.19188012820512856,6.91690920713306e-05,0.23558927249040362,0.0002426514350979403,-0.10947312764176786
276,0.2659,54.3728,743.868,0.28998,200.56,0.184634,0.352087,-0.0943983,0.21226,-0.116332,0.176122,7.15704e-05,0.00024509,0.232005,-0.090079731188075,0.19258354496830976,7.157296122217716e-05,0.23646932531404374,0.00024512003700793983,-0.10982036540622231
277,0.2669,53.9904,743.714,-0.245816,200.857,0.0323295,0.241719,-0.0947166,0.21297,-0.116726,0.176717,6.97415e-05,0.000244355,0.232794,-0.09036931272029203,0.1932933433216355,6.974393199499218e-05,0.23734753026088096,0.0002443848571149765,-0.11017102709736282
278,0.2679,54.4555,744.822,0.306686,200.81,0.189533,0.356074,-0.0950334,0.213681,-0.117116,0.177305,7.22799e-05,0.000246925,0.23358,-0.09065743808055549,0.1939952061349537,7.228251225499527e-05,0.23822759718161235,0.0002469554884871883,-0.1105179927340979
279,0.2689,54.0467,744.625,-0.262643,201.116,0.027582,0.238745,-0.0953512,0.214389,-0.117509,0.177899,7.03148e-05,0.000246086,0.234367,-0.09094638123123489,0.1947046499713574,7.031727214346084e-05,0.23910457273312913,0.00024611628164361576,-0.11086749048214761
280,0.2699,54.5376,745.77,0.323353,201.058,0.194427,0.360051,-0.0956675,0.215099,-0.117898,0.178487,7.29879e-05,0.000248757,0.235151,-0.09123386942219724,0.1954073428770089,7.29905636815964e-05,0.2399846493700053,0.0002487879425880912,-0.11121329576486194
281,0.2709,54.1026,745.531,-0.279357,201.374,0.0228598,0.235788,-0.0959848,0.215806,-0.118291,0.17908,7.08871e-05,0.000247815,0.235938,-0.0915221751733033,0.19611642965478548,7.088961254986259e-05,0.24086162849269988,0.0002478457086736441,-0.1115625203125079
282,0.2719,54.6191,746.711,0.339855,201.304,0.19928,0.363992,-0.0963005,0.216515,-0.118679,0.179666,7.3694e-05,0.000250587,0.236721,-0.0918089363549669,0.19681755929348355,7.369671546952894e-05,0.24174171133980393,0.00025061839954498843,-0.111907167188809
283,0.2729,54.1583,746.43,-0.295833,201.63,0.0181992,0.232875,-0.0966175,0.217221,-0.119071,0.180259,7.14589e-05,0.000249542,0.237506,-0.09209678729535775,0.19752748257759456,7.146145324798958e-05,0.24261869052523566,0.0002495731381948474,-0.11225523135423743
284,0.2739,54.7,747.645,0.356062,201.549,0.204055,0.36787,-0.0969326,0.217929,-0.119459,0.180844,7.43975e-05,0.000252415,0.238288,-0.09238282253046304,0.1982282411067875,7.440026756255769e-05,0.24349877607164805,0.00025244685934655564,-0.11259960951078929
285,0.2749,54.2138,747.324,-0.311938,201.885,0.0136376,0.230034,-0.0972491,0.218634,-0.11985,0.181437,7.20308e-05,0.000251269,0.239072,-0.0926700379129003,0.19893900117329544,7.203339428030198e-05,0.2443757518064018,0.000251300570699442,-0.11294651523898114
286,0.2759,54.78,748.573,0.371838,201.792,0.208711,0.371658,-0.0975637,0.219341,-0.120237,0.18202,7.5098e-05,0.000254238,0.239852,-0.09295543902302439,0.19963818640367026,7.510081992534445e-05,0.24525583653622185,0.0002542703212193853,-0.11328973851959512
287,0.2769,54.2692,748.212,-0.32754,202.137,0.00921305,0.227291,-0.0978797,0.220044,-0.120628,0.182612,7.26034e-05,0.000252995,0.240635,-0.09324201982214209,0.20034858246650855,7.260603569059221e-05,0.2461315591697466,0.0002530270059339923,-0.11363637446009145
288,0.2779,54.8592,749.494,0.387049,202.034,0.213212,0.375327,-0.0981938,0.22075,-0.121015,0.183195,7.5795e-05,0.000256058,0.241415,-0.09352678777856716,0.2010485897223746,7.579787251366099e-05,0.24701163868203313,0.0002560907856479222,-0.11397933081683997
289,0.2789,54.3247,749.094,-0.342506,202.388,0.00496359,0.224674,-0.0985093,0.221453,-0.121405,0.183786,7.3177e-05,0.000254721,0.242196,-0.09381273496648224,0.20175861923195382,7.317967750197774e-05,0.24788859607843472,0.00025475344414860324,-0.1143248115047083
290,0.2799,54.9374,750.408,0.401562,202.274,0.217517,0.37885,-0.0988229,0.222157,-0.121791,0.184367,7.64878e-05,0.000257874,0.242974,-0.09409687073797912,0.20245704386243601,7.649072526638712e-05,0.24876741895943133,0.00025790725235808054,-0.11466661615492602
291,0.2809,54.3803,749.972,-0.356706,202.636,0.000926854,0.222212,-0.099138,0.222859,-0.122181,0.184957,7.37524e-05,0.000256447,0.243755,-0.0943822758460734,0.20316670284712934,7.375511977514293e-05,0.24964436145834457,0.00025647988534305277,-0.11501182885377381
292,0.2819,55.0145,751.315,0.415244,202.513,0.221589,0.3822,-0.099451,0.223562,-0.122566,0.185538,7.7176e-05,0.000259686,0.244532,-0.0946656898371302,0.203865945811895,7.717897814418784e-05,0.25052317030956806,0.000259719721328322,-0.11535248371939566
293,0.2829,54.4362,750.844,-0.370012,202.883,-0.00286058,0.21993,-0.0997657,0.224263,-0.122955,0.186127,7.433e-05,0.000258173,0.245311,-0.09495055371885563,0.20457523171817216,7.433276254298349e-05,0.2514000943779311,0.00025820632951711886,-0.11569654467903345
294,0.2839,55.0904,752.215,0.427968,202.751,0.22539,0.38535,-0.100078,0.224965,-0.12334,0.186707,7.7859e-05,0.000261492,0.246087,-0.09523315653020337,0.20527408800129954,7.786203109061418e-05,0.25227888566383627,0.0002615261920133616,-0.11603693597980214
295,0.2849,54.4925,751.712,-0.382303,203.128,-0.00636372,0.217853,-0.100392,0.225664,-0.123728,0.187296,7.49103e-05,0.000259901,0.246865,-0.09551720872052516,0.20598420354763114,7.491310584661903e-05,0.25315453460856796,0.00025993477719099545,-0.11637984711957894
296,0.2859,55.165,753.108,0.439615,202.987,0.228886,0.388276,-0.100704,0.226365,-0.124112,0.187874,7.85364e-05,0.000263294,0.247639,-0.09579936333299599,0.20668146390611342,7.853948406388866e-05,0.25403330390998313,0.000263328664907414,-0.1167190921190765
297,0.2869,54.5492,752.576,-0.393467,203.371,-0.00954968,0.216007,-0.101018,0.227064,-0.1245,0.188462,7.54938e-05,0.00026163,0.248416,-0.09608323776229155,0.20739120124922006,7.54966497287235e-05,0.25491017962177387,0.00026166422811346735,-0.1170617386336118
298,0.2879,55.2383,753.994,0.450072,203.222,0.232044,0.390955,-0.10133,0.227764,-0.124883,0.189039,7.92077e-05,0.000265089,0.249189,-0.09636521580124824,0.2080880669987757,7.921083701267762e-05,0.25578892427225464,0.00026512413919399513,-0.11739983923731656
299,0.2889,54.6064,753.435,-0.403399,203.612,-0.0123882,0.214412,-0.101643,0.228461,-0.125271,0.189627,7.60808e-05,0.000263361,0.249965,-0.09664800922922223,0.20879863166771084,7.608369421752137e-05,0.2566645142601358,0.0002633956825528472,-0.11774222167320458
300,0.2899,55.3101,754.872,0.45924,203.456,0.234833,0.393365,-0.101954,0.22916,-0.125654,0.190203,7.98725e-05,0.000266879,0.250737,-0.09692890801632648,0.20949510024324525,7.98756898929831e-05,0.25754322983091726,0.0002669146153686519,-0.11808006170180851
301,0.2909,54.6643,754.29,-0.412007,203.851,-0.0148521,0.213089,-0.102267,0.229856,-0.126041,0.190789,7.66718e-05,0.000265094,0.251512,-0.09721152503624642,0.2102040720804479,7.667473935768498e-05,0.2584187845765866,0.00026512914051957104,-0.11842129868431495
302,0.2919,55.3805,755.744,0.467028,203.689,0.237228,0.395489,-0.102577,0.230554,-0.126423,0.191365,8.05304e-05,0.000268663,0.252282,-0.09749134608898113,0.21090135042285052,8.053364265969698e-05,0.25929746751289096,0.0002686990931359823,-0.11875799743466187
303,0.2929,54.7228,755.141,-0.41921,204.088,-0.0169177,0.212055,-0.102889,0.231249,-0.126809,0.19195,7.72671e-05,0.000266829,0.253056,-0.09777288486666824,0.21160993495361513,7.727008517921519e-05,0.26017298345936246,0.000266864602024075,-0.11909809120533155
304,0.2939,55.4493,756.608,0.473362,203.921,0.239207,0.39731,-0.103199,0.231946,-0.12719,0.192525,8.11811e-05,0.00027044,0.253825,-0.09805253192482599,0.21230681099887616,8.118439527460275e-05,0.2610516302016521,0.00027047657219347876,-0.1194336509044005
305,0.2949,54.7821,755.988,-0.424943,204.324,-0.0185653,0.211323,-0.103511,0.23264,-0.127577,0.193109,7.78669e-05,0.000268566,0.254598,-0.09833389563984352,0.21301500494900516,7.786993170566525e-05,0.26192710378720796,0.00026860206707679524,-0.11977436414923526
306,0.2959,55.5166,757.465,0.478179,204.152,0.240749,0.398816,-0.103821,0.233336,-0.127957,0.193683,8.18243e-05,0.00027221,0.255366,-0.09861336881161542,0.21371147542975133,8.182764769926187e-05,0.26280571077120674,0.0002722470525040599,-0.12010878634661681
307,0.2969,54.8422,756.832,-0.429154,204.557,-0.0197793,0.210905,-0.104132,0.234028,-0.128343,0.194267,7.84715e-05,0.000270307,0.256137,-0.0988936564669255,0.21442048994348917,7.847457896859034e-05,0.26367987474891286,0.00027034353622901186,-0.12044835881338478
308,0.2979,55.5822,758.315,0.481435,204.382,0.241843,0.399997,-0.104441,0.234723,-0.128723,0.194839,8.24599e-05,0.000273974,0.256904,-0.09917205531224049,0.21511533717109876,8.246329991101753e-05,0.26455843752706487,0.0002740115343040639,-0.12078252494145014
309,0.2989,54.903,757.672,-0.431806,204.788,-0.0205485,0.210808,-0.104752,0.235415,-0.129108,0.195423,7.9081e-05,0.000272049,0.257674,-0.09945216924306433,0.21582517177953786,7.908412698465206e-05,0.2654338148114417,0.0002720860086851129,-0.12112095851670412
310,0.2999,55.6462,759.158,0.4831,204.611,0.242478,0.400848,-0.10506,0.236109,-0.129487,0.195994,8.30877e-05,0.000275731,0.25844,-0.09972949526453778,0.2165196061947816,8.309115187854488e-05,0.2663123306886699,0.0002757690172863203,-0.12145399055986772
311,0.3009,54.9647,758.508,-0.43288,205.018,-0.0208664,0.211039,-0.105371,0.236799,-0.129871,0.196576,7.96955e-05,0.000273795,0.259209,-0.10000943585849187,0.21722782667775653,7.969867577073408e-05,0.2671863877118399,0.00027383248527201864,-0.12179128746234269
312,0.3019,55.7086,759.993,0.483162,204.839,0.24265,0.401365,-0.105679,0.237492,-0.13025,0.197147,8.37076e-05,0.000277481,0.259974,-0.10028659026827735,0.21792306223765245,8.371110357896505e-05,0.26806485223132337,0.0002775195014137477,-0.12212406549897314
313,0.3029,55.0273,759.341,-0.432373,205.245,-0.020731,0.211596,-0.105989,0.238182,-0.130634,0.197729,8.0315e-05,0.000275544,0.260742,-0.10056545819853169,0.2186320997697826,8.031822533594024e-05,0.2689401189116414,0.0002755819657349612,-0.12246110514206854
314,0.3039,55.7693,760.821,0.481626,205.066,0.24236,0.401549,-0.106296,0.238873,-0.131012,0.198298,8.43196e-05,0.000279224,0.261505,-0.10084154222179886,0.2193256987447465,8.432315499740106e-05,0.26981725955099867,0.0002792629866497087,-0.12279275215908969
315,0.3049,55.0907,760.171,-0.430297,205.47,-0.0201451,0.212479,-0.106606,0.239562,-0.131395,0.198879,8.09394e-05,0.000277296,0.262272,-0.10112023814361026,0.22003433281398044,8.094267568159452e-05,0.27069246511652345,0.0002773344500897057,-0.12312865820489882
316,0.3059,55.8284,761.643,0.478512,205.293,0.241613,0.401406,-0.106913,0.240252,-0.131773,0.199448,8.49239e-05,0.000280961,0.263034,-0.10139615187557527,0.22072872988658387,8.492750613653399e-05,0.2715695454753795,0.00028100047323853516,-0.12346005293454754
317,0.3069,55.1549,760.998,-0.426682,205.694,-0.0191161,0.213682,-0.107222,0.24094,-0.132155,0.200027,8.15687e-05,0.00027905,0.263799,-0.1016737775692671,0.22143573647984538,8.157202681680076e-05,0.27244468633660257,0.0002790889380730466,-0.12379482724836166
318,0.3079,55.886,762.457,0.473857,205.518,0.240418,0.400941,-0.107528,0.241629,-0.132532,0.200596,8.55205e-05,0.000282691,0.264561,-0.10194862333978338,0.22213093117803773,8.552415698215299e-05,0.2733217028229733,0.0002827309608661732,-0.12412509433923069
319,0.3089,55.2199,761.821,-0.42157,205.916,-0.0176555,0.215195,-0.107837,0.242315,-0.132914,0.201174,8.22027e-05,0.000280807,0.265325,-0.10222607834616526,0.22283752704279158,8.220607873443697e-05,0.2741955011896824,0.00028084642997616704,-0.12445961465574484
320,0.3099,55.942,763.265,0.467715,205.742,0.238791,0.400166,-0.108143,0.243004,-0.133291,0.201742,8.61097e-05,0.000284414,0.266085,-0.10250075513849877,0.22353229605387215,8.611340754671737e-05,0.2750737244031567,0.0002844544494964296,-0.1247896311689981
321,0.3109,55.2857,762.641,-0.415022,206.136,-0.0157796,0.217007,-0.108451,0.243689,-0.133672,0.202319,8.28411e-05,0.000282567,0.266848,-0.10277714234010216,0.22423847790256612,8.284453141871317e-05,0.27594744912092417,0.00028260692581527636,-0.12512302280438325
322,0.3119,55.9965,764.066,0.460152,205.966,0.236751,0.399094,-0.108757,0.244377,-0.134048,0.202886,8.66917e-05,0.000286131,0.267607,-0.10305165053265064,0.22493281794633746,8.669545783401844e-05,0.27682560301622017,0.0002861719393791873,-0.12545191471225525
323,0.3129,55.3521,763.458,-0.407108,206.354,-0.013508,0.219104,-0.109064,0.245061,-0.134429,0.203463,8.34836e-05,0.000284329,0.268369,-0.10332697141201974,0.22563980812934537,8.348708485272915e-05,0.2776992504820548,0.00028436942532139575,-0.1257850540656732
324,0.3139,56.0497,764.861,0.451248,206.189,0.234319,0.397743,-0.10937,0.245747,-0.134804,0.204029,8.72668e-05,0.000287842,0.269127,-0.10360131138261142,0.22633371661832413,8.727060785784779e-05,0.27857605287672205,0.000287883430483582,-0.12611282320984296
325,0.3149,55.4192,764.271,-0.397914,206.571,-0.0108642,0.221467,-0.109677,0.246431,-0.135185,0.204605,8.413e-05,0.000286093,0.269887,-0.10387646354199942,0.2270402883122089,8.413353902758658e-05,0.2794508980598338,0.0002861339285054054,-0.12644571080508626
326,0.3159,56.1015,765.649,0.441096,206.411,0.231523,0.39613,-0.109981,0.247116,-0.13556,0.20517,8.78355e-05,0.000289547,0.270644,-0.10414884369320199,0.2277337619629638,8.783935765044326e-05,0.2803276221687303,0.0002895889227787496,-0.12677323224942538
327,0.3169,55.4868,765.081,-0.387534,206.785,-0.00787488,0.224077,-0.110288,0.247798,-0.135939,0.205744,8.47798e-05,0.000287858,0.271404,-0.10442382778597026,0.2284386834354386,8.478339390882716e-05,0.28120110343030325,0.0002878994350898889,-0.12710412248674208
328,0.3179,56.1521,766.432,0.429798,206.632,0.228391,0.394278,-0.110592,0.248482,-0.136313,0.206309,8.8398e-05,0.000291247,0.272159,-0.10469604156373269,0.22913294740268153,8.840190721826069e-05,0.2820777447622065,0.0002912894165252311,-0.1274305245039502
329,0.3189,55.5549,765.887,-0.376073,206.998,-0.00456931,0.226913,-0.110898,0.249163,-0.136692,0.206883,8.54326e-05,0.000289626,0.272918,-0.10496996266294856,0.2298386722381418,8.54362494684402e-05,0.28295113706271424,0.0002896679456594331,-0.12776116567470353
330,0.3199,56.2015,767.208,0.417463,206.851,0.224954,0.392208,-0.111202,0.249847,-0.137066,0.207446,8.8955e-05,0.000292941,0.273672,-0.10524201044094161,0.23053126635756227,8.895895661331643e-05,0.2838289758270973,0.0002929839114047539,-0.12808732200370587
331,0.3209,55.6235,766.69,-0.363642,207.21,-0.00097906,0.229952,-0.111508,0.250527,-0.137445,0.208019,8.6088e-05,0.000291394,0.274429,-0.10551576449923972,0.23123656282132465,8.609170567819291e-05,0.28470227641921,0.0002914364593555874,-0.1284177142953724
332,0.3219,56.2498,767.978,0.404211,207.07,0.221248,0.389945,-0.111811,0.251209,-0.137818,0.208582,8.95067e-05,0.000294631,0.275183,-0.10578675216589162,0.2319299441747289,8.951070584428678e-05,0.2855787422125913,0.00029467440797614763,-0.12874275386429213
333,0.3229,55.6923,767.489,-0.350359,207.42,0.00286255,0.233169,-0.112116,0.251888,-0.138196,0.209154,8.67455e-05,0.000293164,0.275939,-0.10605944561861558,0.23263480967511163,8.674926249963022e-05,0.28645194659789386,0.00029320697676515906,-0.1290720268668133
334,0.3239,56.2972,768.743,0.390162,207.288,0.217306,0.387514,-0.112419,0.252569,-0.138569,0.209716,9.00539e-05,0.000296317,0.276691,-0.10633026857484329,0.23332774513477483,9.005795497407654e-05,0.2873283187443738,0.0002963609062187622,-0.12939682242265504
335,0.3249,55.7614,768.284,-0.336344,207.628,0.00692093,0.236539,-0.112724,0.253247,-0.138945,0.210287,8.74047e-05,0.000294933,0.277446,-0.1066027962803402,0.23403217637322582,8.740851990207688e-05,0.28820142329347864,0.0002949764970132662,-0.12972410768393916
336,0.3259,56.3438,769.503,0.375443,207.505,0.213165,0.384942,-0.113027,0.253927,-0.139318,0.210849,9.05969e-05,0.000297998,0.278197,-0.10687345462625708,0.23472589737368987,9.060100402313864e-05,0.2890776981610075,0.00029804240581476904,-0.13004866005899218
337,0.3269,55.8306,769.076,-0.321723,207.835,0.0111608,0.240036,-0.113331,0.254604,-0.139694,0.211419,8.80651e-05,0.000296703,0.278951,-0.107144923830641,0.23542989175453077,8.806897784485734e-05,0.28995069924018435,0.0002967470206887146,-0.13037570027539636
338,0.3279,56.3895,770.258,0.360179,207.721,0.208862,0.382253,-0.113633,0.255283,-0.140066,0.211979,9.11363e-05,0.000299676,0.279701,-0.10741452535176543,0.23612192624548567,9.114045303881824e-05,0.29082687319236245,0.0002997209073383189,-0.13069914035130992
339,0.3289,55.8998,769.863,-0.306618,208.041,0.0155465,0.243635,-0.113937,0.25596,-0.140442,0.212548,8.87261e-05,0.000298473,0.280453,-0.10768583009564803,0.2368254797635132,8.873003627685172e-05,0.2917010588639748,0.0002985175474978785,-0.13102593603309953
340,0.3299,56.4347,771.007,0.344497,207.936,0.204432,0.379475,-0.114238,0.256637,-0.140813,0.213109,9.16726e-05,0.000301351,0.281203,-0.10795437624256654,0.23751953352153676,9.167680206112472e-05,0.29257583655966446,0.00030139641077409074,-0.13134826561499668
341,0.3309,55.969,770.647,-0.291153,208.245,0.0200428,0.247309,-0.114541,0.257313,-0.141188,0.213676,8.93873e-05,0.000300242,0.281954,-0.1082246251217922,0.23822140605910436,8.939129516383204e-05,0.2934499132298072,0.00030028707714047087,-0.13167394894594997
342,0.3319,56.4792,771.752,0.328521,208.15,0.199912,0.376633,-0.114843,0.257989,-0.141559,0.214236,9.22063e-05,0.000303023,0.282702,-0.10849390062235831,0.23891500423586076,9.22105511316218e-05,0.29432458097554015,0.0003030689161069855,-0.13199603815964744
343,0.3329,56.0381,771.426,-0.275449,208.448,0.024615,0.251034,-0.115145,0.258664,-0.141934,0.214803,9.00482e-05,0.00030201,0.283452,-0.10876309481400137,0.23961766822968,9.005225446090392e-05,0.29519854499737264,0.00030205560961138467,-0.13232147862143728
344,0.3339,56.5233,772.492,0.312369,208.362,0.195338,0.373752,-0.115446,0.259339,-0.142304,0.215362,9.2738e-05,0.000304693,0.284199,-0.10903131675303546,0.2403108082207983,9.274230030120734e-05,0.29607309914406454,0.0003047394236270762,-0.1326424602890769
345,0.3349,56.1069,772.201,-0.259621,208.65,0.0292294,0.254786,-0.115748,0.260013,-0.142678,0.215927,9.07084e-05,0.000303777,0.284948,-0.10930034866951199,0.24101178183384153,9.071251413139692e-05,0.2969469468664896,0.00030382314490529083,-0.13296679135523892
346,0.3359,56.567,773.228,0.296159,208.574,0.190741,0.370856,-0.116049,0.260687,-0.143048,0.216486,9.32681e-05,0.00030636,0.285694,-0.10956840891947095,0.24170570135232228,9.327244960455339e-05,0.2978213837608079,0.0003064069330174224,-0.13328753430133333
347,0.3369,56.1754,772.972,-0.24378,208.851,0.0338541,0.258541,-0.116351,0.26136,-0.143421,0.21705,9.13674e-05,0.000305542,0.286442,-0.10983727865860315,0.24240622089582686,9.137157412797414e-05,0.2986951115284948,0.0003055886827112442,-0.1336107577661152
348,0.3379,56.6105,773.959,0.279998,208.784,0.186154,0.367968,-0.116651,0.262033,-0.143791,0.217608,9.37971e-05,0.000308026,0.287187,-0.11010428742168854,0.24309967702335333,9.38014990854441e-05,0.29956942751288196,0.00030807344487970845,-0.13393126248871168
349,0.3389,56.2435,773.739,-0.22803,209.05,0.0384586,0.262277,-0.116952,0.262705,-0.144163,0.218172,9.20249e-05,0.000307305,0.287933,-0.11037210572249834,0.24380098299088715,9.202913442107885e-05,0.3004430316662907,0.00030735222301858656,-0.13425338014146782
350,0.3399,56.6538,774.687,0.263988,208.993,0.181607,0.365108,-0.117252,0.263377,-0.144533,0.218729,9.43254e-05,0.00030969,0.288677,-0.11063895406152935,0.24449397311824694,9.432984878032791e-05,0.30131722307898734,0.0003097379588987703,-0.13457364713776743
351,0.3409,56.3112,774.501,-0.212469,209.249,0.0430148,0.265975,-0.117552,0.264048,-0.144904,0.219291,9.26803e-05,0.000309065,0.289422,-0.11090572235806562,0.24519357530093888,9.268459495159753e-05,0.3021906999543922,0.0003091127655079351,-0.13489466076296985
352,0.3419,56.6969,775.41,0.248223,209.201,0.177126,0.362296,-0.117852,0.264719,-0.145273,0.219848,9.48534e-05,0.000311354,0.290165,-0.11117241063611627,0.24588734131828072,9.485789872587524e-05,0.30306476312946184,0.0003114024756876166,-0.13521382574358787
353,0.3429,56.3783,775.259,-0.197184,209.446,0.0474967,0.269616,-0.118152,0.265389,-0.145644,0.220409,9.33335e-05,0.000310823,0.29091,-0.11143901891968344,0.24658648020688223,9.333785570664332e-05,0.30393810905897456,0.0003108713104738037,-0.1355346019065794
354,0.3439,56.74,776.13,0.232786,209.408,0.172737,0.35955,-0.118451,0.266059,-0.146013,0.220965,9.53815e-05,0.000313017,0.291651,-0.11170465893786463,0.24727977500797182,9.53860489598668e-05,0.30481204032632636,0.0003130659949330816,-0.13585353079247764
355,0.3449,56.4449,776.012,-0.182256,209.642,0.0518809,0.273182,-0.11875,0.266727,-0.146383,0.221526,9.39841e-05,0.000312579,0.292394,-0.1119702195415535,0.24797969527102848,9.398851664399466e-05,0.3056839459533218,0.0003126278579062003,-0.1361732058425532
356,0.3459,56.7831,776.846,0.217755,209.613,0.168462,0.356886,-0.119049,0.267397,-0.146751,0.222081,9.591e-05,0.000314679,0.293135,-0.11223570075449141,0.24867251624193942,9.591459951119319e-05,0.3065590473233333,0.00031472851663028045,-0.13649103561853748
357,0.3469,56.5108,776.761,-0.167756,209.838,0.0561465,0.27666,-0.119348,0.268064,-0.147121,0.222641,9.46318e-05,0.000314331,0.293877,-0.11250110260041257,0.24937196867943845,9.463627773009797e-05,0.307430812909401,0.000314380407165471,-0.13681047483545927
358,0.3479,56.8263,777.559,0.203193,209.817,0.16432,0.354317,-0.119646,0.268733,-0.147488,0.223195,9.64391e-05,0.000316341,0.294617,-0.11276553786902577,0.25006431251162065,9.644375039941089e-05,0.30830577676601423,0.00031639104109060234,-0.13712720726723837
359,0.3489,56.5761,777.505,-0.153744,210.032,0.0602753,0.280036,-0.119945,0.269399,-0.147857,0.223754,9.52763e-05,0.00031608,0.295358,-0.11303078131733124,0.250763293809386,9.528083893073358e-05,0.30917739863120364,0.0003161299585467958,-0.13744554859017055
360,0.3499,56.8696,778.268,0.189158,210.02,0.160328,0.351856,-0.120242,0.270067,-0.148224,0.224308,9.69692e-05,0.000318002,0.296096,-0.11329417205981862,0.2514564086492397,9.697390166474307e-05,0.3100522212917274,0.0003180525679959967,-0.13776204799264524
361,0.3509,56.6406,778.244,-0.140272,210.225,0.064252,0.2833,-0.12054,0.270732,-0.148593,0.224865,9.59175e-05,0.000317826,0.296836,-0.11355837102894328,0.25215366403645567,9.592210023057213e-05,0.3109236957520287,0.0003178765120344096,-0.13808015510256466
362,0.3519,56.913,778.974,0.175697,210.221,0.1565,0.349512,-0.120838,0.271399,-0.148959,0.225419,9.75005e-05,0.000319664,0.297574,-0.11382249127850486,0.2528475493548181,9.750525332830051e-05,0.3117983735297063,0.0003197150979810104,-0.1383955600431721
363,0.3529,56.7044,778.979,-0.127384,210.418,0.0680638,0.286442,-0.121135,0.272063,-0.149327,0.225975,9.65553e-05,0.000319569,0.298312,-0.11408564691804834,0.25354432627829415,9.6559961612952e-05,0.31266969689707436,0.00031962006761254713,-0.13871257214327226
364,0.3539,56.9566,779.677,0.162847,210.422,0.152846,0.347293,-0.121432,0.272729,-0.149693,0.226528,9.8033e-05,0.000321326,0.299049,-0.11434872441197197,0.254237727998631,9.803780539163753e-05,0.31354422610110766,0.00032137763072914716,-0.1390277456615957
365,0.3549,56.7674,779.709,-0.115112,210.61,0.0717005,0.289456,-0.12173,0.273392,-0.150061,0.227083,9.71894e-05,0.000321308,0.299786,-0.11461260917131522,0.25493402314169944,9.719412304276531e-05,0.3144153946834862,0.0003213596249445061,-0.13934452516018947
366,0.3559,57.0005,780.377,0.150636,210.621,0.149376,0.345205,-0.122026,0.274057,-0.150426,0.227635,9.8567e-05,0.000322988,0.300522,-0.11487464505577638,0.2556269379493661,9.857185788630929e-05,0.31528977161905924,0.00032304016624018494,-0.13965860708506772
367,0.3569,56.8296,780.435,-0.103481,210.801,0.0751545,0.292336,-0.122323,0.274719,-0.150793,0.22819,9.78199e-05,0.000323043,0.301258,-0.11513748825204806,0.25632400431795244,9.782468452246285e-05,0.31616078172040485,0.0003230951840089702,-0.13997429444409382
368,0.3579,57.0445,781.073,0.139084,210.819,0.146096,0.343253,-0.122619,0.275383,-0.151158,0.228741,9.91026e-05,0.00032465,0.301993,-0.115399368795293,0.2570164295899757,9.91075108249806e-05,0.31703500268870877,0.00032470270451456784,-0.1402881465451289
369,0.3589,56.891,781.156,-0.0925076,210.991,0.0784207,0.295079,-0.122915,0.276044,-0.151524,0.229295,9.84465e-05,0.000324774,0.302728,-0.11566117183336844,0.25771300962682275,9.845134601560446e-05,0.317905850609016,0.0003248267447855113,-0.14060274350873725
370,0.3599,57.0888,781.767,0.128203,211.015,0.143009,0.34144,-0.123211,0.276707,-0.151889,0.229846,9.96397e-05,0.000326313,0.303461,-0.11592289738921258,0.2584062004516616,9.964466419987161e-05,0.3187799119072725,0.00032636624587834007,-0.1409163662677212
371,0.3609,56.9516,781.872,-0.0822005,211.18,0.0814961,0.297682,-0.123507,0.277368,-0.152254,0.230399,9.90694e-05,0.000326502,0.304195,-0.11618454548575674,0.25910229153195585,9.907430753508528e-05,0.31965191359385114,0.00032655530757952356,-0.14122987457528668
372,0.3619,57.1334,782.458,0.117997,211.211,0.140116,0.339765,-0.123802,0.278029,-0.152618,0.230949,0.000100179,0.000327977,0.304928,-0.11644523259159978,0.25979498826643854,0.00010018401808364885,0.3205244918640844,0.0003280307903368307,-0.1415424100160403
373,0.3629,57.0115,782.584,-0.0725613,211.368,0.0843798,0.300147,-0.124097,0.278689,-0.152983,0.2315,9.96886e-05,0.000328226,0.305661,-0.11670584280608864,0.26048932657761137,9.969356907357785e-05,0.32139632570223364,0.00032827987204742115,-0.14185568985933494
374,0.3639,57.1781,783.145,0.108465,211.405,0.137418,0.33823,-0.124392,0.279349,-0.153347,0.23205,0.000100719,0.00032964,0.306392,-0.11696637615190297,0.26118278639119685,0.00010072407232875058,0.32226873514064325,0.00032969433723528674,-0.14216799754477916
375,0.3649,57.0705,783.292,-0.0635853,211.556,0.0870728,0.302473,-0.124687,0.280008,-0.153711,0.232601,0.000100304,0.000329947,0.307124,-0.11722683265171552,0.2618778895898435,0.00010030903061442054,0.3231403974182758,0.000330001438498595,-0.14248019157091296
376,0.3659,57.2232,783.83,0.0995974,211.598,0.134913,0.336832,-0.124981,0.280667,-0.154075,0.233149,0.000101261,0.000331304,0.307854,-0.11748632981496376,0.2625695881814427,0.00010126612706806704,0.3240126343106642,0.0003313588872315698,-0.14279227197910116
377,0.3669,57.1288,783.995,-0.0552618,211.743,0.0895778,0.304662,-0.125276,0.281325,-0.154438,0.233699,0.000100916,0.000331664,0.308585,-0.11774663295106802,0.26326419245360744,0.00010092109219073109,0.32488412131182054,0.0003317190065854625,-0.14310338191450322
378,0.3679,57.2684,784.512,0.0913808,211.789,0.132595,0.335568,-0.12557,0.281984,-0.154801,0.234247,0.000101805,0.000332969,0.309315,-0.11800597731549078,0.26395665094737053,0.00010181018230492889,0.325757507696971,0.0003330244403305649,-0.14341437893749365
379,0.3689,57.1862,784.693,-0.0475756,211.929,0.0918991,0.306719,-0.125864,0.282641,-0.155164,0.234796,0.000101524,0.000333377,0.310044,-0.11826524544387773,0.26465075366250224,0.00010152915373562443,0.3266288165731521,0.00033343257628781764,-0.1437252630890521
380,0.3699,57.3139,785.191,0.083797,211.98,0.130461,0.334436,-0.126157,0.283298,-0.155526,0.235344,0.00010235,0.000334634,0.310773,-0.11852355588263541,0.2653439722000406,0.00010235523793999945,0.3275006980873558,0.0003346899962028971,-0.14403517844574987
381,0.3709,57.243,785.388,-0.0405069,212.114,0.0940419,0.308646,-0.126451,0.283954,-0.155889,0.235892,0.000102128,0.000335087,0.311501,-0.11878267186529001,0.26603757072544454,0.0001021332152417731,0.3283718242434406,0.0003351431479201583,-0.1443458372879829
382,0.3719,57.3596,785.867,0.0768238,212.169,0.128505,0.33343,-0.126744,0.28461,-0.156251,0.236438,0.000102896,0.000336299,0.312228,-0.11904083072031435,0.2667290159864393,0.0001029012939750551,0.32924352204576324,0.00033635555484834434,-0.14465552803747705
383,0.3729,57.299,786.078,-0.0340324,212.298,0.0960129,0.310449,-0.127037,0.285266,-0.156613,0.236986,0.000102729,0.000336793,0.312956,-0.11929891394587444,0.2674233737238434,0.00010273427680451697,0.3301157918694466,0.000336849721130017,-0.14496510669920903
384,0.3739,57.4055,786.54,0.0704361,212.357,0.126718,0.332545,-0.12733,0.285921,-0.156974,0.237532,0.000103444,0.000337964,0.313682,-0.11955692156412634,0.2681155758398779,0.00010344935051498361,0.3309873031018913,0.0003380211162669067,-0.14527371858789317
385,0.3749,57.3543,786.764,-0.0281259,212.482,0.0978194,0.312133,-0.127623,0.286575,-0.157336,0.238078,0.000103327,0.000338496,0.314408,-0.11981485359722,0.2688081560014648,0.00010333233841830491,0.3318580535024649,0.0003385532962356663,-0.1455830735051461
386,0.3759,57.4516,787.21,0.0646059,212.544,0.125094,0.331777,-0.127915,0.28723,-0.157696,0.238623,0.000103994,0.00033963,0.315134,-0.12007183013956846,0.2694998449145938,0.00010399940756355974,0.3327307062900977,0.00033968768079839506,-0.1458906082391107
387,0.3769,57.409,787.445,-0.022759,212.665,0.0994694,0.313704,-0.128207,0.287883,-0.158057,0.239169,0.000103921,0.000340196,0.315859,-0.120328731655721,0.27019318109346946,0.00010392639997425235,0.333601263647348,0.00034025387322178524,-0.1461988860820379
388,0.3779,57.4978,787.878,0.0593036,212.73,0.123623,0.331117,-0.128499,0.288536,-0.158418,0.239713,0.000104544,0.000341295,0.316583,-0.12058555816758199,0.27088435416601464,0.00010454946491433859,0.33447238966419945,0.0003413532477649639,-0.1465070526567488
389,0.3789,57.4629,788.123,-0.0179018,212.847,0.100971,0.315169,-0.128791,0.289189,-0.158778,0.240258,0.000104513,0.000341893,0.317308,-0.12084230969704945,0.2715771749155407,0.0001045184616739192,0.3353440847121083,0.00034195145207305266,-0.14681425481808552
390,0.3799,57.5442,788.543,0.0544984,212.915,0.122296,0.330561,-0.129083,0.289841,-0.159138,0.240802,0.000105095,0.000342961,0.318031,-0.12109898626601501,0.27226910108554914,0.00010510052267287406,0.33621501294709244,0.0003430198178475674,-0.1471213464065485
391,0.3809,57.5163,788.797,-0.0135233,213.028,0.102334,0.316533,-0.129374,0.290493,-0.159498,0.241346,0.000105101,0.000343586,0.318754,-0.1213547092515127,0.2729614037657957,0.0001051065233035331,0.3370865092124433,0.0003436450324303397,-0.1474283274619368
392,0.3819,57.5906,789.204,0.0501585,213.099,0.121106,0.330102,-0.129665,0.291144,-0.159857,0.241889,0.000105648,0.000344627,0.319476,-0.12161035783244789,0.2736528095077111,0.00010565358094649646,0.337957235920733,0.0003446863907068387,-0.14773434575880695
393,0.3829,57.569,789.467,-0.00959178,213.209,0.103568,0.317804,-0.129956,0.291795,-0.160216,0.242432,0.000105687,0.000345277,0.320198,-0.12186593203046936,0.2743445907848929,0.00010569258506776258,0.3388285296566571,0.0003453366149643866,-0.14804025421482625
394,0.3839,57.6372,789.863,0.046252,213.281,0.120042,0.329733,-0.130247,0.292445,-0.160575,0.242974,0.000106201,0.000346292,0.32092,-0.12212143186721924,0.275035472765202,0.00010620663952587428,0.3396990510897502,0.00034635196599630547,-0.14834605286942038
395,0.3849,57.6212,790.133,-0.00607559,213.389,0.10468,0.318988,-0.130537,0.293095,-0.160934,0.243516,0.00010627,0.000346965,0.321641,-0.1223759797407521,0.2757267293050407,0.00010627564685639079,0.34057013854571205,0.0003470251993178408,-0.1486517417620008
396,0.3859,57.6838,790.519,0.0427471,213.463,0.119095,0.329447,-0.130827,0.293744,-0.161292,0.244058,0.000106754,0.000347957,0.322361,-0.12263045380610438,0.2764183606074757,0.00010675969841100752,0.3414404509514559,0.0003480175440588873,-0.1489564698888608
397,0.3869,57.6729,790.795,-0.00294332,213.568,0.10568,0.320092,-0.131118,0.294393,-0.16165,0.244599,0.00010685,0.00034865,0.323081,-0.12288573119938462,0.2771090897659547,0.00010685570866453276,0.34231132837327904,0.00034871078547538126,-0.1492610889425765
398,0.3879,57.7304,791.173,0.0396125,213.643,0.118257,0.329239,-0.131407,0.295042,-0.162008,0.24514,0.000107309,0.000349622,0.3238,-0.12313918059786588,0.27780019271000844,0.0001073147578167788,0.34318277117799556,0.00034968312489480624,-0.14956559896218924
399,0.3889,57.724,791.453,-0.000164208,213.746,0.106577,0.321121,-0.131697,0.29569,-0.162366,0.245681,0.000107428,0.000350333,0.324519,-0.1233934333670591,0.2784916696419095,0.00010743377059418968,0.34405343567855073,0.00035039437377237803,-0.14986999998672634
400,0.3899,57.7771,791.823,0.0368177,213.823,0.117518,0.329101,-0.131987,0.296337,-0.162723,0.246221,0.000107863,0.000351286,0.325237,-0.12364761241363953,0.2791822415811589,0.00010786881742252952,0.3449233196285475,0.00035134770815248295,-0.15017344222906803
401,0.3909,57.7746,792.108,0.00229161,213.923,0.10738,0.322083,-0.132276,0.296984,-0.16308,0.246761,0.000108004,0.000352013,0.325955,-0.12390084166026338,0.27987318652995885,0.0001080098326420309,0.3457937665755699,0.00035207496384659365,-0.1504767761618636
402,0.3919,57.8237,792.47,0.0343332,214.002,0.116869,0.329028,-0.132565,0.297631,-0.163437,0.2473,0.000108418,0.00035295,0.326672,-0.12415399773420888,0.2805632241259248,0.00010842387744380844,0.34666477688399455,0.00035301229417994406,-0.1507800018237727
403,0.3929,57.8248,792.759,0.00445283,214.1,0.108098,0.322983,-0.132854,0.298277,-0.163794,0.247839,0.000108578,0.00035369,0.327389,-0.12440708065661987,0.2812536337524081,0.00010858389480428166,0.34753500338275756,0.00035375255568292907,-0.1510831192534411
404,0.3939,57.8704,793.115,0.0321309,214.179,0.116304,0.329014,-0.133142,0.298922,-0.16415,0.248378,0.000108974,0.000354613,0.328105,-0.12465921510828704,0.2819444156099873,0.00010897993788194782,0.34840444382433944,0.00035467588262272365,-0.1513852798752049
405,0.3949,57.8745,793.407,0.00634682,214.276,0.108737,0.323827,-0.133431,0.299568,-0.164506,0.248916,0.000109149,0.000355366,0.328821,-0.1249121520439731,0.28263428726442075,0.00010915495696872668,0.3492757945110194,0.00035542914997721553,-0.15168733294693248
406,0.3959,57.917,793.757,0.030184,214.356,0.115813,0.329054,-0.133719,0.300212,-0.164862,0.249454,0.000109529,0.000356275,0.329536,-0.1251641410560249,0.28332453016966164,0.0001095349985198446,0.35014500797938,0.00035633847347549263,-0.1519892785069048
407,0.3969,57.9237,794.051,0.00799948,214.451,0.109305,0.324621,-0.134007,0.300856,-0.165218,0.249991,0.000109719,0.000357039,0.330251,-0.12541605750569074,0.2840138605109941,0.00010972501934958245,0.3510147814015001,0.00035710274601008507,-0.15229111659338912
408,0.3979,57.9635,794.395,0.0284674,214.532,0.115391,0.329141,-0.134295,0.3015,-0.165573,0.250528,0.000110084,0.000357937,0.330965,-0.12566790141386563,0.2847035611221287,0.0001100900594659393,0.35188511513810594,0.0003580010670918288,-0.15259199983706284
409,0.3989,57.9726,794.692,0.00943514,214.625,0.10981,0.325369,-0.134582,0.302144,-0.165928,0.251065,0.000110287,0.00035871,0.331679,-0.12591879872067413,0.28539363220195324,0.00011029308183485576,0.3527560095501565,0.0003587743441253455,-0.15289277628614217
410,0.3999,58.01,795.031,0.0269574,214.706,0.115028,0.329271,-0.13487,0.302786,-0.166283,0.251601,0.000110639,0.000359598,0.332392,-0.12617049786022672,0.28608278786603214,0.00011064512071978783,0.35362475774661983,0.000359662663111493,-0.15319344597853257
411,0.4009,58.0211,795.33,0.0106765,214.799,0.110258,0.326076,-0.135157,0.303429,-0.166637,0.252137,0.000110853,0.000360379,0.333105,-0.1264212509425523,0.2867723130165605,0.00011085914442077183,0.35449541835323806,0.00036044394431300475,-0.15349316244571154
412,0.4019,58.0564,795.664,0.0256322,214.88,0.114721,0.329441,-0.135444,0.304071,-0.166992,0.252673,0.000111194,0.000361258,0.333817,-0.12667193206906946,0.28746220785163623,0.0001112001822820563,0.35536528360869046,0.0003613232615298223,-0.1537936190388426
413,0.4029,58.0693,795.964,0.0117447,214.971,0.110656,0.326748,-0.13573,0.304712,-0.167346,0.253208,0.000111417,0.000362046,0.334529,-0.12692166818253126,0.28815118441763476,0.00011142320710444409,0.3562343512619097,0.0003621115465630709,-0.15409312308235945
414,0.4039,58.1027,796.294,0.0244714,215.053,0.114461,0.329645,-0.136017,0.305353,-0.1677,0.253743,0.000111749,0.000362918,0.33524,-0.12717220570990795,0.28884052968471474,0.0001117552441520786,0.35710397616607437,0.00036298386270461336,-0.15439252112020896
415,0.4049,58.117,796.595,0.012659,215.143,0.111009,0.327387,-0.136303,0.305994,-0.168053,0.254277,0.00011198,0.000363711,0.33595,-0.1274217987655667,0.289528954320585,0.00011198626999431305,0.3579741586784968,0.00036377715086555185,-0.1546909678813011
416,0.4059,58.1489,796.922,0.0234565,215.226,0.114245,0.329879,-0.136589,0.306634,-0.168406,0.254811,0.000112304,0.000364576,0.33666,-0.12767132044781826,0.29021774667338285,0.00011231030633029881,0.358843540312499,0.00036464246590695026,-0.1549893093092789
417,0.4069,58.1645,797.223,0.0134373,215.314,0.111322,0.327997,-0.136875,0.307273,-0.168759,0.255345,0.000112542,0.000365374,0.33737,-0.12792077077707276,0.2909069069395209,0.0001125483330883803,0.3597121188160357,0.0003654407572102336,-0.1552875454413185
418,0.4079,58.1949,797.546,0.0225704,215.397,0.114067,0.33014,-0.137161,0.307913,-0.169112,0.255878,0.000112858,0.000366233,0.338079,-0.1281701497737342,0.29159514371972817,0.0001128643687036135,0.3605826131005361,0.00036630007149285326,-0.15558567631458287
419,0.4089,58.2116,797.848,0.0140958,215.485,0.111599,0.328583,-0.137447,0.308551,-0.169465,0.256411,0.000113102,0.000367036,0.338788,-0.12841945745820071,0.29228374742791696,0.00011310839627243219,0.3614509417750875,0.00036710336595424664,-0.15588370196622148
420,0.4099,58.2408,798.168,0.0217976,215.567,0.113922,0.330426,-0.137732,0.30919,-0.169817,0.256944,0.000113412,0.00036789,0.339496,-0.1286678225191228,0.29297271825971194,0.00011341843138401586,0.36232118694060067,0.000367957679825448,-0.1561807786145719
421,0.4109,58.2585,798.469,0.0146492,215.654,0.111846,0.329147,-0.138017,0.309827,-0.170169,0.257476,0.00011366,0.000368696,0.340204,-0.12891611680608828,0.29366076274943254,0.0001136664595424719,0.3631892619892316,0.0003687639767242512,-0.1564777507103443
422,0.4119,58.2866,798.786,0.0211242,215.737,0.113807,0.330732,-0.138302,0.310465,-0.170521,0.258008,0.000113965,0.000369545,0.340911,-0.12916434033926494,0.2943491733762058,0.00011397149425729225,0.36405925423639696,0.0003696132901653826,-0.156774618290335
423,0.4129,58.305,799.088,0.0151107,215.823,0.112067,0.329692,-0.138587,0.311102,-0.170873,0.258539,0.000114218,0.000370354,0.341618,-0.12941249313881453,0.29503665529756495,0.00011422452312404019,0.36492843678659725,0.0003704225895098112,-0.15707138139132681
424,0.4139,58.3322,799.402,0.0205376,215.906,0.113717,0.331057,-0.138871,0.311738,-0.171224,0.25907,0.000114518,0.000371199,0.342324,-0.12965970488503364,0.29572450236876335,0.0001145245574365461,0.3657968073849729,0.00037126790287400624,-0.15736719741770877
425,0.4149,58.3513,799.704,0.0154922,215.991,0.112263,0.33022,-0.139155,0.312374,-0.171575,0.259601,0.000114774,0.000372011,0.343029,-0.12990684643308537,0.29641271478374653,0.0001147805867875995,0.36666573044271233,0.0003720802046733862,-0.1576629096308858
426,0.4159,58.3777,800.015,0.0200264,216.074,0.11365,0.331398,-0.13944,0.31301,-0.171926,0.260131,0.00011507,0.000372852,0.343735,-0.13015478764855049,0.2970999956359195,0.00011507662080645353,0.3675352063112918,0.00037292151794665607,-0.15795851806728978
427,0.4169,58.3973,800.316,0.0158044,216.159,0.11244,0.330734,-0.139723,0.313645,-0.172276,0.260661,0.000115329,0.000373666,0.344439,-0.13040091901441497,0.29778764084348985,0.00011533565064469897,0.36840386693785954,0.00037373582183608534,-0.15825318101694208
428,0.4179,58.423,800.626,0.0195808,216.241,0.113603,0.331753,-0.140007,0.31428,-0.172627,0.261191,0.000115621,0.000374504,0.345143,-0.13064785008754276,0.29847565059961734,0.00011562768436546023,0.36927307933909526,0.000374574135378003,-0.15854858230444635
429,0.4189,58.443,800.926,0.0160567,216.325,0.112599,0.331236,-0.140291,0.314914,-0.172977,0.26172,0.000115883,0.000375319,0.345847,-0.13089471104220307,0.2991627259341878,0.00011588971469422837,0.37014147372332795,0.00037538944098813865,-0.15884303876775274
430,0.4199,58.4681,801.233,0.0191918,216.407,0.113572,0.33212,-0.140574,0.315548,-0.173327,0.262249,0.000116172,0.000376155,0.34655,-0.1311406330393743,0.29985016482776317,0.0001161787482280019,0.3710104188441654,0.0003762257551633841,-0.15913739218933043
431,0.4209,58.4885,801.533,0.0162574,216.491,0.112743,0.331727,-0.140857,0.316181,-0.173676,0.262777,0.000116436,0.000376971,0.347253,-0.13138648545046705,0.30053666693539993,0.0001164427789341893,0.37187854317165603,0.0003770420624966686,-0.15943080203645987
432,0.4219,58.5131,801.838,0.0188514,216.573,0.113556,0.332497,-0.14114,0.316814,-0.174026,0.263305,0.000116723,0.000377805,0.347955,-0.13163226829517172,0.301223531611859,0.00011672981239452263,0.3727472171958066,0.0003778763772976923,-0.15972494977688978
433,0.4229,58.5337,802.137,0.0164139,216.656,0.112875,0.332209,-0.141423,0.317446,-0.174375,0.263833,0.000116988,0.000378622,0.348657,-0.13187798159317254,0.30191075904862785,0.00011699484336302746,0.37361506764893093,0.0003786936863565682,-0.1600181546021996
434,0.4239,58.5578,802.44,0.018553,216.737,0.113553,0.332884,-0.141705,0.318078,-0.174724,0.264361,0.000117272,0.000379453,0.349358,-0.13212275748734015,0.3025983494372939,0.0001172788766297117,0.37448346675689836,0.00037952500139626366,-0.16031125711687955
435,0.4249,58.5787,802.738,0.0165326,216.82,0.112995,0.332683,-0.141987,0.31871,-0.175072,0.264888,0.000117539,0.000380271,0.350059,-0.13236746436443736,0.30328499968389555,0.00011754590797896647,0.3753524148665681,0.0003803433121825073,-0.16060341796046762
436,0.4259,58.6024,803.039,0.0182903,216.901,0.113561,0.333278,-0.14227,0.319341,-0.175421,0.265414,0.000117821,0.000381101,0.350759,-0.13261296963138847,0.3039707079191851,0.0001178279411666594,0.3762205361037949,0.00038117362821199485,-0.16089631625387435
437,0.4269,58.6235,803.336,0.0166193,216.984,0.113107,0.333152,-0.142551,0.319971,-0.175769,0.26594,0.000118089,0.000381919,0.351459,-0.13285667114525568,0.30465677693188287,0.00011809597278045203,0.37708782820986797,0.00038199194034671535,-0.16118827353230503
438,0.4279,58.6469,803.636,0.0180582,217.065,0.113577,0.33368,-0.142833,0.320602,-0.176117,0.266466,0.000118369,0.000382747,0.352158,-0.13310117108788055,0.30534320691180716,0.00011837600588648911,0.37795704483847414,0.0003828202569791106,-0.1614801292272795
439,0.4289,58.668,803.931,0.0166787,217.146,0.11321,0.333615,-0.143115,0.321231,-0.176464,0.266992,0.000118638,0.000383565,0.352857,-0.13334560209124247,0.306029998048877,0.00011864503776592983,0.3788240524649906,0.00038363857046075367,-0.1617710451456067
440,0.4299,58.6911,804.229,0.017852,217.227,0.113602,0.334087,-0.143396,0.321861,-0.176812,0.267517,0.000118917,0.000384392,0.353555,-0.1335890977643105,0.30671584381661354,0.00011892407090674517,0.37969298530314766,0.0003844658880718388,-0.16206269807134366
441,0.4309,58.7123,804.524,0.0167151,217.308,0.113307,0.334073,-0.143677,0.32249,-0.177159,0.268042,0.000119186,0.00038521,0.354253,-0.13383252502470688,0.3074020497479131,0.00011919310293340146,0.3805610851796932,0.0003852842028997383,-0.16235341187335117
442,0.4319,58.7351,804.821,0.0176678,217.389,0.113633,0.334499,-0.143958,0.323118,-0.177506,0.268566,0.000119464,0.000386036,0.35495,-0.13407588389165281,0.30808730794394856,0.00011947113610788485,0.3814283498337845,0.00038611052148573854,-0.1626440248151697
443,0.4329,58.7564,805.114,0.0167322,217.47,0.113398,0.334528,-0.144239,0.323746,-0.177852,0.26909,0.000119733,0.000386854,0.355647,-0.13431917438436414,0.30877292530937317,0.00011974016828175671,0.38229615930113203,0.0003869288376587843,-0.16293369986591
444,0.4339,58.779,805.409,0.0175022,217.55,0.113671,0.334916,-0.144519,0.324374,-0.178199,0.269614,0.00012001,0.000387678,0.356344,-0.13456153108401514,0.30945890203244075,0.00012001720148813178,0.38316451392398587,0.00038775315682770817,-0.16322411148272697
445,0.4349,58.8003,805.701,0.0167331,217.63,0.113485,0.33498,-0.1448,0.325001,-0.178545,0.270137,0.00012028,0.000388497,0.35704,-0.13480468512903732,0.3101439281569207,0.00012028723392920604,0.3840320300120894,0.0003885724747330066,-0.16351358585819908
446,0.4359,58.8227,805.995,0.0173524,217.71,0.113713,0.335337,-0.14508,0.325627,-0.178891,0.27066,0.000120555,0.00038932,0.357735,-0.13504690590471002,0.31082931264376734,0.00012056226704593165,0.384898705303941,0.00038939579486707565,-0.16380296009286266
447,0.4369,58.844,806.286,0.0167205,217.79,0.113568,0.33543,-0.14536,0.326254,-0.179237,0.271183,0.000120825,0.000390138,0.35843,-0.13528905886805975,0.3115150556804531,0.00012083229963422149,0.3857673090709912,0.00039021411372752723,-0.16409223422136043
448,0.4379,58.8661,806.578,0.0172157,217.869,0.113759,0.335761,-0.145639,0.32688,-0.179582,0.271705,0.0001211,0.00039096,0.359124,-0.13553027956878316,0.31219984525404754,0.00012110733290104925,0.38663507098761185,0.00039103643482141237,-0.1643805726593135
449,0.4389,58.8875,806.868,0.0166968,217.949,0.113648,0.335878,-0.145919,0.327505,-0.179927,0.272227,0.00012137,0.000391778,0.359818,-0.13577229720645334,0.3128849923811128,0.00012137736563633261,0.3875019887905724,0.00039185475502390155,-0.16466881163766334
450,0.4399,58.9094,807.159,0.0170901,218.028,0.113809,0.336187,-0.146198,0.32813,-0.180272,0.272749,0.000121643,0.000392599,0.360512,-0.13601338310248645,0.3135704972483402,0.00012165039880973616,0.38836944858651523,0.000392676077073828,-0.1649569511907174
451,0.4409,58.9307,807.448,0.0166638,218.108,0.113726,0.336324,-0.146477,0.328754,-0.180617,0.27327,0.000121914,0.000393417,0.361205,-0.13625440174493675,0.3142550457868163,0.00012192143181377624,0.3892360614775352,0.00039349439861768865,-0.1652449913527717
452,0.4419,58.9526,807.737,0.0169738,218.186,0.113862,0.336617,-0.146756,0.329378,-0.180962,0.273791,0.000122186,0.000394237,0.361897,-0.13649535315256556,0.31493995106800443,0.0001221934650132983,0.3901032153037536,0.0003943147216194376,-0.16553293215811005
453,0.4429,58.9738,808.024,0.0166231,218.265,0.113802,0.33677,-0.147035,0.330002,-0.181306,0.274311,0.000122457,0.000395055,0.362589,-0.13673623734412876,0.3156238976532604,0.00012246449816455396,0.39097091040281917,0.00039513304450355946,-0.1658199394613612
454,0.4439,58.9955,808.312,0.0168653,218.344,0.113918,0.337048,-0.147314,0.330625,-0.18165,0.274831,0.000122729,0.000395874,0.363281,-0.13697705433837692,0.31630819998322623,0.0001227365315117357,0.3918377552741401,0.00039595236845291204,-0.16610684805107978
455,0.4449,59.0167,808.599,0.0165763,218.422,0.113876,0.337215,-0.147592,0.331248,-0.181994,0.275351,0.000122999,0.000396691,0.363972,-0.13721694137142837,0.3169928582429373,0.00012300656468711146,0.3927051403580748,0.0003967696922799746,-0.1663936579612173
456,0.4459,59.0382,808.885,0.0167632,218.5,0.113976,0.337482,-0.14787,0.33187,-0.182337,0.275871,0.00012327,0.000397509,0.364663,-0.13745676172515342,0.31767787261752534,0.00012327759805863536,0.3935716724189111,0.0003975880171722679,-0.16667953590566642
457,0.4469,59.0594,809.17,0.0165244,218.579,0.113949,0.337659,-0.148148,0.332492,-0.182681,0.27639,0.00012354,0.000398326,0.365353,-0.13769651541808636,0.31836192492963433,0.00012354763138011648,0.3944387436303478,0.0003984053423355949,-0.1669661488450629
458,0.4479,59.0808,809.456,0.0166666,218.656,0.114036,0.337917,-0.148426,0.333114,-0.183024,0.276908,0.000123811,0.000399144,0.366042,-0.13793620246875637,0.3190450133113645,0.00012381866489818982,0.3953063543278408,0.0003992236685657069,-0.16725183045881142
459,0.4489,59.1019,809.74,0.0164684,218.734,0.114021,0.338104,-0.148704,0.333735,-0.183367,0.277427,0.000124081,0.00039996,0.366731,-0.13817582289568753,0.3197297753536523,0.0001240886983657763,0.39617310867324806,0.00040003999466531326,-0.16753741410056966
460,0.4499,59.1231,810.023,0.0165745,218.812,0.114097,0.338355,-0.148981,0.334355,-0.183709,0.277945,0.000124351,0.000400777,0.36742,-0.13841451513234448,0.32041357246544755,0.0001243587319061934,0.3970390044005634,0.0004008573218319267,-0.16782206762641982
461,0.4509,59.1442,810.306,0.0164092,218.889,0.114092,0.338548,-0.149258,0.334976,-0.184052,0.278462,0.000124621,0.000401593,0.368108,-0.13865314126040829,0.3210964027788388,0.00012462876551944113,0.39790683505582525,0.0004016736492644668,-0.16810745571036956
462,0.4519,59.1653,810.589,0.0164861,218.966,0.11416,0.338793,-0.149535,0.335595,-0.184394,0.27898,0.000124891,0.00040241,0.368796,-0.1388917012981885,0.3217809079870215,0.0001248987992055195,0.39877240725368224,0.00040249097776579035,-0.16839191431532252
463,0.4529,59.1863,810.871,0.0163473,219.043,0.114163,0.338993,-0.149812,0.336215,-0.184736,0.279497,0.00012516,0.000403225,0.369484,-0.13913019526398973,0.3224644453956458,0.00012516783283955668,0.39963991504580587,0.00040330630612817053,-0.16867627565206644
464,0.4539,59.2073,811.152,0.0164009,219.12,0.114224,0.339233,-0.150089,0.336834,-0.185078,0.280013,0.000125429,0.000404041,0.37017,-0.1393686231761112,0.3231470131368024,0.0001254368665459804,0.4005065603522697,0.0004041226355591121,-0.16896053975386127
465,0.4549,59.2282,811.432,0.0162835,219.197,0.114234,0.339438,-0.150365,0.337452,-0.185419,0.280529,0.000125698,0.000404856,0.370857,-0.13960612465940225,0.3238299331737977,0.00012570590032456863,0.401372340905203,0.0004049379652513174,-0.16924387589824708
466,0.4559,59.2491,811.712,0.0163184,219.274,0.114289,0.339675,-0.150642,0.33807,-0.18576,0.281045,0.000125967,0.000405671,0.371543,-0.13984442075733838,0.32451320568846387,0.00012597493417576544,0.4022386566758833,0.00040575329560810225,-0.16952711544147903
467,0.4569,59.2699,811.992,0.016218,219.35,0.114305,0.339883,-0.150918,0.338688,-0.186101,0.281561,0.000126235,0.000406486,0.372228,-0.1400817909386175,0.32519683086272577,0.00012624296797292267,0.4031055079951773,0.00040656862662924453,-0.16981025841649255
468,0.4579,59.2908,812.271,0.016238,219.426,0.114356,0.340117,-0.151193,0.339305,-0.186442,0.282076,0.000126504,0.0004073,0.372913,-0.1403182359334325,0.32587948299845704,0.00012651200196844847,0.4039714912219634,0.00040738295790743173,-0.17009330485621188
469,0.4589,59.3115,812.549,0.0161514,219.502,0.114375,0.340329,-0.151469,0.339922,-0.186782,0.282591,0.000126772,0.000408114,0.373597,-0.14055547535976798,0.32656248679058186,0.0001267800359094906,0.4048380089252692,0.0004081972898486441,-0.17037542516938975
470,0.4599,59.3322,812.826,0.0161595,219.578,0.114423,0.340561,-0.151745,0.340538,-0.187123,0.283105,0.000127041,0.000408928,0.374281,-0.14079264931705704,0.32724451517507114,0.00012704907004956745,0.4057036557306104,0.00040901162245265965,-0.17065827892010155
471,0.4609,59.3529,813.103,0.0160838,219.654,0.114446,0.340776,-0.15202,0.341154,-0.187463,0.283619,0.000127308,0.000409742,0.374965,-0.14102889885269487,0.3279268942122604,0.00012731610400740223,0.4065698359386547,0.0004098259557197004,-0.17094020717474956
472,0.4619,59.3735,813.38,0.0160826,219.729,0.114491,0.341006,-0.152295,0.34177,-0.187803,0.284133,0.000127576,0.000410555,0.375648,-0.14126508342864275,0.3286096240824308,0.00012758413816404968,0.40743654987807965,0.000410639289238679,-0.17122203959008453
473,0.4629,59.3941,813.655,0.0160156,219.805,0.114516,0.341223,-0.15257,0.342385,-0.188142,0.284647,0.000127844,0.000411368,0.376331,-0.14150120306276204,0.3292927049659573,0.00012785217239241753,0.40830238957467113,0.00041145262341912847,-0.17150294770204833
474,0.4639,59.4146,813.931,0.016007,219.88,0.11456,0.341453,-0.152845,0.342999,-0.188482,0.28516,0.000128111,0.000412181,0.377013,-0.14173725777290958,0.329974807067835,0.00012811920656452536,0.40916735275839344,0.00041226595826060475,-0.17178458881812675
475,0.4649,59.4351,814.205,0.015947,219.955,0.114588,0.341671,-0.153119,0.343614,-0.188821,0.285672,0.000128378,0.000412993,0.377694,-0.14197238954975522,0.33065592852126646,0.00012838624080813155,0.41003425722613995,0.0004130782933504662,-0.17206530625822292
476,0.4659,59.4556,814.479,0.0159327,220.03,0.114629,0.3419,-0.153394,0.344227,-0.18916,0.286185,0.000128646,0.000413806,0.378376,-0.1422083147014339,0.3313387301362378,0.00012865427525143858,0.4108988732035421,0.000413891629513774,-0.17234592855123532
477,0.4669,59.476,814.753,0.0158781,220.105,0.114659,0.342121,-0.153668,0.344841,-0.189498,0.286697,0.000128912,0.000414618,0.379056,-0.14244331742636218,0.332020550097083,0.00012892030950895084,0.41176543111774455,0.0004147039659234686,-0.17262562835545525
478,0.4679,59.4963,815.025,0.0158593,220.179,0.1147,0.342349,-0.153942,0.345454,-0.189837,0.287208,0.000129179,0.00041543,0.379737,-0.14267825576936444,0.3327013865370778,0.00012918734396638598,0.41263110863006935,0.00041551630299307973,-0.1729060607314694
479,0.4689,59.5166,815.298,0.015809,220.254,0.114731,0.342571,-0.154216,0.346066,-0.190175,0.28772,0.000129446,0.000416241,0.380417,-0.14291312974807913,0.3333839043566369,0.0001294543784948754,0.41349590346877974,0.000416327640305747,-0.1731855712430047
480,0.4699,59.5369,815.569,0.0157867,220.328,0.11477,0.342799,-0.154489,0.346679,-0.190513,0.288231,0.000129712,0.000417052,0.381096,-0.14314708252765052,0.3340654376486889,0.00012972041296532844,0.41436264208585105,0.0004171389782763324,-0.1734649872959514
481,0.4709,59.5571,815.841,0.01574,220.402,0.114803,0.343022,-0.154763,0.34729,-0.190851,0.288741,0.000129978,0.000417863,0.381775,-0.14338182806543054,0.3347459845465979,0.0001299864475061696,0.41522708171958067,0.000417950316905058,-0.17374430892223136
482,0.4719,59.5773,816.111,0.0157149,220.476,0.114842,0.34325,-0.155036,0.347902,-0.191188,0.289252,0.000130244,0.000418674,0.382453,-0.14361565290782552,0.3354282140394913,0.00013025248211806506,0.4160934657800741,0.00041876165619192385,-0.17402271017687831
483,0.4729,59.5975,816.381,0.015671,220.55,0.114875,0.343474,-0.155309,0.348513,-0.191525,0.289762,0.00013051,0.000419485,0.383131,-0.14384941392475104,0.3361094561306188,0.0001305185168005707,0.4169589632702233,0.0004195729961364858,-0.1743010176261096
484,0.4739,59.6176,816.651,0.0156438,220.624,0.114914,0.343702,-0.155582,0.349123,-0.191862,0.290271,0.000130776,0.000420295,0.383809,-0.14408311113362915,0.33678970895344595,0.00013078455155390856,0.4178235719166452,0.0004203833363187748,-0.1745792313015323
485,0.4749,59.6376,816.919,0.0156021,220.697,0.114948,0.343927,-0.155855,0.349733,-0.192199,0.290781,0.000131041,0.000421105,0.384486,-0.14431674455187704,0.33747164558407206,0.0001310495862469896,0.4186887081352346,0.00042119367715764966,-0.17485735123474277
486,0.4759,59.6576,817.188,0.0155734,220.771,0.114987,0.344155,-0.156127,0.350343,-0.192536,0.29129,0.000131307,0.000421915,0.385163,-0.1445494587467936,0.33815259193781966,0.00013131562114154782,0.4195543722479087,0.00042200401865266635,-0.17513537745732688
487,0.4769,59.6776,817.455,0.0155334,220.844,0.115022,0.344381,-0.156399,0.350952,-0.192872,0.291798,0.000131572,0.000422725,0.385839,-0.14478210965205707,0.33883254614827085,0.0001315806559751831,0.4204191441569267,0.0004228143608040469,-0.17541248541375742
488,0.4779,59.6975,817.723,0.0155035,220.917,0.11506,0.34461,-0.156672,0.351561,-0.193208,0.292306,0.000131837,0.000423534,0.386515,-0.14501555226975482,0.33951284586321173,0.0001318456908792065,0.4212844428724336,0.0004236237031882695,-0.17568950027755514
489,0.4789,59.7174,817.989,0.015465,220.99,0.115096,0.344837,-0.156944,0.352169,-0.193544,0.292814,0.000132102,0.000424343,0.38719,-0.14524807641482018,0.340193491258203,0.000132110725853396,0.42214884656579454,0.0004244330462273016,-0.1759664220799938
490,0.4799,59.7373,818.255,0.0154341,221.062,0.115134,0.345065,-0.157215,0.352777,-0.19388,0.293322,0.000132366,0.000425152,0.387865,-0.14547968280202883,0.34087448250889496,0.00013237476076555232,0.4230137759764028,0.0004252423899209212,-0.17624325085233683
491,0.4809,59.7571,818.521,0.0153967,221.135,0.11517,0.345293,-0.157487,0.353385,-0.194216,0.293829,0.000132631,0.000425961,0.388539,-0.14571208072075692,0.3415544782358777,0.00013263979587985197,0.42387923142399186,0.0004260517342693504,-0.1765199866258369
492,0.4819,59.7768,818.786,0.0153652,221.207,0.115208,0.345522,-0.157758,0.353992,-0.194551,0.294336,0.000132895,0.000426769,0.389213,-0.14594356137983555,0.342234818808105,0.00013290383093167435,0.42474378848398864,0.0004268600788457366,-0.17679580622795443
493,0.4829,59.7966,819.05,0.0153288,221.28,0.115245,0.345751,-0.158029,0.354599,-0.194886,0.294843,0.000133159,0.000427577,0.389886,-0.14617497931615497,0.3429155044004575,0.00013316786605321873,0.4256088704894254,0.0004276684240753781,-0.17707153344598048
494,0.4839,59.8163,819.314,0.0152968,221.352,0.115283,0.345981,-0.158301,0.355205,-0.195221,0.295349,0.000133424,0.000428385,0.390559,-0.14640718813994935,0.34359519159204166,0.00013343290137779462,0.42647305128527657,0.0004284767699578307,-0.1773471683108584
495,0.4849,59.8359,819.577,0.0152611,221.424,0.11532,0.34621,-0.158571,0.355811,-0.195555,0.295855,0.000133687,0.000429193,0.391232,-0.1466376270884936,0.34427522279237155,0.00013369593650525147,0.4273377559334013,0.00042928511649376055,-0.17762188847582117
496,0.4859,59.8555,819.84,0.0152289,221.496,0.115358,0.34644,-0.158842,0.356417,-0.19589,0.29636,0.000133951,0.000430001,0.391904,-0.14686885695849006,0.344954253220634,0.00013395997183573982,0.4282029847513502,0.0004300934636827236,-0.17789733900264249
497,0.4869,59.8751,820.103,0.0151938,221.567,0.115396,0.34667,-0.159112,0.357022,-0.196224,0.296865,0.000134215,0.000430808,0.392576,-0.14709917127327965,0.34563362664586217,0.00013422400723617223,0.42906730898884304,0.00043090081109387057,-0.1781718754412781
498,0.4879,59.8946,820.364,0.0151613,221.639,0.115435,0.346901,-0.159383,0.357627,-0.196558,0.29737,0.000134478,0.000431615,0.393247,-0.14733027608174865,0.34631334324131324,0.00013448704257168487,0.42993215630071346,0.0004317081591564964,-0.1784463202000547
499,0.4889,59.9141,820.625,0.0151267,221.71,0.115472,0.347132,-0.159653,0.358231,-0.196891,0.297875,0.000134741,0.000432422,0.393917,-0.1475604658301921,0.3469934031803321,0.00013475007797625338,0.43079609620670567,0.00043251550787082316,-0.17871985202985086
500,0.4899,59.9335,820.886,0.0150942,221.782,0.115511,0.347363,-0.159923,0.358835,-0.197225,0.298379,0.000135004,0.000433229,0.394588,-0.14779059343579315,0.3476724589632181,0.0001350131134500998,0.4316605580900226,0.0004333228572366288,-0.1789941137950084
501,0.4909,59.9529,821.146,0.01506,221.853,0.115549,0.347595,-0.160193,0.359438,-0.197558,0.298883,0.000135267,0.000434035,0.395258,-0.14802065891532812,0.34835185707647853,0.00013527614899322415,0.43252410974120736,0.0004341292068197333,-0.17926746323990617
502,0.4919,59.9723,821.406,0.0150274,221.924,0.115588,0.347827,-0.160462,0.360042,-0.197891,0.299386,0.00013553,0.000434841,0.395927,-0.1482498105358051,0.34903024866176846,0.00013553918460540437,0.4333896156599659,0.0004349355570529845,-0.17954072167459278
503,0.4929,59.9916,821.665,0.0149937,221.994,0.115627,0.348059,-0.160732,0.360644,-0.198224,0.299889,0.000135793,0.000435647,0.396596,-0.1484797520434601,0.34970898156385966,0.0001358022202868625,0.4342527759937862,0.00043574190793593814,-0.1798138891293697
504,0.4939,60.0109,821.924,0.0149611,222.065,0.115666,0.348292,-0.161001,0.361247,-0.198556,0.300392,0.000136055,0.000436453,0.397264,-0.1487087801844943,0.35038805595447786,0.00013606425590118043,0.43511789122373856,0.00043654825946881637,-0.18008614572108372
505,0.4949,60.0301,822.182,0.0149276,222.136,0.115705,0.348525,-0.16127,0.361848,-0.198889,0.300895,0.000136317,0.000437259,0.397932,-0.1489377467252443,0.351067472005435,0.00013632629158433218,0.43598065631130356,0.00043735461165161915,-0.18035913157989047
506,0.4959,60.0493,822.439,0.0148951,222.206,0.115745,0.348758,-0.161539,0.36245,-0.199221,0.301397,0.000136579,0.000438064,0.3986,-0.14916665168227816,0.35174587814207525,0.00013658832733631776,0.4368453769211915,0.0004381599640463918,-0.1806312071811571
507,0.4969,60.0685,822.696,0.014862,222.276,0.115784,0.348992,-0.161807,0.363051,-0.199553,0.301899,0.000136841,0.000438869,0.399267,-0.1493946444672295,0.35242462492409077,0.00013685036315669308,0.4377091805397082,0.00043896531708931263,-0.180903192468317
508,0.4979,60.0876,822.953,0.0148295,222.346,0.115823,0.349226,-0.162076,0.363652,-0.199884,0.3024,0.000137103,0.000439674,0.399934,-0.14962342653530003,0.35310235941949286,0.00013711239904590222,0.4385735034602338,0.0004397706707806037,-0.1811742686460276
509,0.4989,60.1067,823.209,0.0147966,222.416,0.115863,0.34946,-0.162344,0.364252,-0.200216,0.302902,0.000137365,0.000440479,0.4006,-0.14985129692099308,0.3537817873260578,0.00013737443500372315,0.43943690655733714,0.000440576025120043,-0.18144607366670706
510,0.4999,60.1257,823.464,0.0147643,222.486,0.115903,0.349695,-0.162612,0.364852,-0.200547,0.303402,0.000137626,0.000441284,0.401266,-0.15007910624560528,0.3544588474706516,0.00013763547089240546,0.4403008278517422,0.00044138138010785255,-0.18171697018047706
511,0.5009,60.1447,823.719,0.0147316,222.556,0.115943,0.34993,-0.16288,0.365451,-0.200878,0.303903,0.000137888,0.000442088,0.401932,-0.15030685452549875,0.3551376013668881,0.00013789750698722791,0.4411638264899138,0.0004421857353018588,-0.18198777704233915
512,0.5019,60.1637,823.974,0.0146994,222.625,0.115983,0.350166,-0.163148,0.36605,-0.201209,0.304403,0.000138149,0.000442892,0.402597,-0.1505345417770314,0.35581533958800726,0.00013815854301246766,0.44202734221912277,0.0004429900911424589,-0.18225849428196328
513,0.5029,60.1827,824.227,0.0146669,222.695,0.116023,0.350402,-0.163415,0.366649,-0.201539,0.304903,0.00013841,0.000443696,0.403261,-0.1507613187783,0.3564934167629683,0.00013841957910609715,0.44289137534919987,0.00044379444762987497,-0.18252830445772272
514,0.5039,60.2015,824.481,0.0146348,222.764,0.116064,0.350638,-0.163683,0.367247,-0.20187,0.305403,0.000138671,0.0004445,0.403925,-0.15098888424973222,0.35717183306129074,0.00013868061526767228,0.4437544824349564,0.00044459880476410696,-0.18279884281237946
515,0.5049,60.2204,824.734,0.0146026,222.833,0.116104,0.350875,-0.16395,0.367845,-0.2022,0.305902,0.000138932,0.000445304,0.404589,-0.15121553995775405,0.35784923080266884,0.00013894165149719306,0.44461810581310646,0.0004454031625447108,-0.18306847470254262
516,0.5059,60.2392,824.986,0.0145706,222.902,0.116145,0.351112,-0.164217,0.368443,-0.20253,0.306401,0.000139193,0.000446107,0.405252,-0.15144213515678007,0.35852696664987005,0.00013920268779510359,0.44548224579248497,0.00044620652052618226,-0.18333801762886182
517,0.5069,60.258,825.238,0.0145386,222.971,0.116186,0.351349,-0.164484,0.36904,-0.202859,0.306899,0.000139453,0.00044691,0.405915,-0.15166866986296412,0.35920368156729054,0.00013946272402165505,0.44634545633593214,0.00044700987915247126,-0.18360665522775377
518,0.5079,60.2768,825.49,0.0145068,223.04,0.116227,0.351587,-0.164751,0.369637,-0.203189,0.307397,0.000139713,0.000447713,0.406577,-0.15189514409245575,0.3598807335726677,0.00013972276031570807,0.44720918236993246,0.0004478132384240219,-0.18387602058380037
519,0.5089,60.2955,825.741,0.014475,223.108,0.116268,0.351826,-0.165017,0.370233,-0.203518,0.307895,0.000139974,0.000448516,0.407239,-0.1521207099825337,0.3605581228339134,0.00013998379681745554,0.44807197612962546,0.00044861659834061207,-0.18414448120883398
520,0.5099,60.3141,825.991,0.0144433,223.177,0.11631,0.352064,-0.165284,0.370829,-0.203847,0.308393,0.000140234,0.000449319,0.4079,-0.15234706353342464,0.36123584951902266,0.00014024383324695577,0.44893528426766904,0.00044941995890224185,-0.1844128535248496
521,0.5109,60.3328,826.241,0.0144116,223.245,0.116351,0.352303,-0.16555,0.371424,-0.204176,0.30889,0.000140494,0.000450121,0.408561,-0.15257250922891796,0.3619125518828419,0.0001405038697441796,0.4497976572923412,0.00045022231965874404,-0.184681137560896
522,0.5119,60.3514,826.49,0.0143801,223.313,0.116393,0.352543,-0.165816,0.372019,-0.204505,0.309387,0.000140753,0.000450924,0.409222,-0.15279789496383134,0.36258959065132523,0.00014076290616826803,0.4506605435816442,0.00045102568150978684,-0.1849493333460127
523,0.5129,60.3699,826.739,0.0143486,223.381,0.116435,0.352783,-0.166082,0.372614,-0.204833,0.309884,0.000141013,0.000451726,0.409882,-0.15302322075411223,0.3632669659917078,0.000141022942800495,0.4515239434410614,0.00045182804355414774,-0.18521662612626288
524,0.5139,60.3884,826.988,0.0143173,223.449,0.116477,0.353023,-0.166347,0.373208,-0.205161,0.31038,0.000141273,0.000452528,0.410542,-0.1532476398637671,0.3639433141273114,0.0001412829795002235,0.45238640478912684,0.0004526304062419939,-0.1854838312488578
525,0.5149,60.4069,827.236,0.014286,223.517,0.116519,0.353264,-0.166613,0.373802,-0.205489,0.310876,0.000141532,0.00045333,0.411201,-0.1534728460378143,0.36461999781480015,0.00014154201612615047,0.4532493785914169,0.00045343276957332534,-0.1857509487425444
526,0.5159,60.4254,827.484,0.0142548,223.585,0.116561,0.353505,-0.166878,0.374396,-0.205817,0.311371,0.000141791,0.000454131,0.41186,-0.15369714601255502,0.3652956519243147,0.00014180105281891286,0.4541128651524198,0.0004542341330939781,-0.1860179786360603
527,0.5169,60.4438,827.731,0.0142237,223.652,0.116604,0.353746,-0.167143,0.374989,-0.206145,0.311867,0.00014205,0.000454933,0.412518,-0.15392138655567744,0.36597300653772646,0.00014206008957895477,0.4549754098006673,0.0004550364977113919,-0.18628492095813354
528,0.5179,60.4622,827.977,0.0141926,223.72,0.116646,0.353988,-0.167408,0.375582,-0.206472,0.312362,0.000142309,0.000455734,0.413176,-0.15414556768292886,0.3666493305523466,0.00014231912640605415,0.45583846608957757,0.00045583786251657266,-0.18655096228885204
529,0.5189,60.4805,828.223,0.0141617,223.787,0.116689,0.354231,-0.167673,0.376174,-0.206799,0.312856,0.000142568,0.000456535,0.413834,-0.15436968941005247,0.36732462210492,0.000142578163300211,0.45670057762133776,0.0004566392279636844,-0.1868169166382776
530,0.5199,60.4988,828.469,0.0141308,223.854,0.116732,0.354473,-0.167937,0.376766,-0.207126,0.31335,0.000142827,0.000457336,0.414491,-0.15459290634611622,0.36800024733393166,0.00014283720026164737,0.457563199674224,0.0004574405940527271,-0.18708278403484846
531,0.5209,60.5171,828.714,0.0141,223.921,0.116775,0.354717,-0.168202,0.377358,-0.207453,0.313844,0.000143085,0.000458137,0.415148,-0.1548169095441999,0.36867620640425836,0.0001430952371468397,0.45842633255055465,0.0004582419607834787,-0.18734856450699355
532,0.5219,60.5353,828.959,0.0140693,223.988,0.116818,0.35496,-0.168466,0.377949,-0.207779,0.314338,0.000143344,0.000458938,0.415804,-0.15504000842973154,0.3693524994808588,0.00014335427424216896,0.4592885172635792,0.00045904332815638327,-0.18761344569698446
533,0.5229,60.5535,829.203,0.0140386,224.054,0.116862,0.355205,-0.16873,0.37854,-0.208105,0.314831,0.000143602,0.000459738,0.41646,-0.15526304842493133,0.3700277567003307,0.0001436123112608101,0.46015121167837125,0.00045984369571105965,-0.1878782405497812
534,0.5239,60.5717,829.447,0.0140081,224.121,0.116905,0.355449,-0.168994,0.37913,-0.208431,0.315324,0.00014386,0.000460539,0.417115,-0.15548602954534418,0.37070334690368556,0.0001438703483460646,0.4610129550825681,0.000460645064366938,-0.1881429490935249
535,0.5249,60.5898,829.69,0.0139776,224.188,0.116949,0.355694,-0.169258,0.37972,-0.208757,0.315817,0.000144118,0.000461339,0.41777,-0.155708951806511,0.37137927025512507,0.0001441283854979325,0.4618752070653893,0.00046144543320303377,-0.188407571356348
536,0.5259,60.6079,829.933,0.0139472,224.254,0.116993,0.35594,-0.169521,0.38031,-0.209083,0.31631,0.000144376,0.000462139,0.418425,-0.1559309711553618,0.3720555269189314,0.00014438642271619173,0.46273796792698474,0.0004622458026795062,-0.1886721073663734
537,0.5269,60.6259,830.175,0.0139169,224.32,0.117037,0.356186,-0.169785,0.380899,-0.209408,0.316802,0.000144634,0.000462939,0.419079,-0.1561537759674475,0.37273074432803766,0.0001446444600012864,0.46359977436717537,0.0004630461727963553,-0.18893574608786656
538,0.5279,60.644,830.417,0.0138866,224.386,0.117081,0.356432,-0.170048,0.381488,-0.209733,0.317293,0.000144892,0.000463738,0.419732,-0.15637567834292665,0.37340492062023833,0.00014490249735277239,0.4644620885608781,0.0004638455430896471,-0.1891992991406971
539,0.5289,60.662,830.658,0.0138565,224.452,0.117126,0.356679,-0.170311,0.382077,-0.210058,0.317785,0.000145149,0.000464538,0.420386,-0.15659752236575475,0.3740808020943922,0.0001451595346257939,0.4653249108072479,0.00046464591448613923,-0.18946276655270278
540,0.5299,60.6799,830.899,0.0138264,224.518,0.11717,0.356926,-0.170574,0.382665,-0.210383,0.318276,0.000145406,0.000465337,0.421038,-0.15681930805127653,0.37475564142771933,0.00014541657196476265,0.46618677521810725,0.0004654452860577418,-0.18972614835171253
541,0.5309,60.6978,831.14,0.0137964,224.584,0.117215,0.357174,-0.170836,0.383252,-0.210708,0.318767,0.000145664,0.000466137,0.421691,-0.15704019245544654,0.3754308121885179,0.0001456746095156447,0.4670476795058487,0.00046624565873409907,-0.1899894445655459
542,0.5319,60.7157,831.38,0.0137664,224.649,0.11726,0.357422,-0.171099,0.38384,-0.211032,0.319257,0.000145921,0.000466936,0.422343,-0.15726186173404288,0.37610493843393233,0.00014593164698695205,0.4679105572025797,0.00046704503158356836,-0.190251845474264
543,0.5329,60.7336,831.62,0.0137366,224.715,0.117305,0.357671,-0.171361,0.384427,-0.211356,0.319747,0.000146178,0.000467735,0.422994,-0.15748263020433617,0.37677939508214897,0.00014618868452442868,0.46877247364738506,0.000467844405072082,-0.19051416137885901
544,0.5339,60.7514,831.859,0.0137068,224.78,0.11735,0.35792,-0.171623,0.385013,-0.21168,0.320237,0.000146435,0.000468534,0.423645,-0.15770334084086668,0.37745418229510497,0.0001464457221280746,0.4696334265515061,0.00046864377919897393,-0.19077639230686794
545,0.5349,60.7692,832.097,0.0136771,224.845,0.117396,0.35817,-0.171885,0.385599,-0.212004,0.320727,0.000146691,0.000469333,0.424296,-0.15792399365878507,0.3781293002348167,0.00014670175965081356,0.4704948841218817,0.00046944315396468816,-0.19103853828581874
546,0.5359,60.7869,832.336,0.0136475,224.91,0.117441,0.35842,-0.172147,0.386185,-0.212327,0.321216,0.000146948,0.000470131,0.424946,-0.15814458867323766,0.37880337025932054,0.00014695879738613193,0.47135684665433275,0.0004702415288988515,-0.19129979064342528
547,0.5369,60.8046,832.573,0.0136179,224.975,0.117487,0.358671,-0.172409,0.386771,-0.21265,0.321705,0.000147205,0.00047093,0.425596,-0.15836512589936713,0.37947776998467164,0.0001472158351876196,0.4722193144448541,0.0004710409049413222,-0.191560958630147
548,0.5379,60.8223,832.811,0.0135884,225.04,0.117533,0.358922,-0.17267,0.387356,-0.212973,0.322193,0.000147461,0.000471728,0.426246,-0.15858476393749654,0.38015111942032376,0.0001474718729077562,0.4730808147080625,0.0004718392811504657,-0.19182204227323119
549,0.5389,60.8399,833.048,0.013559,225.105,0.117579,0.359174,-0.172931,0.38794,-0.213296,0.322682,0.000147717,0.000472526,0.426895,-0.15880434465757842,0.3808261783561784,0.00014772791069317392,0.4739413451542849,0.00047263765799665514,-0.19208304159991652
550,0.5399,60.8575,833.284,0.0135297,225.169,0.117626,0.359426,-0.173193,0.388524,-0.213619,0.323169,0.000147973,0.000473324,0.427543,-0.1590247090502821,0.3814988044762042,0.00014798394854431685,0.47480237829706096,0.0004734360354801126,-0.19234395663743276
551,0.5409,60.8751,833.52,0.0135005,225.234,0.117672,0.359679,-0.173454,0.389108,-0.213941,0.323657,0.000148229,0.000474122,0.428192,-0.1592441749596729,0.3821731404173756,0.00014823998646096292,0.4756639144300512,0.000474234413600616,-0.19260398001738466
552,0.5419,60.8927,833.756,0.0134713,225.298,0.117719,0.359932,-0.173714,0.389692,-0.214264,0.324144,0.000148485,0.00047492,0.428839,-0.15946274305909924,0.3828464226676802,0.0001484960244433342,0.47652595384708785,0.0004750327923581654,-0.19286472681896372
553,0.5429,60.9102,833.991,0.0134422,225.362,0.117766,0.360186,-0.173975,0.390275,-0.214586,0.324631,0.000148741,0.000475718,0.429487,-0.15968209465653216,0.3835200328862942,0.0001487520624909866,0.4773870194544163,0.00047583117175298284,-0.19312458253791198
554,0.5439,60.9277,834.226,0.0134132,225.427,0.117813,0.36044,-0.174235,0.390858,-0.214907,0.325118,0.000148997,0.000476516,0.430134,-0.15990054891163763,0.3841939712329776,0.0001490081006043642,0.4782485872093558,0.00047662955178484623,-0.1933835479807401
555,0.5449,60.9451,834.46,0.0133842,225.491,0.11786,0.360695,-0.174496,0.39144,-0.215229,0.325604,0.000149252,0.000477313,0.43078,-0.16011978625665368,0.3848668530000219,0.00014926313863394824,0.4791091782948256,0.00047742693197627695,-0.19364323666616812
556,0.5459,60.9625,834.694,0.0133553,225.554,0.117907,0.36095,-0.174756,0.392022,-0.21555,0.32609,0.000149508,0.00047811,0.431426,-0.16033812672673575,0.38554006186708367,0.00014951917687811012,0.4799702703900868,0.00047822431280342137,-0.19390203564773945
557,0.5469,60.9799,834.927,0.0133265,225.618,0.117955,0.361206,-0.175016,0.392604,-0.215872,0.326576,0.000149763,0.000478908,0.432072,-0.16055641043567503,0.38621359799317245,0.00014977421503803434,0.4808318637868121,0.00047902269474486836,-0.19416155740701535
558,0.5479,60.9972,835.16,0.0132978,225.682,0.118003,0.361462,-0.175276,0.393185,-0.216193,0.327062,0.000150018,0.000479705,0.432717,-0.16077463739822728,0.38688746153737497,0.0001500292532627956,0.4816924770836257,0.00047982007684366224,-0.1944201900343302
559,0.5489,61.0146,835.393,0.0132691,225.745,0.118051,0.361719,-0.175535,0.393766,-0.216513,0.327547,0.000150274,0.000480502,0.433362,-0.16099196862153276,0.38756026509789554,0.0001502852917032449,0.48255359054204794,0.0004806174595781698,-0.19467793433223213
560,0.5499,61.0318,835.625,0.0132406,225.809,0.118099,0.361976,-0.175795,0.394346,-0.216834,0.328032,0.000150529,0.000481299,0.434006,-0.1612100823536773,0.38823339504728605,0.00015054033005834633,0.48341372103829383,0.000481414842947947,-0.19493640122915512
561,0.5509,61.0491,835.857,0.013212,225.872,0.118147,0.362234,-0.176054,0.394926,-0.217154,0.328516,0.000150783,0.000482096,0.43465,-0.16142730081134316,0.3889054626377262,0.00015079436832787785,0.4842743505549296,0.0004822122269534379,-0.19519398036590185
562,0.5519,61.0663,836.088,0.0131836,225.935,0.118196,0.362492,-0.176313,0.395506,-0.217475,0.329,0.000151038,0.000482892,0.435294,-0.16164446301671354,0.3895778555876106,0.00015104940681309742,0.48513547938147084,0.00048300861111116866,-0.19545228163863215
563,0.5529,61.0835,836.319,0.0131552,225.998,0.118244,0.362751,-0.176572,0.396086,-0.217794,0.329484,0.000151293,0.000483689,0.435937,-0.16186156898435577,0.39025057405445174,0.00015130444536315402,0.4859971078076013,0.00048380599638697674,-0.19570889142935177
564,0.5539,61.1006,836.549,0.0131269,226.061,0.118293,0.363011,-0.176831,0.396665,-0.218114,0.329968,0.000151547,0.000484486,0.43658,-0.16207861872883356,0.39092361819583754,0.00015155848382675252,0.4868577492646802,0.00048460338229805444,-0.19596622340878178
565,0.5549,61.1178,836.779,0.0130987,226.124,0.118342,0.363271,-0.177089,0.397243,-0.218434,0.330451,0.000151802,0.000485282,0.437222,-0.16229477455990027,0.39159559657314036,0.0001518135225067052,0.4877174014593064,0.0004853997683593736,-0.1962234730551523
566,0.5559,61.1348,837.009,0.0130705,226.187,0.118391,0.363532,-0.177348,0.397821,-0.218753,0.330934,0.000152056,0.000486078,0.437864,-0.16251171211866267,0.3922678995943949,0.00015206756109953368,0.48857755067652686,0.00048619615505440805,-0.19647983687504444
567,0.5569,61.1519,837.238,0.0130424,226.249,0.118441,0.363793,-0.177606,0.398399,-0.219072,0.331416,0.00015231,0.000486875,0.438506,-0.16272775622604785,0.39293913447661066,0.00015232159975697712,0.48943819720370363,0.00048699354287062846,-0.19673611892792064
568,0.5579,61.1689,837.467,0.0130144,226.312,0.11849,0.364055,-0.177864,0.398977,-0.219391,0.331899,0.000152565,0.000487671,0.439147,-0.16294374460124306,0.39361208658341384,0.00015257663863144089,0.49029934132836495,0.0004877899308344258,-0.19699231923986027
569,0.5589,61.1859,837.695,0.0129865,226.374,0.11854,0.364317,-0.178122,0.399554,-0.21971,0.332381,0.000152819,0.000488467,0.439788,-0.16315967725862535,0.39428396951992695,0.0001528306774181143,0.4911594921779674,0.0004885863194321605,-0.19724843783693458
570,0.5599,61.2029,837.923,0.0129586,226.436,0.11859,0.36458,-0.17838,0.400131,-0.220028,0.332863,0.000153072,0.000489263,0.440428,-0.1633755542125681,0.39495617638207525,0.0001530837161163312,0.4920201394778221,0.0004893827086638325,-0.19750367224928
571,0.5609,61.2198,838.151,0.0129308,226.498,0.11864,0.364843,-0.178637,0.400707,-0.220347,0.333344,0.000153326,0.000490059,0.441068,-0.16359053906839816,0.3956273116980189,0.00015333775503201252,0.4928797906339266,0.0004901790985294419,-0.1977596277507595
572,0.5619,61.2367,838.378,0.012903,226.56,0.118691,0.365107,-0.178895,0.401283,-0.220665,0.333825,0.00015358,0.000490854,0.441707,-0.16380630487433268,0.3962987699076992,0.00015359179401186474,0.49373993709173036,0.0004909744885379652,-0.1980146996305564
573,0.5629,61.2536,838.605,0.0128753,226.622,0.118741,0.365372,-0.179152,0.401859,-0.220983,0.334306,0.000153834,0.00049165,0.442346,-0.16402117904146685,0.3969705511664656,0.00015384583305655397,0.49460057913660904,0.0004917708796705611,-0.1982696904103911
574,0.5639,61.2704,838.831,0.0128477,226.684,0.118792,0.365637,-0.179409,0.402434,-0.2213,0.334786,0.000154087,0.000492446,0.442985,-0.16423599799303557,0.39764125798778505,0.00015409887201145445,0.49546022159313385,0.0004925672714370943,-0.1985237986402486
575,0.5649,61.2872,839.057,0.0128202,226.746,0.118843,0.365903,-0.179666,0.403009,-0.221618,0.335267,0.000154341,0.000493241,0.443623,-0.16445076174322737,0.3983136851386426,0.00015435291118492955,0.49632035848620815,0.0004933626633443211,-0.19877862755233655
576,0.5659,61.304,839.282,0.0127927,226.807,0.118894,0.366169,-0.179923,0.403584,-0.221935,0.335746,0.000154594,0.000494037,0.444261,-0.16466547030622725,0.39898363783468516,0.0001546059502681718,0.49718099010021466,0.0004941590563780629,-0.1990325744746887
577,0.5669,61.3208,839.507,0.0127653,226.869,0.118946,0.366436,-0.18018,0.404158,-0.222252,0.336226,0.000154847,0.000494832,0.444899,-0.1648801236962164,0.39965531116955,0.00015485898941558496,0.4980406186783317,0.0004949544495504998,-0.19928644090862457
578,0.5679,61.3375,839.732,0.012738,226.93,0.118997,0.366704,-0.180436,0.404732,-0.222569,0.336705,0.0001551,0.000495628,0.445536,-0.16509388702167715,0.40032590665839796,0.00015511202862694695,0.49890074082489333,0.0004957508438512281,-0.1995402268796549
579,0.5689,61.3542,839.956,0.0127107,226.991,0.119049,0.366972,-0.180692,0.405305,-0.222886,0.337184,0.000155353,0.000496423,0.446172,-0.1653075956307305,0.40099682343942833,0.0001553650679022578,0.4997598570626822,0.0004965462382893193,-0.19979393241328236
580,0.5699,61.3708,840.18,0.0126835,227.052,0.119101,0.367241,-0.180948,0.405878,-0.223203,0.337663,0.000155606,0.000497218,0.446809,-0.16552124953738212,0.4016680616665771,0.00015561810724151748,0.5006194657151384,0.0004973416333597935,-0.2000475575350017
581,0.5709,61.3874,840.404,0.0126564,227.113,0.119153,0.36751,-0.181204,0.406451,-0.223519,0.338141,0.000155859,0.000498013,0.447445,-0.16573484875563405,0.4023382191549334,0.00015587114664494806,0.5014795670644967,0.0004981370290626508,-0.20030030257100173
582,0.5719,61.404,840.627,0.0126293,227.174,0.119206,0.36778,-0.18146,0.407023,-0.223835,0.338619,0.000156112,0.000498808,0.44808,-0.16594839329948474,0.40300869705514164,0.00015612418611232748,0.5023386590537431,0.000498932425397669,-0.20055296775218823
583,0.5729,61.4206,840.85,0.0126023,227.235,0.119258,0.368051,-0.181716,0.407595,-0.224151,0.339097,0.000156364,0.000499603,0.448715,-0.16616188318292913,0.40367949552039484,0.00015637622548747565,0.5031982425841748,0.0004997278223650703,-0.2008055531037911
584,0.5739,61.4371,841.072,0.0125754,227.296,0.119311,0.368322,-0.181971,0.408167,-0.224467,0.339575,0.000156617,0.000500398,0.44935,-0.16637448479485983,0.40435061470396017,0.00015662926508275277,0.5040583179370337,0.0005005232199648546,-0.20105805865103266
585,0.5749,61.4536,841.294,0.0125485,227.356,0.119364,0.368594,-0.182227,0.408738,-0.224782,0.340052,0.000156869,0.000501193,0.449984,-0.16658786561284233,0.40502064973782526,0.00015688130458491045,0.5049173804755895,0.000501318618197022,-0.20130968572921215
586,0.5759,61.4701,841.515,0.0125217,227.417,0.119417,0.368866,-0.182482,0.409309,-0.225097,0.340529,0.000157122,0.000501988,0.450618,-0.16680035861310205,0.4056910044546398,0.00015713434430786322,0.5057769336789266,0.0005021140170615723,-0.20156123355734457
587,0.5769,61.4865,841.737,0.0124949,227.477,0.119471,0.369139,-0.182737,0.40988,-0.225412,0.341005,0.000157374,0.000502783,0.451251,-0.16701279743455488,0.406360272645953,0.0001573863839374745,0.5066369778272941,0.0005029094165582837,-0.2018127021603896
588,0.5779,61.5029,841.957,0.0124683,227.537,0.119524,0.369413,-0.182992,0.41045,-0.225727,0.341481,0.000157626,0.000503578,0.451884,-0.16722518209101445,0.40702985948475723,0.00015763842363059055,0.5074960057043425,0.0005037048166876001,-0.20206409156329952
589,0.5789,61.5193,842.178,0.0124417,227.597,0.119578,0.369687,-0.183246,0.41102,-0.226042,0.341957,0.000157878,0.000504372,0.452517,-0.16743668003338763,0.4076997651227652,0.0001578904633874334,0.5083555233668564,0.0005044992169445095,-0.20231540179101815
590,0.5799,61.5357,842.398,0.0124151,227.658,0.119632,0.369962,-0.183501,0.411589,-0.226357,0.342433,0.00015813,0.000505167,0.453149,-0.16764895661356483,0.408369989711761,0.00015814250320755896,0.5092140218793164,0.0005052946183374818,-0.20256663286848198
591,0.5809,61.552,842.617,0.0123886,227.717,0.119686,0.370238,-0.183755,0.412158,-0.226671,0.342908,0.000158382,0.000505962,0.453781,-0.16786034693087826,0.409039124363773,0.00015839454309118928,0.5100730090164309,0.0005060900203630592,-0.20281698763800537
592,0.5819,61.5683,842.836,0.0123622,227.777,0.119741,0.370514,-0.184009,0.412727,-0.226985,0.343383,0.000158634,0.000506756,0.454412,-0.1680716835618694,0.4097085769302431,0.00015864658303832435,0.5109324850563057,0.000506884422513787,-0.20306726380847195
593,0.5829,61.5846,843.055,0.0123359,227.837,0.119795,0.370791,-0.184263,0.413295,-0.227299,0.343858,0.000158885,0.000507551,0.455043,-0.16828296652017305,0.4103783475622169,0.00015889762289011955,0.5117909384855119,0.0005076798258030202,-0.20331746140455786
594,0.5839,61.6008,843.274,0.0123096,227.897,0.11985,0.371069,-0.184517,0.413863,-0.227613,0.344333,0.000159137,0.000508345,0.455674,-0.16849419581942027,0.41104843641081157,0.0001591496629640421,0.5126498796547707,0.0005084742292162936,-0.20356758045093148
595,0.5849,61.617,843.492,0.0122833,227.956,0.119905,0.371347,-0.184771,0.414431,-0.227926,0.344807,0.000159389,0.00050914,0.456304,-0.16870537147323872,0.4117174319090777,0.0001594017031014694,0.5135093088411975,0.0005092696337694047,-0.2038168247894765
596,0.5859,61.6332,843.709,0.0122572,228.015,0.119961,0.371626,-0.185024,0.414998,-0.228239,0.345281,0.00015964,0.000509934,0.456934,-0.1689156624113307,0.4123867445863756,0.00015965274314289069,0.5143677119535957,0.0005100640384450017,-0.2040659911267514
597,0.5869,61.6493,843.927,0.0122311,228.075,0.120016,0.371906,-0.185278,0.415565,-0.228552,0.345754,0.000159891,0.000510728,0.457563,-0.16912673102622933,0.4130549615374157,0.0001599037832471506,0.5152266019185681,0.0005108584437512054,-0.20431507948716676
598,0.5879,61.6655,844.144,0.012205,228.134,0.120072,0.372186,-0.185531,0.416132,-0.228865,0.346228,0.000160143,0.000511523,0.458193,-0.16933691537383855,0.4137249083540364,0.00016015582357464808,0.5160859790122385,0.0005116538501996892,-0.20456408989512542
599,0.5889,61.6816,844.36,0.012179,228.193,0.120128,0.372467,-0.185784,0.416698,-0.229178,0.3467,0.000160394,0.000512317,0.458821,-0.1695470465515342,0.414392344013204,0.00016040686380547342,0.5169443265658025,0.0005124482567682165,-0.20481302237502286
600,0.5899,61.6976,844.576,0.0121531,228.252,0.120184,0.372748,-0.186037,0.417264,-0.229491,0.347173,0.000160645,0.000513111,0.459449,-0.16975712457276637,0.4150615098371637,0.00016065790409891534,0.517803160081596,0.0005132426639675725,-0.20506187695124667
601,0.5909,61.7137,844.792,0.0121273,228.311,0.12024,0.373031,-0.18629,0.417829,-0.229803,0.347646,0.000160896,0.000513906,0.460077,-0.16996714945098212,0.4157309922514256,0.00016090894445563997,0.5186609611730311,0.0005140380723116511,-0.20530985895843312
602,0.5919,61.7297,845.008,0.0121015,228.37,0.120297,0.373314,-0.186542,0.418394,-0.230115,0.348118,0.000161147,0.0005147,0.460705,-0.17017629137633106,0.4163993750056896,0.00016115998487520322,0.5195192470590244,0.0005148324807733307,-0.20555776360730182
603,0.5929,61.7456,845.223,0.0120758,228.428,0.120354,0.373597,-0.186794,0.418959,-0.230427,0.348589,0.000161398,0.000515494,0.461332,-0.170385380604555,0.41706665624371286,0.0001614110253580492,0.5203780180135624,0.0005156268898656169,-0.20580559092198492
604,0.5939,61.7616,845.437,0.0120501,228.487,0.120411,0.373881,-0.187047,0.419524,-0.230739,0.349061,0.000161649,0.000516288,0.461959,-0.17059524655409997,0.41773566958018704,0.00016166206590351173,0.521237274310786,0.0005164212995887318,-0.20605334092660677
605,0.5949,61.7775,845.652,0.0120245,228.545,0.120468,0.374167,-0.187299,0.420088,-0.23105,0.349532,0.0001619,0.000517082,0.462585,-0.17080423021892055,0.41840358036120073,0.000161913106512257,0.5220954941287363,0.0005172157099426755,-0.2063002199459012
606,0.5959,61.7934,845.866,0.0119989,228.604,0.120525,0.374452,-0.187551,0.420651,-0.231362,0.350003,0.00016215,0.000517877,0.463211,-0.1710131612264928,0.41907180580228887,0.0001621631470218876,0.522952675165751,0.0005180111214453387,-0.20654781565033975
607,0.5969,61.8093,846.079,0.0119734,228.662,0.120583,0.374739,-0.187803,0.421215,-0.231673,0.350474,0.000162401,0.000518671,0.463836,-0.17122203959008453,0.4197403460516913,0.0001624141877563101,0.5238118627426658,0.0005188055330616059,-0.20679454091190563
608,0.5979,61.8251,846.293,0.011948,228.72,0.120641,0.375026,-0.188054,0.421778,-0.231984,0.350944,0.000162651,0.000519465,0.464461,-0.1714300367534114,0.4204077808492266,0.0001626642283911739,0.524670010367279,0.0005195999453084799,-0.20704118945384575
609,0.5989,61.8409,846.505,0.0119226,228.778,0.120699,0.375314,-0.188306,0.42234,-0.232295,0.351414,0.000162902,0.000520259,0.465086,-0.17163881007760595,0.4210755294148465,0.00016291526925127364,0.525527115737155,0.0005203943581864046,-0.20728776130001614
610,0.5999,61.8567,846.718,0.0118973,228.836,0.120758,0.375602,-0.188557,0.422903,-0.232605,0.351884,0.000163152,0.000521053,0.465711,-0.17184670264466784,0.4217435918960566,0.00016316531001137058,0.5263862293210964,0.0005211887716947139,-0.20753346400812567
611,0.6009,61.8725,846.93,0.0118721,228.894,0.120816,0.375891,-0.188808,0.423465,-0.232916,0.352353,0.000163402,0.000521847,0.466334,-0.17205454303724355,0.42241054602917494,0.0001634153508340841,0.5272442994771038,0.000521983185834074,-0.2077798827807139
612,0.6019,61.8882,847.142,0.0118469,228.952,0.120875,0.376181,-0.189059,0.424026,-0.233226,0.352822,0.000163653,0.000522641,0.466958,-0.17226233126842727,0.42307781303714487,0.0001636663918826997,0.5281013239019847,0.0005227776006040408,-0.20802543295480846
613,0.6029,61.9039,847.353,0.0118218,229.009,0.120934,0.376472,-0.18931,0.424588,-0.233536,0.353291,0.000163903,0.000523435,0.467581,-0.17247006735130987,0.4237453930667394,0.00016391643283064639,0.5289603582120488,0.0005235720160048363,-0.2082709070201465
614,0.6039,61.9196,847.564,0.0117967,229.067,0.120993,0.376764,-0.189561,0.425149,-0.233846,0.35376,0.000164153,0.00052423,0.468204,-0.1726777512989789,0.42441328626480024,0.0001641664738409876,0.5298183456159704,0.0005243674325607905,-0.20851630500031804
615,0.6049,61.9352,847.775,0.0117717,229.124,0.121053,0.377056,-0.189811,0.425709,-0.234155,0.354228,0.000164403,0.000525024,0.468826,-0.17288455600948827,0.4250800676974571,0.00016441651491372333,0.530675283809815,0.0005251618492239096,-0.20876083568013726
616,0.6059,61.9508,847.986,0.0117467,229.182,0.121113,0.377349,-0.190061,0.426269,-0.234465,0.354696,0.000164653,0.000525818,0.469448,-0.17309130902528203,0.42574716125685685,0.0001646665560492977,0.531532702023441,0.0005259562665178574,-0.20900608180596292
617,0.6069,61.9664,848.196,0.0117218,229.239,0.121173,0.377642,-0.190312,0.426829,-0.234774,0.355164,0.000164903,0.000526612,0.47007,-0.1732988370608587,0.4264145670891082,0.00016491659724704455,0.5323906005257351,0.0005267506844424119,-0.20925046116812895
618,0.6079,61.982,848.405,0.011697,229.296,0.121233,0.377937,-0.190562,0.427389,-0.235083,0.355631,0.000165152,0.000527406,0.470691,-0.17350548651933484,0.4270808582588177,0.0001651656383423461,0.533248979585734,0.0005275451029980172,-0.20949476502873765
619,0.6089,61.9975,848.615,0.0116722,229.353,0.121293,0.378232,-0.190812,0.427948,-0.235392,0.356098,0.000165402,0.0005282,0.471312,-0.17371208432190366,0.42774746065917024,0.00016541567966510407,0.534106305365553,0.0005283395221842291,-0.20973899341111546
620,0.6099,62.013,848.823,0.0116475,229.41,0.121354,0.378528,-0.191061,0.428507,-0.2357,0.356565,0.000165652,0.000528995,0.471933,-0.17391780439969495,0.4284143744355442,0.00016566572105025656,0.5349641105244569,0.0005291349425302627,-0.20998235632133277
621,0.6109,62.0285,849.032,0.0116228,229.467,0.121415,0.378824,-0.191311,0.429065,-0.236009,0.357032,0.000165901,0.000529789,0.472553,-0.1741242991356775,0.42908159973338655,0.00016591476233185354,0.535820859508866,0.0005299293629787982,-0.2102264340612766
622,0.6119,62.0439,849.24,0.0115982,229.524,0.121476,0.379122,-0.19156,0.429623,-0.236317,0.357498,0.000166151,0.000530583,0.473173,-0.17432991658475794,0.4297477069497895,0.0001661648038417951,0.536678086692614,0.0005307237840581625,-0.2104696468628916
623,0.6129,62.0594,849.448,0.0115736,229.581,0.121538,0.37942,-0.19181,0.430181,-0.236625,0.357964,0.0001664,0.000531377,0.473792,-0.17453630830557176,0.43041412464449125,0.0001664138452479591,0.5375357923426098,0.0005315182057681334,-0.21071278476649857
624,0.6139,62.0748,849.656,0.0115491,229.637,0.121599,0.379719,-0.192059,0.430738,-0.236933,0.35843,0.00016665,0.000532172,0.474411,-0.17474182317714027,0.4310808529622083,0.00016666388688268974,0.5383924383327052,0.0005323136286412566,-0.21095584779516263
625,0.6149,62.0901,849.863,0.0115247,229.694,0.121661,0.380019,-0.192308,0.431296,-0.237241,0.358895,0.000166899,0.000532966,0.475029,-0.17494728688187633,0.43174646030054853,0.00016691292841297667,0.5392511008578595,0.0005331080516137732,-0.21119883597194156
626,0.6159,62.1055,850.07,0.0115003,229.75,0.121723,0.380319,-0.192556,0.431852,-0.237548,0.35936,0.000167148,0.00053376,0.475648,-0.17515187458480586,0.43241237721827264,0.00016716197000521404,0.5401071624330012,0.0005339024752168964,-0.21144096076124141
627,0.6169,62.1208,850.276,0.011476,229.806,0.121786,0.38062,-0.192805,0.432409,-0.237856,0.359825,0.000167397,0.000534555,0.476265,-0.1753572361994522,0.4330786038593686,0.0001674110116596239,0.5409652410751933,0.0005346978999856145,-0.21168379954623429
628,0.6179,62.1361,850.483,0.0114517,229.863,0.121848,0.380922,-0.193054,0.432965,-0.238163,0.36029,0.000167647,0.000535349,0.476883,-0.17556254668542226,0.43374514036789136,0.00016766105354371064,0.541822255977296,0.0005354923248510612,-0.21192577547456815
629,0.6189,62.1514,850.689,0.0114275,229.919,0.121911,0.381225,-0.193302,0.43352,-0.23847,0.360754,0.000167896,0.000536144,0.4775,-0.17576698182283945,0.4344105524766928,0.00016791009532224344,0.5426782048332,0.0005362877508836572,-0.2121676771276937
630,0.6199,62.1666,850.894,0.0114033,229.975,0.121974,0.381529,-0.19355,0.434076,-0.238776,0.361218,0.000168145,0.000536938,0.478116,-0.1759713662666288,0.4350762734083542,0.00016815913716294872,0.5435361724079706,0.0005370821770114276,-0.21240871693752095
631,0.6209,62.1818,851.099,0.0113792,230.031,0.122037,0.381833,-0.193798,0.434631,-0.239083,0.361682,0.000168394,0.000537733,0.478733,-0.17617570002936078,0.43574230330620267,0.00016840817906560446,0.5443930727515067,0.0005378776043079014,-0.21265047035037343
632,0.6219,62.197,851.304,0.0113552,230.086,0.122101,0.382138,-0.194046,0.435186,-0.239389,0.362145,0.000168643,0.000538527,0.479349,-0.1763799831236028,0.43640720590570736,0.00016865722103021064,0.5452504488067313,0.0005386720316982174,-0.2128913624480756
633,0.6229,62.2122,851.509,0.0113312,230.142,0.122165,0.382444,-0.194294,0.43574,-0.239695,0.362608,0.000168891,0.000539322,0.479964,-0.17658421556191906,0.4370724164263937,0.00016890526288793062,0.5461067547302099,0.0005394674602585692,-0.21313218084407282
634,0.6239,62.2273,851.713,0.0113072,230.198,0.122229,0.382751,-0.194541,0.436294,-0.240001,0.363071,0.00016914,0.000540116,0.480579,-0.17678757414485635,0.43773793501086256,0.00016915430497621564,0.5469635351786013,0.0005402618889112087,-0.21337292556091436
635,0.6249,62.2425,851.917,0.0112834,230.253,0.122293,0.383059,-0.194789,0.436848,-0.240307,0.363533,0.000169389,0.000540911,0.481194,-0.17699170551313248,0.43840232339873775,0.00016940334712667315,0.5478207904148653,0.0005410573187356604,-0.21361359662114254
636,0.6259,62.2575,852.12,0.0112595,230.309,0.122358,0.383367,-0.195036,0.437401,-0.240613,0.363996,0.000169638,0.000541706,0.481808,-0.17719496345848118,0.4390684578727022,0.0001696523893390811,0.5486769720243607,0.0005418527491922731,-0.2138541940472929
637,0.6269,62.2726,852.323,0.0112357,230.364,0.122423,0.383676,-0.195283,0.437954,-0.240918,0.364458,0.000169886,0.000542501,0.482422,-0.1773981712053171,0.43973346110415745,0.0001699004314437147,0.5495336272332243,0.0005426481802814909,-0.21409393195621884
638,0.6279,62.2876,852.526,0.011212,230.419,0.122488,0.383987,-0.19553,0.438506,-0.241224,0.364919,0.000170135,0.000543296,0.483036,-0.17760132876603774,0.44039733124003555,0.00017014947378002354,0.5503892059134481,0.0005434436120028696,-0.2143343824222428
639,0.6289,62.3027,852.729,0.0111884,230.475,0.122553,0.384297,-0.195777,0.439059,-0.241529,0.365381,0.000170384,0.00054409,0.483649,-0.17780443615303765,0.44106294855282835,0.0001703985161780608,0.5512468082495088,0.0005442380438125394,-0.21457397389604682
640,0.6299,62.3176,852.931,0.0111647,230.53,0.122619,0.384609,-0.196024,0.439611,-0.241834,0.365842,0.000170632,0.000544885,0.484262,-0.17800749337870814,0.4417274317237141,0.00017064655846765753,0.552103332866708,0.0005450334767980181,-0.21481349230559432
641,0.6309,62.3326,853.133,0.0111412,230.585,0.122685,0.384922,-0.19627,0.440162,-0.242138,0.366303,0.00017088,0.000545681,0.484875,-0.17820967866552706,0.44239222129196065,0.00017089460081876062,0.5529587774564593,0.0005458299109615261,-0.21505215272571154
642,0.6319,62.3475,853.334,0.0111177,230.64,0.122751,0.385235,-0.196517,0.440714,-0.242443,0.366763,0.000171129,0.000546476,0.485487,-0.17841263580865763,0.44305587434225413,0.0001711436434026492,0.5538162473415307,0.000546625345212659,-0.21529152531295503
643,0.6329,62.3624,853.535,0.0110942,230.694,0.122817,0.385549,-0.196763,0.441264,-0.242747,0.367224,0.000171377,0.000547271,0.486099,-0.17861472144269652,0.4437212764637306,0.00017139168587698705,0.5546710813353679,0.000547420780095953,-0.21553004043312474
644,0.6339,62.3773,853.736,0.0110708,230.749,0.122884,0.385864,-0.197009,0.441815,-0.243051,0.367684,0.000171625,0.000548066,0.48671,-0.17881675736978375,0.4443855410200388,0.00017163972841283126,0.5555279411443823,0.0005482162156116299,-0.21576848305571816
645,0.6349,62.3922,853.937,0.0110474,230.804,0.122951,0.38618,-0.197255,0.442365,-0.243355,0.368143,0.000171874,0.000548861,0.487321,-0.17901874360214565,0.4450486661589439,0.0001718887711821271,0.5563837168287524,0.0005490116517596899,-0.21600685320277102
646,0.6359,62.407,854.137,0.0110241,230.858,0.123018,0.386497,-0.1975,0.442915,-0.243659,0.368603,0.000172122,0.000549657,0.487932,-0.17921985937227525,0.44571354145497133,0.0001721368138414281,0.5572399633192084,0.0005498080890899981,-0.2162451508963128
647,0.6369,62.4218,854.337,0.0110009,230.913,0.123085,0.386815,-0.197746,0.443465,-0.243962,0.369062,0.00017237,0.000550452,0.488542,-0.17942174645374054,0.44637727628598967,0.0001723848565620134,0.5580966808747654,0.0005506035265034903,-0.21648259264135028
648,0.6379,62.4366,854.536,0.0109777,230.967,0.123153,0.387133,-0.197991,0.444014,-0.244266,0.369521,0.000172618,0.000551248,0.489152,-0.17962276350026563,0.44704131584122453,0.00017263289934432713,0.55895231080149,0.0005513999651010071,-0.21672074573208344
649,0.6389,62.4514,854.736,0.0109545,231.021,0.123221,0.387453,-0.198237,0.444563,-0.244569,0.36998,0.000172866,0.000552044,0.489761,-0.1798245514795055,0.44770566026057623,0.00017288094218792516,0.5598084105980117,0.0005521964043322392,-0.21695804339371527
650,0.6399,62.4661,854.935,0.0109314,231.076,0.123289,0.387773,-0.198482,0.445112,-0.244872,0.370438,0.000173114,0.000552839,0.490371,-0.18002546985088752,0.4483688613144239,0.00017312898509325159,0.5606649805223598,0.0005529918436446568,-0.21719526916504772
651,0.6409,62.4808,855.133,0.0109084,231.13,0.123358,0.388094,-0.198727,0.44566,-0.245175,0.370896,0.000173362,0.000553635,0.490979,-0.1802263390032981,0.44903236618392284,0.00017337702805986233,0.5615204593114658,0.0005537882841430974,-0.21743242306786004
652,0.6419,62.4955,855.331,0.0108854,231.184,0.123426,0.388416,-0.198972,0.446208,-0.245477,0.371354,0.00017361,0.000554431,0.491588,-0.18042715894879446,0.4496961750082522,0.00017362507108820147,0.5623764070314232,0.0005545847252756975,-0.21766872279303906
653,0.6429,62.5102,855.529,0.0108624,231.238,0.123495,0.388739,-0.199216,0.446755,-0.24578,0.371811,0.000173858,0.000555227,0.492196,-0.18062711032695078,0.4503588375670926,0.00017387311417804696,0.563231260707235,0.0005553811670420128,-0.2179057332611336
654,0.6439,62.5248,855.727,0.0108396,231.291,0.123565,0.389063,-0.199461,0.447303,-0.246082,0.372269,0.000174106,0.000556023,0.492803,-0.18082783209550002,0.45102325405445964,0.00017412115732917677,0.5640881462032845,0.0005561776094424875,-0.21814189006821594
655,0.6449,62.5394,855.924,0.0108167,231.345,0.123634,0.389387,-0.199705,0.447849,-0.246384,0.372726,0.000174354,0.000556819,0.493411,-0.18102768572133487,0.45168652322702485,0.00017436920054203497,0.5649423715133997,0.0005569740524766775,-0.2183779755667108
656,0.6459,62.554,856.121,0.0107939,231.399,0.123704,0.389713,-0.19995,0.448396,-0.246686,0.373182,0.000174602,0.000557616,0.494018,-0.1812283093609337,0.45234864323350465,0.00017461724381639954,0.5657986291557326,0.0005577714967028857,-0.21861398977814983
657,0.6469,62.5686,856.318,0.0107712,231.452,0.123774,0.390039,-0.200194,0.448942,-0.246988,0.373639,0.000174849,0.000558412,0.494624,-0.1814280652822362,0.453012518247349,0.0001748642869774386,0.5666537886445473,0.0005585679410060607,-0.21884993272405884
658,0.6479,62.5831,856.515,0.0107485,231.506,0.123844,0.390367,-0.200438,0.449488,-0.24729,0.374095,0.000175097,0.000559209,0.495231,-0.18162777246903972,0.45367524304544005,0.0001751123303743718,0.5675094151779345,0.000559365386502364,-0.2190858044259565
659,0.6489,62.5976,856.711,0.0107258,231.559,0.123915,0.390695,-0.200682,0.450034,-0.247591,0.374551,0.000175345,0.000560005,0.495836,-0.18182743093323406,0.45433827011495165,0.00017536037383303338,0.5683655090109703,0.0005601618320743018,-0.21932082422656984
660,0.6499,62.6121,856.906,0.0107032,231.613,0.123986,0.391024,-0.200925,0.450579,-0.247892,0.375006,0.000175592,0.000560802,0.496442,-0.1820262227133378,0.45500014459287885,0.00017560741717770334,0.5692205011775837,0.0005609592788409223,-0.2195557732968687
661,0.6509,62.6266,857.102,0.0106807,231.666,0.124057,0.391354,-0.201169,0.451124,-0.248193,0.375462,0.00017584,0.000561599,0.497047,-0.18222578396753264,0.45566377595526464,0.00017585546075893355,0.5700759594419282,0.0005617567262432566,-0.2197906516581396
662,0.6519,62.641,857.297,0.0106582,231.719,0.124128,0.391685,-0.201412,0.451669,-0.248494,0.375917,0.000176087,0.000562396,0.497652,-0.18242447895960934,0.45632625367557633,0.00017610250422572804,0.5709318840580959,0.0005625541742813045,-0.22002545933166284
663,0.6529,62.6554,857.492,0.0106358,231.772,0.1242,0.392017,-0.201655,0.452213,-0.248795,0.376371,0.000176335,0.000563193,0.498256,-0.18262312567466876,0.4569875759035318,0.00017635054792997096,0.5717867034928288,0.000563351622954622,-0.22026019633871208
664,0.6539,62.6698,857.687,0.0106134,231.825,0.124272,0.39235,-0.201898,0.452757,-0.249095,0.376826,0.000176583,0.00056399,0.49886,-0.18282172412444087,0.45765065608987077,0.00017659859169572023,0.5726419880758431,0.0005641490722636533,-0.22049408319502795
665,0.6549,62.6842,857.881,0.010591,231.878,0.124345,0.392684,-0.202141,0.4533,-0.249395,0.37728,0.00017683,0.000564787,0.499464,-0.18302027432065282,0.4583125797330332,0.0001768456353461456,0.5734961645632968,0.0005649465222083982,-0.22072789989581065
666,0.6559,62.6985,858.075,0.0105687,231.931,0.124417,0.393019,-0.202384,0.453844,-0.249695,0.377734,0.000177077,0.000565585,0.500067,-0.1832187762750287,0.45897480395775636,0.00017709267905741122,0.5743523793461249,0.0005657449733542652,-0.22096164646210392
667,0.6569,62.7129,858.268,0.0105465,231.983,0.12449,0.393354,-0.202627,0.454387,-0.249995,0.378188,0.000177325,0.000566382,0.50067,-0.18341722999928978,0.45963732890053555,0.00017734072300723547,0.5752074848282376,0.0005665424245706596,-0.2211953229149447
668,0.6579,62.7272,858.462,0.0105243,232.036,0.124563,0.393691,-0.202869,0.454929,-0.250295,0.378641,0.000177572,0.00056718,0.501272,-0.18361481912038202,0.4602986943985028,0.00017758776684084765,0.5760614786964466,0.0005673408769901744,-0.22142892927536417
669,0.6589,62.7414,858.655,0.0105021,232.088,0.124637,0.394029,-0.203112,0.455471,-0.250595,0.379094,0.00017782,0.000567978,0.501875,-0.18381317661792373,0.46096035956291015,0.00017783581091346257,0.5769159355547915,0.0005681393300467352,-0.22166246556438673
670,0.6599,62.7557,858.847,0.01048,232.141,0.12471,0.394367,-0.203354,0.456013,-0.250894,0.379547,0.000178067,0.000568776,0.502477,-0.18401066993152737,0.461622324529537,0.00017808285486919928,0.5777708556542804,0.000568937783740564,-0.22189515369857327
671,0.6609,62.7699,859.04,0.0104579,232.193,0.124784,0.394707,-0.203596,0.456555,-0.251193,0.38,0.000178314,0.000569574,0.503078,-0.18420811545753168,0.46228458943422446,0.0001783298988862203,0.5786262392460582,0.0005697362380714388,-0.22212777226940805
672,0.6619,62.7841,859.232,0.0104359,232.245,0.124859,0.395047,-0.203838,0.457096,-0.251492,0.380452,0.000178562,0.000570372,0.503679,-0.18440551320749987,0.4629456914664527,0.0001785779431429102,0.5794805071001092,0.0005705346930395816,-0.22236032129768724
673,0.6629,62.7983,859.424,0.0104139,232.298,0.124933,0.395389,-0.204079,0.457637,-0.251791,0.380904,0.000178809,0.00057117,0.50428,-0.18460204779544787,0.4636070923843423,0.00017882498728205576,0.5803352372381059,0.0005713331486447704,-0.22259280080420107
674,0.6639,62.8125,859.615,0.010392,232.35,0.125008,0.395731,-0.204321,0.458178,-0.25209,0.381356,0.000179056,0.000571969,0.50488,-0.18479935022532434,0.46426879232302043,0.00017907203148248563,0.5811904299102111,0.0005721326054595188,-0.22282521080973328
675,0.6649,62.8266,859.807,0.0103701,232.402,0.125083,0.396074,-0.204563,0.458718,-0.252388,0.381807,0.000179303,0.000572767,0.50548,-0.18499660491378989,0.4649293264876162,0.00017931907574375572,0.5820445033214299,0.0005729310623399098,-0.2230567743922246
676,0.6659,62.8407,859.998,0.0103483,232.454,0.125159,0.396419,-0.204804,0.459258,-0.252686,0.382258,0.00017955,0.000573566,0.50608,-0.18519299706580084,0.46559015862030684,0.00017956612006608808,0.5828990380568366,0.0005737305204311927,-0.22328826897904908
677,0.6669,62.8548,860.188,0.0103265,232.506,0.125234,0.396764,-0.205045,0.459798,-0.252985,0.382709,0.000179798,0.000574365,0.506679,-0.18538934189300593,0.4662512888555066,0.00017981416462919952,0.5837540343656142,0.0005745299791610758,-0.22352047107068174
678,0.6679,62.8689,860.379,0.0103048,232.557,0.12531,0.39711,-0.205286,0.460337,-0.253282,0.38316,0.000180045,0.000575164,0.507278,-0.18558563940680917,0.46691271732768946,0.00018006120907387846,0.5846079078883795,0.0005753294385300034,-0.2237510512479225
679,0.6689,62.8829,860.569,0.0102831,232.609,0.125387,0.397458,-0.205527,0.460876,-0.25358,0.38361,0.000180292,0.000575963,0.507877,-0.18578188961861175,0.4675729765976808,0.00018030825357939761,0.5854622417730297,0.0005761288985375312,-0.22398233897106823
680,0.6699,62.8969,860.758,0.0102615,232.661,0.125463,0.397806,-0.205768,0.461415,-0.253878,0.384061,0.000180539,0.000576763,0.508475,-0.185978092539812,0.46823500128547213,0.00018055529814597904,0.586317036267767,0.000576929359760836,-0.22421355778074115
681,0.6709,62.9109,860.948,0.0102399,232.712,0.12554,0.398155,-0.206008,0.461953,-0.254175,0.38451,0.000180786,0.000577562,0.509073,-0.18617343435564693,0.46889438682202456,0.00018080234277362273,0.5871707044494292,0.0005777288210468967,-0.22444393214179426
682,0.6719,62.9249,861.137,0.0102183,232.764,0.125618,0.398506,-0.206249,0.462492,-0.254472,0.38496,0.000181033,0.000578362,0.50967,-0.18636954292593533,0.46955553804396244,0.00018104938746232868,0.5880264200537659,0.0005785292835500666,-0.22467423809182163
683,0.6729,62.9389,861.326,0.0101968,232.815,0.125695,0.398857,-0.206489,0.463029,-0.25477,0.385409,0.00018128,0.000579162,0.510268,-0.18656479080495048,0.47021551663465,0.0001812964322120969,0.5888794192511211,0.0005793297466938352,-0.2249052507462752
684,0.6739,62.9528,861.515,0.0101753,232.866,0.125773,0.399209,-0.206729,0.463567,-0.255066,0.385858,0.000181527,0.000579962,0.510864,-0.18675999183009728,0.470875791622261,0.0001815434770229274,0.589734466365728,0.0005801302104777584,-0.22513464484005352
685,0.6749,62.9667,861.703,0.0101539,232.918,0.125851,0.399563,-0.206969,0.464104,-0.255363,0.386307,0.000181774,0.000580762,0.511461,-0.18695514601261942,0.47153636313990765,0.0001817905218945981,0.5905883830302705,0.0005809306749020582,-0.22536474567887
686,0.6759,62.9806,861.891,0.0101325,232.969,0.125929,0.399917,-0.207209,0.464641,-0.25566,0.386756,0.000182021,0.000581563,0.512057,-0.18715025336375768,0.4721972313207614,0.00018203756682733108,0.5914427583712056,0.0005817321405485743,-0.22559477818788487
687,0.6769,62.9945,862.079,0.0101112,233.02,0.126008,0.400273,-0.207449,0.465177,-0.255956,0.387204,0.000182268,0.000582363,0.512653,-0.1873453138947504,0.4728569234403943,0.00018228461182112632,0.5922960003381119,0.0005825326062545155,-0.22582396821174433
688,0.6779,63.0083,862.266,0.0100899,233.071,0.126087,0.400629,-0.207688,0.465713,-0.256252,0.387652,0.000182515,0.000583164,0.513248,-0.18753951515675438,0.4735169111683082,0.00018253165687598383,0.593149699765301,0.0005833340731840053,-0.22605309040539612
689,0.6789,63.0221,862.453,0.0100687,233.122,0.126167,0.400987,-0.207928,0.466249,-0.256548,0.3881,0.000182762,0.000583965,0.513843,-0.18773448227612655,0.47417719463696506,0.0001827787019919036,0.594003856898037,0.0005841355407556481,-0.22628214478891495
690,0.6799,63.0359,862.64,0.0100475,233.172,0.126246,0.401345,-0.208167,0.466785,-0.256844,0.388547,0.000183009,0.000584766,0.514438,-0.18792859053800126,0.47483629914185,0.0001830257471686636,0.5948584719817163,0.0005849370089692218,-0.22651113138236978
691,0.6809,63.0497,862.827,0.0100263,233.223,0.126326,0.401705,-0.208406,0.46732,-0.25714,0.388995,0.000183256,0.000585567,0.515032,-0.18812265241354487,0.4754971738287421,0.00018327279240648586,0.5957119495491185,0.0005857384778247265,-0.22674005020582322
692,0.6819,63.0634,863.013,0.0100052,233.274,0.126406,0.402066,-0.208645,0.467855,-0.257435,0.389441,0.000183503,0.000586369,0.515626,-0.18831666791384216,0.47615539234008675,0.0001835198377053704,0.5965658838491843,0.0005865409479086647,-0.2269681282478473
693,0.6829,63.0772,863.199,0.00998418,233.324,0.126487,0.402427,-0.208884,0.468389,-0.25773,0.389888,0.00018375,0.000587171,0.51622,-0.18851063704997573,0.4768153812970055,0.0001837668830653172,0.5974186777068549,0.0005873434186363102,-0.22719613901677227
694,0.6839,63.0909,863.385,0.00996315,233.375,0.126568,0.40279,-0.209123,0.468923,-0.258025,0.390335,0.000183997,0.000587972,0.516813,-0.18870455983302514,0.47747566533493346,0.00018401392848632625,0.5982719270780568,0.0005881448894193841,-0.22742408253244062
695,0.6849,63.1046,863.57,0.00994218,233.425,0.126649,0.403154,-0.209361,0.469457,-0.25832,0.390781,0.000184244,0.000588775,0.517406,-0.18889762517209818,0.47813476645029596,0.00018426097396817553,0.5991256322060989,0.0005889483620222791,-0.22765195881468936
696,0.6859,63.1182,863.756,0.00992124,233.476,0.126731,0.403519,-0.2096,0.469991,-0.258615,0.391227,0.000184491,0.000589577,0.517999,-0.189091455476038,0.47879416159031885,0.00018450801951108708,0.5999797933344209,0.0005897508346808245,-0.2278797678833493
697,0.6869,63.1319,863.94,0.00990035,233.526,0.126813,0.403885,-0.209838,0.470524,-0.25891,0.391672,0.000184738,0.000590379,0.518591,-0.1892844287449048,0.47945237143305475,0.0001847550651150609,0.6008328098729812,0.0005905533079826331,-0.22810750975824556
698,0.6879,63.1455,864.125,0.0098795,233.576,0.126895,0.404252,-0.210076,0.471057,-0.259204,0.392118,0.000184985,0.000591182,0.519183,-0.18947735609159866,0.48011235435596555,0.00018500211078009698,0.6016862811905446,0.0005913567825195365,-0.22833441279399602
699,0.6889,63.1591,864.31,0.00985869,233.626,0.126977,0.40462,-0.210314,0.47159,-0.259498,0.392563,0.000185232,0.000591985,0.519774,-0.1896702375270476,0.480771150925019,0.00018524915650619533,0.6025402075295725,0.0005921602577017016,-0.22856124913005926
700,0.6899,63.1727,864.494,0.00983793,233.676,0.12706,0.404989,-0.210552,0.472122,-0.259792,0.393008,0.000185479,0.000592788,0.520365,-0.1898630730621772,0.4814302407237845,0.00018549620229335595,0.6033929857388689,0.0005929637335289062,-0.22878801878604216
701,0.6909,63.1862,864.677,0.00981721,233.726,0.127143,0.40536,-0.21079,0.472654,-0.260086,0.393452,0.000185726,0.000593591,0.520956,-0.19005586270791053,0.48208814179389536,0.0001857432481413568,0.6042462177468724,0.0005937672100013724,-0.2290147217815458
702,0.6919,63.1998,864.861,0.00979653,233.776,0.127227,0.405731,-0.211028,0.473186,-0.26038,0.393896,0.000185972,0.000594395,0.521547,-0.19024860647516795,0.4827463350369392,0.00018598929386448582,0.605099903795068,0.0005945716877138185,-0.22924135813616542
703,0.6929,63.2133,865.044,0.00977589,233.826,0.12731,0.406104,-0.211265,0.473717,-0.260674,0.394341,0.000186219,0.000595199,0.522137,-0.19044049481576675,0.48340630398823126,0.00018623633983438914,0.6059524381718284,0.0005953761660726364,-0.22946792786949066
704,0.6939,63.2268,865.227,0.00975529,233.876,0.127395,0.406478,-0.211502,0.474248,-0.260967,0.394784,0.000186466,0.000596003,0.522727,-0.1906323376842175,0.48406359856089654,0.0001864833858651327,0.606805425364555,0.0005961806450784923,-0.22969366069515096
705,0.6949,63.2402,865.41,0.00973474,233.925,0.127479,0.406852,-0.21174,0.474779,-0.26126,0.395228,0.000186713,0.000596807,0.523316,-0.19082494426675622,0.4847226691014903,0.00018673043195716055,0.6076588656137565,0.0005969851247311642,-0.2299193273907819
706,0.6959,63.2537,865.592,0.00971423,233.975,0.127564,0.407228,-0.211977,0.475309,-0.261553,0.395671,0.00018696,0.000597611,0.523905,-0.1910166960314833,0.4853805469530874,0.00018697747811002863,0.6085111506481153,0.0005977896050306519,-0.2301449279757568
707,0.6969,63.2671,865.775,0.00969375,234.024,0.127649,0.407605,-0.212213,0.475839,-0.261846,0.396114,0.000187207,0.000598416,0.524494,-0.19120759356442496,0.4860387163091362,0.00018722452432395897,0.609363887513267,0.0005985950865754486,-0.23037046246944315
708,0.6979,63.2805,865.956,0.00967332,234.074,0.127734,0.407983,-0.21245,0.476369,-0.262139,0.396557,0.000187454,0.000599221,0.525082,-0.19139925465201424,0.4866971772988018,0.0001874715705989516,0.6102170764487451,0.0005994005687688375,-0.23059593089120278
709,0.6989,63.2939,866.138,0.00965293,234.123,0.12782,0.408363,-0.212687,0.476899,-0.262431,0.396999,0.000187701,0.000600026,0.52567,-0.19159087032130795,0.48735444269612027,0.00018771861693500647,0.6110707176942107,0.0006002060516103747,-0.23082056408134066
710,0.6999,63.3073,866.319,0.00963259,234.172,0.127906,0.408743,-0.212923,0.477428,-0.262724,0.397442,0.000187948,0.000600831,0.526258,-0.1917816323651056,0.4880134866816994,0.00018796566333190157,0.6119231995654459,0.0006010115351005041,-0.23104590064264652
711,0.7009,63.3206,866.501,0.00961228,234.222,0.127992,0.409125,-0.21316,0.477957,-0.263016,0.397884,0.000188195,0.000601637,0.526845,-0.19197315742161936,0.48867133401636376,0.00018821270978985893,0.6127761325188918,0.0006018180198408274,-0.23127040246079822
712,0.7019,63.3339,866.681,0.00959201,234.271,0.128079,0.409508,-0.213396,0.478485,-0.263308,0.398325,0.000188442,0.000602443,0.527432,-0.19216382925630637,0.4893279828550916,0.0001884597563091006,0.613627903164524,0.0006026245052310752,-0.23149483873398913
713,0.7029,63.3472,866.862,0.00957178,234.32,0.128166,0.409891,-0.213632,0.479014,-0.2636,0.398767,0.000188689,0.000603249,0.528019,-0.19235445609774982,0.48998641132548615,0.0001887068028891825,0.6144817381447387,0.0006034309912714697,-0.23171920948135538
714,0.7039,63.3605,867.042,0.00955159,234.369,0.128254,0.410276,-0.213868,0.479542,-0.263891,0.399208,0.000188936,0.000604055,0.528605,-0.19254503795656697,0.4906436402412051,0.00018895384953010463,0.615334409587931,0.0006042374779620108,-0.23194274666515868
715,0.7049,63.3738,867.222,0.00953145,234.418,0.128341,0.410663,-0.214104,0.480069,-0.264183,0.399649,0.000189183,0.000604862,0.529191,-0.19273557484337211,0.49130115905879457,0.00018920089623231107,0.6161859151737983,0.0006050449659074086,-0.23216698664250246
716,0.7059,63.387,867.402,0.00951134,234.466,0.128429,0.41105,-0.214339,0.480597,-0.264474,0.40009,0.00018943,0.000605668,0.529777,-0.19292525969444108,0.49195896790612936,0.00018944794299535772,0.6170394866600521,0.000605851453898687,-0.2323903935421091
717,0.7069,63.4002,867.581,0.00949127,234.515,0.128518,0.411439,-0.214575,0.481124,-0.264765,0.40053,0.000189677,0.000606476,0.530362,-0.19311570685950374,0.49261557429482017,0.00018969498981946664,0.6178918910583528,0.0006066599437533071,-0.23261373543976616
718,0.7079,63.4134,867.761,0.00947124,234.564,0.128607,0.411828,-0.21481,0.48165,-0.265056,0.40097,0.000189924,0.000607283,0.530947,-0.1933053023900444,0.49327246965389104,0.00018994203670463783,0.6187431260482257,0.0006074674336535857,-0.23283701235438647
719,0.7089,63.4266,867.94,0.00945125,234.612,0.128696,0.412219,-0.215045,0.482177,-0.265347,0.40141,0.000190171,0.00060809,0.531532,-0.19349485337087013,0.4939296541105167,0.00019018908365087128,0.6195964285011004,0.0006082749242055652,-0.23306022430487738
720,0.7099,63.4397,868.118,0.0094313,234.661,0.128785,0.412611,-0.21528,0.482703,-0.265638,0.40185,0.000190418,0.000608898,0.532116,-0.19368435981244903,0.49458712779192804,0.000190436130658167,0.6204485603135117,0.0006090834160183967,-0.23328337131014076
721,0.7109,63.4529,868.297,0.00941139,234.709,0.128875,0.413005,-0.215515,0.483229,-0.265928,0.402289,0.000190665,0.000609707,0.5327,-0.19387382172524636,0.49524339558126873,0.00019068317772630294,0.6213011404651592,0.0006098929090943006,-0.23350568689514284
722,0.7119,63.466,868.475,0.00939152,234.758,0.128965,0.413399,-0.21575,0.483754,-0.266218,0.402728,0.000190912,0.000610515,0.533284,-0.19406323911972534,0.49589995153541633,0.0001909302248557232,0.6221525470385731,0.0006107014022145307,-0.23372793801797287
723,0.7129,63.4791,868.653,0.00937169,234.806,0.129056,0.413795,-0.215985,0.484279,-0.266508,0.403167,0.000191159,0.000611324,0.533867,-0.19425261200634658,0.4965567957809034,0.00019117727204598367,0.6230044007177931,0.0006115108965993876,-0.23395012469732201
724,0.7139,63.4921,868.831,0.00935189,234.854,0.129147,0.414192,-0.216219,0.484804,-0.266798,0.403606,0.000191406,0.000612133,0.53445,-0.19444113483710568,0.49721392844431733,0.0001914243192973064,0.6238567017376113,0.000612320391639054,-0.2341722469518761
725,0.7149,63.5052,869.008,0.00933214,234.902,0.129238,0.41459,-0.216454,0.485329,-0.267088,0.404044,0.000191653,0.000612942,0.535032,-0.19463041892866706,0.4978698517817004,0.00019167136660946937,0.6247094503329433,0.0006131298873337521,-0.23439430480031587
726,0.7159,63.5182,869.185,0.00931242,234.95,0.129329,0.414989,-0.216688,0.485853,-0.267378,0.404482,0.000191901,0.000613751,0.535615,-0.19481885336294913,0.4985260624764323,0.00019191941417484593,0.6255610211769937,0.0006139393836832596,-0.23461629826131614
727,0.7169,63.5312,869.362,0.00929274,234.998,0.129421,0.41539,-0.216922,0.486377,-0.267667,0.40492,0.000192148,0.000614561,0.536197,-0.19500724370873213,0.4991825606544025,0.00019216646160935547,0.6264130383610975,0.000614749881302501,-0.23483746219139134
728,0.7179,63.5442,869.539,0.0092731,235.046,0.129513,0.415792,-0.217156,0.4869,-0.267957,0.405358,0.000192395,0.000615371,0.536778,-0.19519558997633157,0.4998393464415565,0.00019241350910492727,0.6272638748545094,0.0006155603795781062,-0.23505932715538114
729,0.7189,63.5572,869.715,0.00925349,235.094,0.129606,0.416195,-0.21739,0.487424,-0.268246,0.405795,0.000192642,0.000616182,0.537359,-0.19538389217606045,0.5004949194682249,0.00019266055666156134,0.6281167845677624,0.0006163718791265538,-0.23528036306860534
730,0.7199,63.5701,869.891,0.00923393,235.142,0.129699,0.416599,-0.217624,0.487947,-0.268535,0.406232,0.00019289,0.000616992,0.53794,-0.1955721503182296,0.5011507790429122,0.00019290860447229718,0.6289685123534929,0.0006171823787159969,-0.23550133511168037
731,0.7209,63.5831,870.067,0.0092144,235.19,0.129792,0.417004,-0.217857,0.48847,-0.268823,0.406669,0.000193137,0.000617803,0.538521,-0.19575956017310947,0.501806925290867,0.00019315565215127783,0.6298206857093618,0.0006179938795800588,-0.23572147902492302
732,0.7219,63.596,870.243,0.00919491,235.237,0.129886,0.417411,-0.218091,0.488992,-0.269112,0.407106,0.000193384,0.000618615,0.539101,-0.19594773041925162,0.5024633583373934,0.0001934026998910987,0.6306716741959737,0.0006188063817209599,-0.2359423236039061
733,0.7229,63.6089,870.418,0.00917545,235.285,0.12998,0.417819,-0.218324,0.489514,-0.2694,0.407542,0.000193632,0.000619426,0.539681,-0.1961350527741621,0.5031185751885225,0.00019365074788568748,0.6315231070145362,0.0006196178839019684,-0.23616234053074991
734,0.7239,63.6217,870.593,0.00915604,235.332,0.130075,0.418228,-0.218557,0.490036,-0.269689,0.407978,0.000193879,0.000620238,0.54026,-0.19632233148804834,0.5037740777764848,0.00019389779574807697,0.632374984397051,0.0006204303873615924,-0.23638305771916657
735,0.7249,63.6346,870.768,0.00913666,235.38,0.130169,0.418639,-0.21879,0.490557,-0.269977,0.408414,0.000194126,0.00062105,0.54084,-0.19650956657107732,0.5044298662258888,0.0001941448436713067,0.6332256733491513,0.0006212428914809109,-0.2366029477328616
736,0.7259,63.6474,870.943,0.00911731,235.427,0.130265,0.419051,-0.219023,0.491079,-0.270265,0.40885,0.000194374,0.000621863,0.541418,-0.19669675803341402,0.505085940661397,0.00019439289184997044,0.6340784397032941,0.0006220563968821757,-0.2368227744273511
737,0.7269,63.6602,871.117,0.00909801,235.475,0.13036,0.419464,-0.219256,0.4916,-0.270553,0.409285,0.000194621,0.000622676,0.541997,-0.19688390588522087,0.5057407954661786,0.00019463993989554673,0.6349300163868428,0.0006228699029446894,-0.23704253782086837
738,0.7279,63.673,871.291,0.00907874,235.522,0.130456,0.419878,-0.219489,0.49212,-0.27084,0.40972,0.000194869,0.000623489,0.542575,-0.19707101013665784,0.5063959351947664,0.00019488798819700115,0.6357804010762214,0.0006236834096684518,-0.23726147519349805
739,0.7289,63.6858,871.465,0.0090595,235.569,0.130552,0.420294,-0.219721,0.49264,-0.271128,0.410155,0.000195116,0.000624302,0.543153,-0.1972572680555521,0.5070513599711299,0.00019513503636470197,0.6366312280806301,0.0006244969170539072,-0.23748111225938662
740,0.7299,63.6986,871.639,0.00904031,235.616,0.130649,0.420711,-0.219954,0.49316,-0.271415,0.410589,0.000195364,0.000625116,0.543731,-0.19744428532373737,0.5077055622129754,0.00019538308478894706,0.637482497630133,0.0006253114257257497,-0.23769992377921323
741,0.7309,63.7113,871.812,0.00902114,235.663,0.130746,0.421129,-0.220186,0.49368,-0.271702,0.411024,0.000195611,0.00062593,0.544308,-0.19763045665283296,0.5083615568010167,0.0001956301330792165,0.6383342099549132,0.0006261259350608395,-0.23791867250914434
742,0.7319,63.724,871.985,0.00900202,235.71,0.130843,0.421548,-0.220418,0.4942,-0.271989,0.411458,0.000195859,0.000626744,0.544885,-0.19781658479519015,0.5090163277916957,0.00019587818162625226,0.6391863652852736,0.0006269404450589544,-0.23813735846719808
743,0.7329,63.7367,872.158,0.00898293,235.757,0.130941,0.421969,-0.22065,0.494719,-0.272276,0.411892,0.000196107,0.000627559,0.545461,-0.19800266976082703,0.5096713830146586,0.00019612623023479436,0.6400373238134935,0.0006277559563476753,-0.2383559816713876
744,0.7339,63.7494,872.331,0.00896387,235.804,0.131039,0.422391,-0.220882,0.495237,-0.272562,0.412325,0.000196354,0.000628374,0.546037,-0.19818871155975937,0.5103252122673219,0.00019637327870847265,0.6408870832159133,0.0006285714683011978,-0.2385737807138819
745,0.7349,63.762,872.503,0.00894486,235.85,0.131138,0.422815,-0.221113,0.495756,-0.272849,0.412759,0.000196602,0.00062919,0.546613,-0.1983739085763102,0.5109808356694332,0.00019662132743980543,0.6417389246458323,0.0006293879815484349,-0.23879227868285868
746,0.7359,63.7747,872.675,0.00892587,235.897,0.131236,0.42324,-0.221345,0.496274,-0.273135,0.413192,0.00019685,0.000630005,0.547189,-0.19855986425782735,0.5116352320378674,0.00019686937623264456,0.6425895657058127,0.0006302034948320046,-0.2390099529622497
747,0.7369,63.7873,872.847,0.00890693,235.944,0.131336,0.423666,-0.221576,0.496792,-0.273421,0.413625,0.000197098,0.000630822,0.547764,-0.19874497554800663,0.5122899118212842,0.00019711742508699004,0.6434406475120058,0.0006310210100421987,-0.23922756499569842
748,0.7379,63.7999,873.019,0.00888801,235.99,0.131435,0.424093,-0.221808,0.49731,-0.273707,0.414057,0.000197346,0.000631638,0.548339,-0.19893084515197168,0.5129433621983099,0.00019736547400284188,0.6442921702927769,0.0006318375252885033,-0.2394451148010045
749,0.7389,63.8124,873.19,0.00886913,236.037,0.131535,0.424522,-0.222039,0.497827,-0.273993,0.414489,0.000197593,0.000632455,0.548913,-0.19911587075546167,0.5135970949268822,0.00019761252278271968,0.6451424891332984,0.0006326550418338517,-0.23966260239596293
750,0.7399,63.825,873.362,0.00885029,236.083,0.131636,0.424952,-0.22227,0.498344,-0.274279,0.414922,0.000197841,0.000633272,0.549488,-0.19930085362297334,0.5142526243808703,0.00019786057182136219,0.6459932477023205,0.0006334725590468882,-0.23988002779836304
751,0.7409,63.8375,873.533,0.00883148,236.129,0.131737,0.425384,-0.222501,0.498861,-0.274564,0.415353,0.000198089,0.00063409,0.550062,-0.1994857937643777,0.5149054079267275,0.00019810862092151105,0.6468444462272416,0.000634291077562299,-0.24009663112300061
752,0.7419,63.85,873.703,0.00881271,236.176,0.131838,0.425816,-0.222731,0.499377,-0.274849,0.415785,0.000198337,0.000634907,0.550635,-0.19966989085983444,0.5155599884421631,0.00019835667008316626,0.6476944372403166,0.000635108596112044,-0.2403131727244867
753,0.7429,63.8625,873.874,0.00879397,236.222,0.131939,0.426251,-0.222962,0.499893,-0.275135,0.416216,0.000198585,0.000635726,0.551208,-0.1998547457634824,0.5162133355833767,0.00019860471930632784,0.6485448669619316,0.000635928116601514,-0.2405304120903774
754,0.7439,63.875,874.044,0.00877526,236.268,0.132041,0.426686,-0.223193,0.500409,-0.275419,0.416647,0.000198834,0.000636544,0.551781,-0.20003955797057926,0.5168669643779003,0.00019885376879003047,0.6493957356185183,0.0006367466371255404,-0.24074607082835342
755,0.7449,63.8875,874.214,0.00875659,236.314,0.132144,0.427123,-0.223423,0.500925,-0.275704,0.417078,0.000199082,0.000637363,0.552354,-0.20022352771491447,0.517520874947152,0.0001991018181364268,0.6502470434366256,0.000637566158956604,-0.24096242736589624
756,0.7459,63.8999,874.384,0.00873795,236.36,0.132246,0.427561,-0.223653,0.50144,-0.275989,0.417509,0.00019933,0.000638183,0.552926,-0.20040745515107405,0.5181750674126038,0.00019934986754455153,0.6510971395449545,0.0006383866820971473,-0.24117872225061188
757,0.7469,63.9124,874.553,0.00871935,236.406,0.132349,0.428001,-0.223883,0.501955,-0.276273,0.417939,0.000199578,0.000639002,0.553498,-0.2005913402887879,0.5188280230669959,0.00019959791701396057,0.6519476735655318,0.0006392062052715808,-0.24139419689464492
758,0.7479,63.9248,874.722,0.00870078,236.452,0.132453,0.428442,-0.224113,0.502469,-0.276558,0.418369,0.000199827,0.000639822,0.55407,-0.20077518313778342,0.5194812595526939,0.00019984696674479885,0.6527969929261215,0.0006400267297570483,-0.24161036874257846
759,0.7489,63.9371,874.892,0.00868224,236.498,0.132557,0.428885,-0.224343,0.502984,-0.276842,0.418799,0.000200075,0.000640643,0.554641,-0.20095898370778587,0.5201347769904809,0.0002000950163376647,0.6536484025966505,0.0006408482555562145,-0.24182572081641363
760,0.7499,63.9495,875.06,0.00866374,236.543,0.132661,0.429329,-0.224573,0.503498,-0.277126,0.419229,0.000200323,0.000641464,0.555212,-0.20114274200851845,0.5207885755011927,0.00020034306599203688,0.6544985963566634,0.0006416697820299522,-0.24204101173894366
761,0.7509,63.9619,875.229,0.00864527,236.589,0.132766,0.429774,-0.224802,0.504012,-0.27741,0.419658,0.000200572,0.000642285,0.555782,-0.20132565937576052,0.5214411337638218,0.00020059211590850445,0.655349227228597,0.0006424913091780393,-0.24225624152753322
762,0.7519,63.9742,875.397,0.00862683,236.634,0.132871,0.43022,-0.225032,0.504525,-0.277693,0.420087,0.00020082,0.000643107,0.556353,-0.20150933335078736,0.5220939720340032,0.0002008401656861114,0.6561986392377173,0.0006433138376438219,-0.24247065267057322
763,0.7529,63.9865,875.565,0.00860843,236.68,0.132977,0.430669,-0.225261,0.505038,-0.277977,0.420516,0.000201069,0.000643929,0.556923,-0.20169216677822355,0.5227470904318854,0.00020108921572625782,0.657048487106987,0.0006441363667859523,-0.24268576045846302
764,0.7539,63.9988,875.733,0.00859006,236.725,0.133083,0.431118,-0.22549,0.505551,-0.27826,0.420945,0.000201318,0.000644751,0.557492,-0.20187495834159852,0.5234004890776691,0.00020133826582857672,0.6578987710600595,0.0006449588966042086,-0.24290005006484383
765,0.7549,64.0111,875.901,0.00857172,236.771,0.133189,0.431569,-0.225719,0.506064,-0.278543,0.421373,0.000201566,0.000645574,0.558062,-0.20205770805049794,0.5240526440382005,0.00020158631579114683,0.658749491320703,0.0006457824277441571,-0.24311427903584626
766,0.7559,64.0233,876.068,0.00855341,236.816,0.133296,0.432021,-0.225948,0.506576,-0.278827,0.421802,0.000201815,0.000646397,0.558631,-0.2022404159145056,0.5247066028866363,0.00020183536601714458,0.6595989885129832,0.0006466059595620077,-0.24332920405980218
767,0.7569,64.0356,876.235,0.00853514,236.861,0.133403,0.432475,-0.226177,0.507088,-0.279109,0.42223,0.000202064,0.000647221,0.559199,-0.20242308194320258,0.5253593169835247,0.00020208441630509277,0.6604489207591897,0.0006474304927051033,-0.24354255514034107
768,0.7579,64.0478,876.402,0.0085169,236.907,0.13351,0.432931,-0.226406,0.5076,-0.279392,0.422657,0.000202313,0.000648045,0.559768,-0.20260570614616824,0.5260107844902908,0.00020233346665521346,0.6612992882821278,0.0006482550265274334,-0.24375660230813345
769,0.7589,64.06,876.569,0.00849869,236.952,0.133618,0.433387,-0.226634,0.508111,-0.279675,0.423085,0.000202562,0.000648869,0.560336,-0.20278749132086948,0.5266640568963752,0.00020258251706728458,0.6621484291554556,0.0006490795610292199,-0.24397058890914813
770,0.7599,64.0722,876.736,0.00848051,236.997,0.133727,0.433845,-0.226863,0.508622,-0.279957,0.423512,0.000202811,0.000649694,0.560903,-0.20297003208364195,0.5273160816460472,0.00020283156754130616,0.6629980040506529,0.0006499050968604703,-0.24418375914465984
771,0.7609,64.0843,876.902,0.00846237,237.042,0.133836,0.434305,-0.227091,0.509133,-0.280239,0.423939,0.00020306,0.000650519,0.561471,-0.20315173420149835,0.5279683848697372,0.00020308061807727817,0.6638480131895614,0.0006507306333727314,-0.24439686927464044
772,0.7619,64.0965,877.068,0.00844425,237.087,0.133945,0.434766,-0.227319,0.509644,-0.280521,0.424366,0.000203309,0.000651345,0.562038,-0.20333339489599422,0.528620966686379,0.00020332966867542268,0.6646984567941367,0.000651557171217565,-0.24460991931603726
773,0.7629,64.1086,877.234,0.00842617,237.132,0.134055,0.435229,-0.227547,0.510154,-0.280803,0.424792,0.000203558,0.000652171,0.562605,-0.20351501417657325,0.5292722979418947,0.00020357871933551763,0.6655476695379448,0.0006523837097451857,-0.24482290928579298
774,0.7639,64.1207,877.399,0.00840812,237.176,0.134165,0.435693,-0.227775,0.510664,-0.281085,0.425218,0.000203807,0.000652998,0.563171,-0.20369659205267654,0.5299239067236341,0.00020382777005756303,0.666397315490711,0.0006532112496087095,-0.24503583920084526
775,0.7649,64.1328,877.565,0.0083901,237.221,0.134275,0.436158,-0.228003,0.511174,-0.281367,0.425644,0.000204057,0.000653825,0.563737,-0.2038781285337432,0.5305757931498487,0.00020407782104592265,0.6672473948734283,0.0006540387901565747,-0.24524870907812724
776,0.7659,64.1449,877.73,0.00837211,237.266,0.134386,0.436625,-0.22823,0.511683,-0.281648,0.42607,0.000204306,0.000654652,0.564303,-0.20405882768843608,0.5312279573388401,0.00020432687189231302,0.6680962398101287,0.0006548663313887815,-0.24546076439570885
777,0.7669,64.1569,877.895,0.00835416,237.31,0.134497,0.437094,-0.228458,0.512192,-0.281929,0.426495,0.000204555,0.00065548,0.564868,-0.20424028158919239,0.5318788675293271,0.00020457592280065384,0.6689455169188803,0.0006556948739611101,-0.24567276013411743
778,0.7679,64.1689,878.059,0.00833623,237.355,0.134609,0.437564,-0.228685,0.512701,-0.28221,0.426921,0.000204805,0.000656308,0.565434,-0.20442089854447165,0.5325315869462592,0.00020482597397575297,0.6697952264197145,0.0006565234172195566,-0.24588469631009247
779,0.7689,64.181,878.224,0.00831833,237.399,0.134721,0.438036,-0.228912,0.513209,-0.282491,0.427346,0.000205054,0.000657137,0.565998,-0.20460147450435517,0.5331830512970801,0.00020507502500843877,0.6706436978882422,0.0006573529618212337,-0.24609657294036857
780,0.7699,64.193,878.388,0.00830047,237.444,0.134834,0.438509,-0.22914,0.513718,-0.282772,0.427771,0.000205304,0.000657966,0.566563,-0.20478280469574084,0.5338347925790938,0.00020532507630854901,0.6714942719832104,0.000658182507110805,-0.24630839004167582
781,0.7709,64.2049,878.552,0.00828264,237.488,0.134947,0.438983,-0.229366,0.514226,-0.283053,0.428195,0.000205554,0.000658796,0.567127,-0.20496250347515266,0.5344852764239774,0.0002055751276710538,0.6723436067861526,0.0006590130537469374,-0.24652014763073948
782,0.7719,64.2169,878.716,0.00826483,237.533,0.13506,0.439459,-0.229593,0.514733,-0.283333,0.428619,0.000205804,0.000659626,0.567691,-0.20514295650467007,0.53513603613249,0.00020582517909617515,0.6731916999682481,0.0006598436010725184,-0.2467310924557492
783,0.7729,64.2289,878.879,0.00824706,237.577,0.135174,0.439937,-0.22982,0.515241,-0.283614,0.429043,0.000206054,0.000660457,0.568254,-0.20532336857599875,0.5357870718216229,0.00020607523058369104,0.6740418972836661,0.0006606751497479912,-0.2469427312821214
784,0.7739,64.2408,879.043,0.00822932,237.621,0.135289,0.440416,-0.230047,0.515748,-0.283894,0.429467,0.000206304,0.000661288,0.568818,-0.20550373969843505,0.5364383836084166,0.0002063252821338235,0.6748908517173529,0.0006615066991144669,-0.24715355780027248
785,0.7749,64.2527,879.206,0.0082116,237.665,0.135403,0.440897,-0.230273,0.516254,-0.284174,0.429891,0.000206554,0.000662119,0.569381,-0.20568327556494614,0.5370899716099613,0.0002065753337463505,0.6757385609406683,0.0006623382491721674,-0.2473643252952621
786,0.7759,64.2646,879.369,0.00819392,237.709,0.135519,0.441379,-0.230499,0.516761,-0.284454,0.430314,0.000206804,0.000662951,0.569943,-0.20586277086093596,0.5377402982023296,0.00020682538542127205,0.6765883758009286,0.0006631708005837567,-0.24757503378361445
787,0.7769,64.2765,879.531,0.00817627,237.753,0.135634,0.441863,-0.230726,0.517267,-0.284733,0.430737,0.000207054,0.000663783,0.570505,-0.20604301955295,0.5383908999410358,0.0002070754371590322,0.6774369441887806,0.0006640033526883471,-0.24778493106715616
788,0.7779,64.2883,879.694,0.00815864,237.797,0.13575,0.442348,-0.230952,0.517773,-0.285013,0.43116,0.000207304,0.000664616,0.571067,-0.20622243355598502,0.5390417769424918,0.0002073254889591869,0.6782859420608873,0.0006648369061503789,-0.2479955218023786
789,0.7789,64.3002,879.856,0.00814105,237.841,0.135867,0.442835,-0.231178,0.518279,-0.285292,0.431583,0.000207554,0.00066545,0.571629,-0.20640180701603694,0.5396929293231578,0.00020757554082173613,0.6791353696346227,0.0006656714609722947,-0.2482053017861272
790,0.7799,64.312,880.018,0.00812348,237.885,0.135984,0.443324,-0.231404,0.518784,-0.285571,0.432005,0.000207805,0.000666284,0.57219,-0.20658113994226734,0.540342816855957,0.00020782659295459638,0.6799835471430835,0.0006665060164903203,-0.24841502324942433
791,0.7809,64.3238,880.18,0.00810595,237.928,0.136101,0.443814,-0.231629,0.519289,-0.28585,0.432427,0.000208055,0.000667118,0.572751,-0.20675963910387163,0.5409929786991705,0.0002080766449426008,0.6808321530893575,0.0006673405727042336,-0.2486246862085949
792,0.7819,64.3356,880.341,0.00808844,237.972,0.136219,0.444306,-0.231855,0.519794,-0.286129,0.432849,0.000208306,0.000667953,0.573312,-0.20693889116918784,0.5416434149685818,0.00020832769720136035,0.6816811876898605,0.0006681761302824718,-0.24883429067995932
793,0.7829,64.3473,880.503,0.00807096,238.016,0.136338,0.444799,-0.23208,0.520299,-0.286408,0.433271,0.000208557,0.000668788,0.573873,-0.20711730984582088,0.5422941257800229,0.00020857874952318056,0.6825306511611173,0.0006690116885583741,-0.24904383667983332
794,0.7839,64.3591,880.664,0.00805351,238.059,0.136456,0.445294,-0.232306,0.520803,-0.286687,0.433693,0.000208807,0.000669624,0.574433,-0.20729648108668297,0.5429451112493753,0.00020882880169903473,0.683378860340061,0.0006698482482019319,-0.24925332422452828
795,0.7849,64.3708,880.825,0.00803609,238.103,0.136576,0.44579,-0.232531,0.521307,-0.286965,0.434114,0.000209058,0.00067046,0.574992,-0.2074748193146354,0.5435948278969693,0.00020907985414653218,0.684227497124178,0.0006706848085447081,-0.2494620027927289
796,0.7859,64.3825,880.986,0.0080187,238.146,0.136695,0.446289,-0.232756,0.521811,-0.287243,0.434535,0.000209309,0.000671297,0.575552,-0.20765311742100045,0.5442448181328581,0.0002093309066570903,0.685076561729036,0.0006715223702584705,-0.2496706233563506
797,0.7869,64.3942,881.146,0.00800134,238.189,0.136816,0.446788,-0.232981,0.522314,-0.287522,0.434955,0.00020956,0.000672134,0.576111,-0.20783137541480445,0.5448935371779371,0.0002095819592307091,0.6859243684450995,0.0006723599326732277,-0.24987993605195535
798,0.7879,64.4059,881.307,0.007984,238.233,0.136936,0.44729,-0.233206,0.522817,-0.2878,0.435376,0.000209811,0.000672972,0.57667,-0.20800959330507152,0.5455440742855417,0.00020983301186738856,0.6867726017152107,0.0006731984964620796,-0.2500884404462793
799,0.7889,64.4176,881.467,0.0079667,238.276,0.137057,0.447793,-0.23343,0.52332,-0.288077,0.435796,0.000210063,0.00067381,0.577228,-0.2081869792881994,0.5461933391328155,0.00021008506477704358,0.6876212617539799,0.0006740370609539248,-0.2502961371809499
800,0.7899,64.4292,881.626,0.00794942,238.319,0.137179,0.448297,-0.233655,0.523822,-0.288355,0.436216,0.000210314,0.000674649,0.577787,-0.20836511717659556,0.5468428767285982,0.00021033611753984438,0.6884686603066215,0.0006748766268231954,-0.2505045258874413
801,0.7909,64.4409,881.786,0.00793217,238.362,0.137301,0.448804,-0.233879,0.524325,-0.288633,0.436636,0.000210565,0.000675489,0.578344,-0.20854242353129493,0.5474926871874684,0.00021058717036570584,0.6893181736774574,0.0006757171940725559,-0.25071285666992404
802,0.7919,64.4525,881.946,0.00791495,238.405,0.137423,0.449311,-0.234104,0.524827,-0.28891,0.437056,0.000210817,0.000676328,0.578902,-0.2087204814537329,0.5481427706240525,0.00021083922346543105,0.6901664242937346,0.0006765567613513657,-0.250920380465254
803,0.7929,64.4641,882.105,0.00789775,238.448,0.137546,0.449821,-0.234328,0.525328,-0.289187,0.437475,0.000211068,0.000677169,0.579459,-0.20889770821574893,0.5487915783606727,0.0002110902764176359,0.6910134098244649,0.0006773983306895826,-0.2511278467844533
804,0.7939,64.4757,882.264,0.00788058,238.491,0.137669,0.450332,-0.234552,0.52583,-0.289464,0.437894,0.00021132,0.00067801,0.580016,-0.20907489528341616,0.5494406580046951,0.00021134232964414856,0.6918625116629269,0.0006782399007354556,-0.25133525564344084
805,0.7949,64.4872,882.423,0.00786344,238.534,0.137793,0.450845,-0.234776,0.526331,-0.289741,0.438313,0.000211572,0.000678851,0.580573,-0.20925204266562514,0.5500900096700729,0.000211594382934166,0.6927103471463245,0.0006790814714889848,-0.2515426070581309
806,0.7959,64.4988,882.581,0.00784633,238.577,0.137918,0.45136,-0.235,0.526832,-0.290018,0.438732,0.000211824,0.000679693,0.581129,-0.20942915037126442,0.550739633470807,0.00021184643628768818,0.693558607501721,0.0006799240436303755,-0.2517499010444332
807,0.7969,64.5103,882.74,0.00782925,238.62,0.138042,0.451876,-0.235223,0.527333,-0.290294,0.43915,0.000212076,0.000680536,0.581685,-0.2096054280150439,0.5513879781321918,0.00021209848970471512,0.6944072929420306,0.0006807676171618482,-0.251956389575017
808,0.7979,64.5218,882.898,0.00781219,238.662,0.138168,0.452394,-0.235447,0.527833,-0.290571,0.439568,0.000212328,0.000681379,0.582241,-0.20978245657122996,0.5520365938582938,0.00021235054318524682,0.6952547084247176,0.0006816111914045297,-0.25216356895943526
809,0.7989,64.5333,883.056,0.00779516,238.705,0.138293,0.452914,-0.23567,0.528333,-0.290847,0.439986,0.00021258,0.000682223,0.582797,-0.20995865543651093,0.5526854807624415,0.00021260259672928328,0.6961025477210909,0.000682455767040846,-0.25236994333342877
810,0.7999,64.5448,883.214,0.00777815,238.748,0.13842,0.453435,-0.235894,0.528833,-0.291123,0.440404,0.000212832,0.000683067,0.583352,-0.2101356048786157,0.5533346389580112,0.00021285465033704654,0.6969508110431097,0.0006833003433899254,-0.25257626075595474
811,0.8009,64.5562,883.371,0.00776117,238.79,0.138546,0.453958,-0.236117,0.529332,-0.291399,0.440821,0.000213084,0.000683911,0.583906,-0.21031172500060435,0.5539825145751345,0.0002131067040080925,0.6977978008041905,0.000684144920451768,-0.2527825212427296
812,0.8019,64.5677,883.529,0.00774422,238.833,0.138674,0.454483,-0.23634,0.529831,-0.291675,0.441239,0.000213337,0.000684757,0.584461,-0.21048780585218463,0.5546322150441652,0.00021335975795611084,0.6986452133186303,0.0006849914995965545,-0.2529887248094653
813,0.8029,64.5791,883.686,0.0077273,238.875,0.138801,0.455009,-0.236563,0.53033,-0.291951,0.441656,0.000213589,0.000685603,0.585015,-0.21066384744211275,0.5552806318633492,0.00021361181175461041,0.6994930487974356,0.0006858380794574348,-0.2531948714718699
814,0.8039,64.5905,883.843,0.0077104,238.917,0.138929,0.455538,-0.236786,0.530829,-0.292226,0.442073,0.000213842,0.000686449,0.585569,-0.21083984977914316,0.5559293191287311,0.0002138648658303044,0.7003413074517182,0.000686684660034631,-0.2534002146462345
815,0.8049,64.6019,884.0,0.00769353,238.96,0.139058,0.456068,-0.237008,0.531327,-0.292502,0.442489,0.000214095,0.000687296,0.586123,-0.21101502388744675,0.5565767203756118,0.00021411791997016927,0.7011882883035567,0.0006875322420154539,-0.2536062477531156
816,0.8059,64.6133,884.156,0.00767668,239.002,0.139187,0.456599,-0.237231,0.531825,-0.292777,0.442905,0.000214348,0.000688144,0.586676,-0.21119094792086113,0.557224390997437,0.000214370974173983,0.7020356910569043,0.0006883808254025681,-0.2538114778145566
817,0.8069,64.6246,884.312,0.00765986,239.044,0.139317,0.457133,-0.237453,0.532323,-0.293052,0.443321,0.000214601,0.000688992,0.587229,-0.21136604409402837,0.5578723311062905,0.0002146240284419676,0.70288351592192,0.0006892294095093288,-0.25401665144549035
818,0.8079,64.636,884.469,0.00764307,239.086,0.139447,0.457668,-0.237676,0.532821,-0.293327,0.443737,0.000214854,0.00068984,0.587781,-0.21154188985866385,0.5585205408143019,0.000214877082773679,0.703731763108868,0.000690077994335736,-0.254221768661433
819,0.8089,64.6473,884.624,0.0076263,239.128,0.139577,0.458205,-0.237898,0.533318,-0.293601,0.444153,0.000215107,0.00069069,0.588334,-0.21171690813136823,0.5591690202336479,0.00021513013716978335,0.7045787282485363,0.0006909285812635169,-0.2544260839043532
820,0.8099,64.6586,884.78,0.00760956,239.17,0.139709,0.458744,-0.23812,0.533815,-0.293876,0.444568,0.000215361,0.00069154,0.588886,-0.21189188755432842,0.5598162096595622,0.0002153841918450805,0.7054261144345004,0.0006917791689142749,-0.2546310885418499
821,0.8109,64.6699,884.936,0.00759284,239.212,0.13984,0.459284,-0.238342,0.534312,-0.294151,0.444984,0.000215614,0.00069239,0.589438,-0.21206682813616828,0.560465228189275,0.0002156372463693046,0.7062739218760723,0.0006926297572880102,-0.25483603681082234
822,0.8119,64.6812,885.091,0.00757615,239.254,0.139972,0.459827,-0.238564,0.534808,-0.294425,0.445399,0.000215868,0.000693241,0.589989,-0.2122417298855096,0.561112955653126,0.00021589130117338762,0.7071204436613705,0.0006934813470782508,-0.25504018376732585
823,0.8129,64.6925,885.246,0.00755948,239.296,0.140105,0.460371,-0.238785,0.535304,-0.294699,0.445813,0.000216121,0.000694093,0.59054,-0.21241580522717118,0.5617593902194888,0.00021614435582595348,0.7079673854256208,0.0006943339382876612,-0.25524427479522593
824,0.8139,64.7037,885.401,0.00754284,239.337,0.140238,0.460917,-0.239007,0.5358,-0.294973,0.446228,0.000216375,0.000694945,0.591091,-0.2125906295121971,0.5624076548720414,0.00021639841075882238,0.708814747377184,0.0006951865302233795,-0.2554483099098448
825,0.8149,64.7149,885.556,0.00752622,239.379,0.140372,0.461464,-0.239228,0.536296,-0.295247,0.446642,0.000216629,0.000695798,0.591642,-0.21276462775556082,0.563054625554849,0.00021665246575630626,0.7096625297245245,0.0006960401235815983,-0.25565228912650073
826,0.8159,64.7261,885.71,0.00750963,239.421,0.140506,0.462014,-0.23945,0.536791,-0.29552,0.447056,0.000216883,0.000696652,0.592192,-0.21293937461058043,0.563701864138971,0.00021690652081818307,0.710509022166333,0.00069689471836476,-0.25585546831634787
827,0.8169,64.7373,885.865,0.00749306,239.462,0.14064,0.462565,-0.239671,0.537286,-0.295794,0.44747,0.000217137,0.000697506,0.592742,-0.21311329578979332,0.5643493707353417,0.00021716057594467486,0.7113559337256234,0.0006977493138777824,-0.2560593359868829
828,0.8179,64.7485,886.019,0.00747652,239.504,0.140775,0.463118,-0.239892,0.537781,-0.296067,0.447883,0.000217391,0.00069836,0.593291,-0.21328717853667256,0.564995580458578,0.00021741463113578163,0.7122032646099099,0.0006986039101204433,-0.2562624040681042
829,0.8189,64.7597,886.173,0.00746,239.545,0.140911,0.463673,-0.240113,0.538276,-0.296341,0.448297,0.000217646,0.000699216,0.593841,-0.2134610228597107,0.5656436227643891,0.0002176696866089678,0.7130510150268101,0.0006994605084920114,-0.2564661602535173
830,0.8199,64.7708,886.327,0.00744351,239.587,0.141047,0.46423,-0.240334,0.53877,-0.296614,0.44871,0.0002179,0.000700072,0.59439,-0.21363482876739848,0.5662903671241082,0.00021792374192952657,0.7138974712857156,0.0007003171075969927,-0.2566691172868726
831,0.8209,64.7819,886.48,0.00742704,239.628,0.141184,0.464789,-0.240555,0.539264,-0.296887,0.449123,0.000218155,0.000700928,0.594938,-0.2138085962682248,0.5669373786444127,0.00021817879753260883,0.7147443457973126,0.0007011737074349433,-0.25687201892052003
832,0.8219,64.7931,886.633,0.0074106,239.67,0.141321,0.465349,-0.240775,0.539758,-0.297159,0.449536,0.00021841,0.000701785,0.595487,-0.213981539352609,0.5675846574356629,0.0002184338532005281,0.7155916387682695,0.000702031308708273,-0.25707412224407566
833,0.8229,64.8042,886.787,0.00739417,239.711,0.141459,0.465911,-0.240996,0.540251,-0.297432,0.449948,0.000218665,0.000702643,0.596035,-0.21415523023886218,0.5682306353768447,0.0002186889089337285,0.7164376339668639,0.0007028899114194243,-0.25727691332646074
834,0.8239,64.8152,886.94,0.00737778,239.752,0.141597,0.466476,-0.241216,0.540744,-0.297705,0.45036,0.00021892,0.000703502,0.596583,-0.21432809707216072,0.5688768795157713,0.00021894396473198796,0.7172840463439172,0.0007037495155710616,-0.25747964905443665
835,0.8249,64.8263,887.092,0.0073614,239.793,0.141736,0.467042,-0.241436,0.541237,-0.297977,0.450772,0.000219175,0.000704361,0.59713,-0.2145009258789391,0.5695233899621386,0.00021919902059508445,0.718130876105149,0.0007046091204612193,-0.25768158712507117
836,0.8259,64.8374,887.245,0.00734505,239.834,0.141875,0.46761,-0.241657,0.54173,-0.298249,0.451184,0.00021943,0.000705221,0.597677,-0.21467450199345273,0.570170166825688,0.00021945407652346205,0.718978123456381,0.0007054697267951937,-0.25788347027602
837,0.8269,64.8484,887.397,0.00732873,239.875,0.142015,0.46818,-0.241877,0.542222,-0.298521,0.451596,0.000219686,0.000706081,0.598224,-0.2148472545995307,0.5708172102162059,0.00021971013273658357,0.7198240687786062,0.0007063303338690208,-0.25808529852221906
838,0.8279,64.8594,887.549,0.00731243,239.916,0.142155,0.468751,-0.242096,0.542714,-0.298793,0.452007,0.000219941,0.000706942,0.598771,-0.2150191842237924,0.5714629487797898,0.00021996518879507931,0.7206704304083336,0.0007071919423904394,-0.25828707187860056
839,0.8289,64.8704,887.701,0.00729615,239.957,0.142296,0.469325,-0.242316,0.543206,-0.299065,0.452418,0.000220197,0.000707804,0.599317,-0.21519186100812038,0.57210895279647,0.0002202212451389851,0.721517208550436,0.0007080545523616699,-0.25848879036009254
840,0.8299,64.8814,887.853,0.00727989,239.998,0.142437,0.469901,-0.242536,0.543698,-0.299336,0.452829,0.000220453,0.000708667,0.599863,-0.2153644998077343,0.5727552223753705,0.00022047730154839407,0.7223644034098888,0.000708918163785377,-0.25868971267170193
841,0.8309,64.8924,888.005,0.00726366,240.039,0.142579,0.470478,-0.242755,0.544189,-0.299608,0.453239,0.000220709,0.00070953,0.600409,-0.2155363161676983,0.5734001842246885,0.00022073335802330618,0.7232102919806132,0.0007097817759544878,-0.25889132164979123
842,0.8319,64.9033,888.156,0.00724745,240.08,0.142721,0.471057,-0.242975,0.54468,-0.299879,0.45365,0.000220965,0.000710393,0.600955,-0.2157088791955124,0.574046984608779,0.0002209894145639435,0.7240565959846064,0.0007106453888687803,-0.2590921348902011
843,0.8329,64.9143,888.307,0.00723126,240.12,0.142864,0.471639,-0.243194,0.545171,-0.30015,0.45406,0.000221221,0.000711258,0.6015,-0.21588062014464826,0.5746924761892003,0.00022124547116986193,0.7249033156258959,0.0007115110039515038,-0.2592928937175961
844,0.8339,64.9252,888.458,0.0072151,240.161,0.143008,0.472222,-0.243413,0.545661,-0.300421,0.45447,0.000221477,0.000712123,0.602045,-0.21605232348663428,0.5753382324754306,0.00022150152784150556,0.725748725359022,0.0007123766197827397,-0.25949359814672013
845,0.8349,64.9361,888.609,0.00719896,240.201,0.143152,0.472807,-0.243632,0.546152,-0.300692,0.45488,0.000221734,0.000712989,0.602589,-0.21622398922970576,0.5759842535760216,0.0002217585848003356,0.7265962760398381,0.0007132432370762221,-0.25969424819231324
846,0.8359,64.947,888.76,0.00718284,240.242,0.143297,0.473394,-0.243851,0.546642,-0.300963,0.455289,0.00022199,0.000713855,0.603133,-0.2163956173820959,0.5766289629698178,0.00022201464160342965,0.72744251552684,0.0007141098551202152,-0.2598948438691112
847,0.8369,64.9578,888.91,0.00716674,240.282,0.143442,0.473983,-0.24407,0.547131,-0.301234,0.455699,0.000222247,0.000714722,0.603677,-0.216567207952036,0.5772755133784122,0.0002222716986941542,0.7282874414844929,0.0007149774746295634,-0.26009538519184616
848,0.8379,64.9687,889.061,0.00715067,240.323,0.143587,0.474574,-0.244289,0.547621,-0.301504,0.456108,0.000222504,0.00071559,0.604221,-0.2167387609477558,0.577920751005484,0.00022252875585104803,0.7291345098456201,0.0007158460956069312,-0.2602951324707482
849,0.8389,64.9796,889.211,0.00713461,240.363,0.143734,0.475167,-0.244507,0.54811,-0.301774,0.456517,0.000222761,0.000716459,0.604764,-0.21690949328736797,0.5785662525887207,0.00022278581307388912,0.7299802633908232,0.0007167157180549832,-0.26049482582516514
850,0.8399,64.9904,889.361,0.00711859,240.404,0.14388,0.475763,-0.244726,0.548599,-0.302044,0.456925,0.000223019,0.000717328,0.605307,-0.21708097133080695,0.5792104390248738,0.00022304387058591502,0.7308264306106453,0.0007175853412588751,-0.26069446526965456
851,0.8409,65.0012,889.51,0.00710258,240.444,0.144028,0.47636,-0.244944,0.549087,-0.302314,0.457334,0.000223276,0.000718198,0.60585,-0.2172516290766866,0.5798564681983951,0.00022330092794131673,0.7316712800352767,0.0007184559659367817,-0.26089405081877015
852,0.8419,65.012,889.66,0.00708659,240.484,0.144176,0.476959,-0.245162,0.549576,-0.302584,0.457742,0.000223533,0.000719069,0.606393,-0.21742224962323264,0.5805011811499188,0.0002235579853626657,0.7325182743644494,0.0007193275920915898,-0.2610935824870617
853,0.8429,65.0228,889.809,0.00707063,240.524,0.144324,0.47756,-0.24538,0.550064,-0.302854,0.45815,0.000223791,0.00071994,0.606935,-0.21759283297855347,0.5811461571979946,0.0002238160430738656,0.7333639496103166,0.0007201992190053463,-0.26129306028907506
854,0.8439,65.0335,889.958,0.00705468,240.564,0.144473,0.478163,-0.245598,0.550552,-0.303123,0.458558,0.000224049,0.000720812,0.607477,-0.21776337915075594,0.5817913964499881,0.0002240741008516789,0.7342100376464165,0.000721071847399557,-0.26149174573146716
855,0.8449,65.0443,890.107,0.00703876,240.604,0.144623,0.478768,-0.245816,0.551039,-0.303393,0.458965,0.000224307,0.000721685,0.608018,-0.21793388814794512,0.5824353165772003,0.00022433215869610557,0.7350548036185682,0.0007219454772766642,-0.26169111604391637
856,0.8459,65.055,890.256,0.00702286,240.644,0.144773,0.479375,-0.246034,0.551526,-0.303662,0.459372,0.000224565,0.000722558,0.60856,-0.2181043599782243,0.583079498833244,0.00022459021660714562,0.7358999810919411,0.0007228191079164947,-0.261889694423711
857,0.8469,65.0657,890.405,0.00700698,240.684,0.144923,0.479984,-0.246252,0.552014,-0.303931,0.459779,0.000224823,0.000723433,0.609101,-0.2182747946496949,0.5837239433248271,0.00022484827458479906,0.7367473070134234,0.0007236947407662786,-0.26208821939310556
858,0.8479,65.0764,890.553,0.00699113,240.724,0.145075,0.480595,-0.246469,0.5525,-0.3042,0.460186,0.000225082,0.000724308,0.609641,-0.218444410615258,0.5843686501587015,0.0002251073328540798,0.7375915713442467,0.0007245703743823384,-0.2622866909664654
859,0.8489,65.0871,890.701,0.00697529,240.764,0.145227,0.481208,-0.246687,0.552987,-0.304469,0.460593,0.00022534,0.000725183,0.610182,-0.21861477116376937,0.585013619441662,0.00022536539096496,0.7384379845243723,0.0007254460087644521,-0.26248510915815215
860,0.8499,65.0978,890.849,0.00695947,240.804,0.145379,0.481823,-0.246904,0.553473,-0.304738,0.460999,0.000225599,0.00072606,0.610722,-0.21878431336243298,0.5856572656224885,0.00022562444936813364,0.7392830707241638,0.000726323645365401,-0.26268347398252356
861,0.8509,65.1085,890.997,0.00694368,240.843,0.145532,0.48244,-0.247121,0.553959,-0.305006,0.461406,0.000225858,0.000726937,0.611262,-0.21895381877443099,0.5863027594786863,0.00022588350783836475,0.7401285677356675,0.0007272012827361785,-0.2628810483353504
862,0.8519,65.1191,891.145,0.0069279,240.883,0.145685,0.48306,-0.247338,0.554445,-0.305275,0.461812,0.000226117,0.000727815,0.611801,-0.21912328740774523,0.5869469291566307,0.00022614256637587538,0.7409744757585865,0.0007280799216045075,-0.2630793066664072
863,0.8529,65.1297,891.292,0.00691215,240.923,0.14584,0.483681,-0.247555,0.55493,-0.305543,0.462217,0.000226376,0.000728694,0.61234,-0.21929271927035576,0.5875897728299961,0.00022640162498022143,0.7418190531727971,0.0007289595619732747,-0.2632767749502887
864,0.8539,65.1404,891.44,0.00689642,240.962,0.145994,0.484305,-0.247772,0.555415,-0.305811,0.462623,0.000226636,0.000729573,0.612879,-0.2194621143702411,0.5882344651414486,0.00022666168387841523,0.7426640403064022,0.0007298392031154233,-0.2634741903197608
865,0.8549,65.1509,891.587,0.0068807,241.002,0.14615,0.48493,-0.247988,0.5559,-0.306079,0.463028,0.000226895,0.000730454,0.613418,-0.21963069234646027,0.5888778303724962,0.00022692074261754236,0.7435094373581643,0.0007307208464921722,-0.263671552789003
866,0.8559,65.1615,891.734,0.00686501,241.041,0.146305,0.485558,-0.248205,0.556385,-0.306347,0.463433,0.000227155,0.000731335,0.613957,-0.21980001411414485,0.5895214562192335,0.00022718080165073928,0.7443552445269419,0.0007316024906456331,-0.2638688623721904
867,0.8569,65.1721,891.88,0.00684934,241.081,0.146462,0.486188,-0.248421,0.556869,-0.306614,0.463838,0.000227415,0.000732217,0.614495,-0.2199685191119013,0.5901653427872311,0.00022744086075143777,0.7451997168111004,0.0007324851363081919,-0.2640653831492459
868,0.8579,65.1826,892.027,0.00683369,241.12,0.146619,0.48682,-0.248638,0.557354,-0.306882,0.464243,0.000227675,0.000733099,0.615032,-0.22013776757913117,0.5908094901821028,0.00022770091991985986,0.7460463439642429,0.0007333677827492391,-0.2642625872000387
869,0.8589,65.1932,892.173,0.00681805,241.159,0.146777,0.487454,-0.248854,0.557837,-0.307149,0.464647,0.000227935,0.000733983,0.61557,-0.22030619963001774,0.5914523070564017,0.00022796097915600555,0.7468898880478747,0.0007342524314375432,-0.26445900286659796
870,0.8599,65.2037,892.32,0.00680244,241.198,0.146935,0.48809,-0.24907,0.558321,-0.307416,0.465052,0.000228195,0.000734867,0.616107,-0.2204745953035102,0.5920969757773638,0.0002282210384596528,0.7477355873964229,0.0007351370809076663,-0.26465536609717477
871,0.8609,65.2142,892.466,0.00678685,241.238,0.147094,0.488728,-0.249286,0.558805,-0.307683,0.465456,0.000228456,0.000735752,0.616644,-0.2206429546074652,0.5927403129009265,0.00022848209805936825,0.7485816961625271,0.0007360227318957691,-0.2648516769057676
872,0.8619,65.2247,892.611,0.00677127,241.277,0.147253,0.489369,-0.249502,0.559288,-0.30795,0.465859,0.000228717,0.000736637,0.617181,-0.22081127754973773,0.5933823166020826,0.0002287431577272514,0.7494264651170532,0.0007369083836679113,-0.2650479353063714
873,0.8629,65.2352,892.757,0.00675572,241.316,0.147413,0.490012,-0.249718,0.55977,-0.308217,0.466263,0.000228978,0.000737524,0.617717,-0.2209795641381812,0.5940261731082466,0.00022900421746330224,0.7502698919227708,0.0007377960376993009,-0.26524414131297713
874,0.8639,65.2456,892.903,0.00674018,241.355,0.147574,0.490656,-0.249933,0.560253,-0.308484,0.466666,0.000229239,0.000738411,0.618253,-0.2211470355280719,0.5946686951154978,0.00022926527726752077,0.7511154764727994,0.0007386836925180607,-0.265440294939572
875,0.8649,65.2561,893.048,0.00672467,241.394,0.147735,0.491303,-0.250149,0.560735,-0.30875,0.46707,0.0002295,0.000739299,0.618789,-0.2213152496006241,0.5953130714235744,0.00022952633713968495,0.7519597175782209,0.0007395723488636818,-0.26563566183616893
876,0.8659,65.2665,893.193,0.00670917,241.433,0.147896,0.491953,-0.250364,0.561217,-0.309017,0.467472,0.000229761,0.000740188,0.619325,-0.2214826488258983,0.5959545162000484,0.00022978739708023888,0.7528043657059398,0.000740462006739051,-0.26583171094073854
877,0.8669,65.2769,893.338,0.0066937,241.472,0.148059,0.492604,-0.25058,0.561699,-0.309283,0.467875,0.000230023,0.000741078,0.61986,-0.22165079041380675,0.5965978154861766,0.0002300494573188594,0.7536494210521878,0.0007413526661466108,-0.26602697373452533
878,0.8679,65.2873,893.483,0.00667824,241.51,0.148222,0.493257,-0.250795,0.562181,-0.309549,0.468278,0.000230285,0.000741969,0.620395,-0.2218181175055608,0.5972413740741631,0.0002303115176260917,0.7544948838132921,0.0007422443270890255,-0.26622218459531655
879,0.8689,65.2977,893.628,0.0066628,241.549,0.148386,0.493913,-0.25101,0.562662,-0.309815,0.46868,0.000230547,0.00074286,0.620929,-0.22198540862585725,0.5978835941841343,0.00023057357800215783,0.755338998845797,0.0007431359888259159,-0.26641734353692414
880,0.8699,65.3081,893.772,0.00664738,241.588,0.14855,0.494571,-0.251225,0.563143,-0.310081,0.469082,0.000230809,0.000743752,0.621464,-0.22215266378242915,0.5985260725184891,0.0002308356384466137,0.7561835199952958,0.0007440286521014361,-0.2666124505731571
881,0.8709,65.3185,893.916,0.00663197,241.627,0.148715,0.495231,-0.25144,0.563624,-0.310346,0.469484,0.000231071,0.000744645,0.621998,-0.22231988298300764,0.5991688091810552,0.0002310976989599034,0.757028447457178,0.0007449223169180286,-0.26680677252495943
882,0.8719,65.3288,894.06,0.00661659,241.665,0.14888,0.495894,-0.251654,0.564105,-0.310612,0.469886,0.000231334,0.000745539,0.622532,-0.22248628872200016,0.5998118042757008,0.0002313607597732581,0.7578737814269263,0.0007458169832783579,-0.2670017759868576
883,0.8729,65.3391,894.204,0.00660122,241.704,0.149046,0.496558,-0.251869,0.564585,-0.310877,0.470287,0.000231596,0.000746434,0.623065,-0.22265343620092715,0.6004534574520788,0.0002316228204239934,0.7587177633814759,0.0007467126511855326,-0.26719599478109424
884,0.8739,65.3494,894.348,0.00658587,241.742,0.149213,0.497225,-0.252083,0.565065,-0.311143,0.470688,0.000231859,0.00074733,0.623598,-0.22281977056716817,0.6010953679829769,0.00023188588137545985,0.759562150544606,0.0007476093206417733,-0.26739089472364086
885,0.8749,65.3597,894.492,0.00657055,241.781,0.14938,0.497894,-0.252298,0.565545,-0.311408,0.471089,0.000232122,0.000748226,0.624131,-0.22298684635520538,0.6017375359716146,0.00023214894239598216,0.7604069431108633,0.0007485059909013714,-0.2675850104150741
886,0.8759,65.37,894.635,0.00655523,241.819,0.149548,0.498566,-0.252512,0.566024,-0.311673,0.47149,0.000232386,0.000749123,0.624664,-0.22315310937930732,0.6023799615212535,0.0002324130037181238,0.7612503800236274,0.0007494036627138101,-0.26777907467266426
887,0.8769,65.3803,894.778,0.00653994,241.858,0.149717,0.499239,-0.252726,0.566503,-0.311937,0.471891,0.000232649,0.000750022,0.625196,-0.22331933682692884,0.6030226447351958,0.00023267606487742398,0.7620942210394477,0.0007503033368321255,-0.2679723554827611
888,0.8779,65.3905,894.921,0.00652466,241.896,0.149886,0.499915,-0.25294,0.566982,-0.312202,0.472291,0.000232913,0.000750921,0.625728,-0.2234855287056826,0.6036639820520022,0.00023294012633878758,0.7629384663519359,0.0007512030117591273,-0.2681663171075078
889,0.8789,65.4008,895.064,0.00650941,241.934,0.150056,0.500594,-0.253154,0.567461,-0.312467,0.472691,0.000233177,0.00075182,0.62626,-0.22365168502317956,0.6043055759550491,0.00023320418786987318,0.7637831161547965,0.0007521026874950376,-0.2683602273392339
890,0.8799,65.411,895.207,0.00649416,241.972,0.150226,0.501274,-0.253368,0.56794,-0.312731,0.473091,0.000233441,0.000752721,0.626792,-0.2238178057870288,0.6049474265469914,0.0002334682494706808,0.7646281706418268,0.0007530043655459284,-0.268553354745277
891,0.8809,65.4212,895.349,0.00647894,242.011,0.150397,0.501957,-0.253582,0.568418,-0.312995,0.473491,0.000233705,0.000753623,0.627323,-0.2239838910048383,0.6055895339305255,0.00023373231114098836,0.7654718645341696,0.0007539070451629826,-0.2687464311724145
892,0.8819,65.4314,895.492,0.00646374,242.049,0.150569,0.502642,-0.253795,0.568896,-0.313259,0.47389,0.000233969,0.000754525,0.627854,-0.22414916483376657,0.6062302919772933,0.00023399637288123998,0.7663159618085935,0.0007548097255942743,-0.268939456634103
893,0.8829,65.4416,895.634,0.00644855,242.087,0.150741,0.50333,-0.254009,0.569374,-0.313523,0.47429,0.000234234,0.000755429,0.628385,-0.224315179148327,0.6068729126096424,0.00023426143492533136,0.7671604626579616,0.0007557144083509826,-0.2691324311437955
894,0.8839,65.4518,895.776,0.00643337,242.125,0.150914,0.504019,-0.254222,0.569851,-0.313787,0.474689,0.000234499,0.000756333,0.628915,-0.22448038242039525,0.6075141828266744,0.00023452649703981088,0.768003599270745,0.0007566190919259252,-0.26932535471494157
895,0.8849,65.4619,895.918,0.00641822,242.163,0.151088,0.504711,-0.254435,0.570328,-0.314051,0.475087,0.000234764,0.000757238,0.629445,-0.22464555050791402,0.6081541008066702,0.0002347915592244565,0.768847138155627,0.000757524777075913,-0.2695182273609874
896,0.8859,65.4721,896.06,0.00640308,242.201,0.151262,0.505406,-0.254649,0.570805,-0.314314,0.475486,0.000235029,0.000758144,0.629975,-0.22481145860730545,0.6087958823197896,0.0002350566214792682,0.7696910795045373,0.0007584314638040546,-0.2697103188060592
897,0.8869,65.4822,896.201,0.00638796,242.239,0.151437,0.506103,-0.254862,0.571282,-0.314578,0.475885,0.000235294,0.000759051,0.630504,-0.22497655618310608,0.6094379199548257,0.00023532168380446805,0.7705354235094968,0.0007593391521130144,-0.269903089834999
898,0.8879,65.4923,896.342,0.00637286,242.276,0.151613,0.506802,-0.255074,0.571758,-0.314841,0.476283,0.00023556,0.000759959,0.631034,-0.22514084373809917,0.6100786037345827,0.00023558774643550606,0.7713783989833336,0.000760247842005457,-0.2700950800745492
899,0.8889,65.5024,896.484,0.00635777,242.314,0.151789,0.507504,-0.255287,0.572235,-0.315104,0.476681,0.000235826,0.000760868,0.631563,-0.22530587116233836,0.6107195425572343,0.00023585380913715426,0.7722235480316721,0.0007611575334842691,-0.27028701982730574
900,0.8899,65.5125,896.625,0.0063427,242.352,0.151966,0.508207,-0.2555,0.572711,-0.315367,0.477079,0.000236092,0.000761778,0.632091,-0.22547086343947942,0.6113607365243074,0.00023611987190963468,0.7730673272440558,0.000762068226552115,-0.27047890910654493
901,0.8909,65.5225,896.765,0.00632764,242.39,0.152144,0.508914,-0.255712,0.573186,-0.31563,0.477476,0.000236358,0.000762688,0.63262,-0.22563504621244146,0.6120005737359904,0.00023638593475294734,0.7739097342803289,0.0007629789204484094,-0.27067074792553947
902,0.8919,65.5326,896.906,0.0063126,242.427,0.152322,0.509623,-0.255925,0.573662,-0.315893,0.477874,0.000236625,0.0007636,0.633148,-0.2257999683827635,0.6126422776549465,0.00023665299790365246,0.7747543163084223,0.0007638916167014287,-0.2708625362975585
903,0.8929,65.5426,897.047,0.00629758,242.465,0.152501,0.510334,-0.256137,0.574137,-0.316155,0.478271,0.000236891,0.000764512,0.633676,-0.2259640813928726,0.6132826237394629,0.00023691906088862957,0.7755975248548446,0.0007648043137868932,-0.271053545289778
904,0.8939,65.5527,897.187,0.00628257,242.502,0.15268,0.511047,-0.256349,0.574612,-0.316418,0.478668,0.000237158,0.000765426,0.634204,-0.22612815961471133,0.6139232240918437,0.0002371861241816653,0.7764411340204658,0.0007657190132359659,-0.2712452329993281
905,0.8949,65.5627,897.327,0.00626758,242.54,0.152861,0.511763,-0.256562,0.575087,-0.31668,0.479065,0.000237425,0.00076634,0.634731,-0.22629297676306392,0.6145640788130533,0.00023745318754597733,0.7772851439956254,0.0007666337135212586,-0.27143614173814545
906,0.8959,65.5727,897.467,0.00625261,242.577,0.153042,0.512482,-0.256774,0.575561,-0.316942,0.479461,0.000237693,0.000767255,0.635258,-0.2264569852664745,0.6152035727997158,0.0002377212512194582,0.7781277768420873,0.0007675494154100182,-0.271627000465425
907,0.8969,65.5826,897.607,0.00623765,242.615,0.153223,0.513202,-0.256985,0.576035,-0.317204,0.479857,0.00023796,0.000768172,0.635785,-0.22662018562434005,0.6158433200761448,0.00023798831472676696,0.7789708091911931,0.0007684671196734882,-0.271817809194268
908,0.8979,65.5926,897.747,0.00622271,242.652,0.153405,0.513926,-0.257197,0.576509,-0.317466,0.480254,0.000238228,0.000769089,0.636311,-0.22678412476682464,0.6164849372267924,0.0002382563785434666,0.7798142412323521,0.0007693848247787294,-0.2720085679377726
909,0.8989,65.6026,897.886,0.00620778,242.689,0.153588,0.514651,-0.257409,0.576983,-0.317728,0.48065,0.000238496,0.000770007,0.636837,-0.2269480291578947,0.6171251920240173,0.00023852444243210869,0.7806580731550627,0.000770303531495653,-0.2721992767090329
910,0.8999,65.6125,898.026,0.00619286,242.727,0.153772,0.51538,-0.25762,0.577456,-0.317989,0.481045,0.000238764,0.000770926,0.637363,-0.22711112591642924,0.617764082647458,0.00023879250639247118,0.7815005236474997,0.0007712232398271457,-0.27238920791071186
911,0.9009,65.6224,898.165,0.00617797,242.764,0.153956,0.51611,-0.257832,0.577929,-0.318251,0.481441,0.000239032,0.000771846,0.637889,-0.22727496099060351,0.6184048440865779,0.00023906057042477613,0.7823433727132749,0.000772143949776094,-0.27257981696736244
912,0.9019,65.6323,898.304,0.00616308,242.801,0.154141,0.516844,-0.258043,0.578402,-0.318512,0.481836,0.000239301,0.000772768,0.638414,-0.2274379887737985,0.6190442402724252,0.00023932963476847036,0.7831866205409579,0.0007730666621181825,-0.2727696488609943
913,0.9029,65.6422,898.443,0.00614822,242.838,0.154327,0.517579,-0.258254,0.578875,-0.318773,0.482231,0.00023957,0.00077369,0.638939,-0.22760098216176006,0.6196838890696537,0.00023959869918432908,0.7840302673192079,0.0007739893753109239,-0.272959431214967
914,0.9039,65.6521,898.581,0.00613336,242.875,0.154513,0.518317,-0.258466,0.579348,-0.319035,0.482626,0.000239839,0.000774613,0.639464,-0.22776471339741755,0.6203237905780641,0.00023986776367257434,0.7848743132367728,0.0007749130901295587,-0.2731498908926814
915,0.9049,65.662,898.72,0.00611853,242.912,0.1547,0.519058,-0.258677,0.57982,-0.319295,0.483021,0.000240108,0.000775537,0.639989,-0.22792763785375614,0.6209639448974971,0.0002401368282329841,0.7857169727646249,0.0007758378065763072,-0.2733388473556446
916,0.9059,65.6719,898.858,0.0061037,242.949,0.154888,0.519801,-0.258887,0.580292,-0.319556,0.483415,0.000240378,0.000776462,0.640513,-0.22808975602680281,0.6216027305242915,0.0002404068931065595,0.7865600301216547,0.0007767635246545002,-0.27352848116819584
917,0.9069,65.6817,898.997,0.00608889,242.986,0.155076,0.520547,-0.259098,0.580764,-0.319817,0.483809,0.000240648,0.000777388,0.641037,-0.22825261190638169,0.622241767882211,0.00024067695805274347,0.7874034854956811,0.0007776902443665801,-0.2737180654927803
918,0.9079,65.6915,899.135,0.0060741,243.023,0.155266,0.521295,-0.259309,0.581235,-0.320077,0.484203,0.000240918,0.000778315,0.641561,-0.228415433426995,0.6228810570704566,0.00024094702307198013,0.7882455508281683,0.0007786179657154335,-0.2739068742495502
919,0.9089,65.7013,899.272,0.00605932,243.059,0.155455,0.522046,-0.259519,0.581706,-0.320338,0.484597,0.000241188,0.000779243,0.642084,-0.22857744917372647,0.6235205981882692,0.00024121708816426946,0.789088012866844,0.000779546688703725,-0.27409635982642766
920,0.9099,65.7111,899.41,0.00604455,243.096,0.155646,0.5228,-0.25973,0.582177,-0.320598,0.484991,0.000241458,0.000780172,0.642608,-0.22874020216090685,0.6241603913349287,0.00024148715332916737,0.7899308717986011,0.0007804764133345632,-0.2742850702394559
921,0.9109,65.7209,899.548,0.0060298,243.133,0.155837,0.523556,-0.25994,0.582648,-0.320858,0.485384,0.000241729,0.000781102,0.64313,-0.22890214971336487,0.6247988118101298,0.00024175821880900727,0.7907741278104201,0.0007814071396103905,-0.2744737315941548
922,0.9119,65.7307,899.685,0.00601507,243.17,0.156029,0.524314,-0.26015,0.583118,-0.321118,0.485778,0.000242,0.000782033,0.643653,-0.22906406326040762,0.6254391086721816,0.0002420292843621219,0.7916159894724843,0.0007823388675340937,-0.2746623439032776
923,0.9129,65.7405,899.822,0.00600034,243.206,0.156222,0.525075,-0.260361,0.583589,-0.321378,0.486171,0.000242271,0.000782965,0.644175,-0.22922671358284719,0.6260780317820576,0.00024230034998895533,0.792460039361671,0.0007832715971085591,-0.2748509071795746
924,0.9139,65.7502,899.96,0.00598563,243.243,0.156415,0.525839,-0.260571,0.584059,-0.321638,0.486563,0.000242543,0.000783898,0.644698,-0.22938855897863342,0.6267155793216699,0.00024257241593161893,0.7933026935884024,0.0007842053283366734,-0.27503942143579263
925,0.9149,65.7599,900.096,0.00597094,243.279,0.156609,0.526605,-0.260781,0.584528,-0.321897,0.486956,0.000242814,0.000784833,0.645219,-0.229550370390455,0.6273550041830986,0.0002428434817054459,0.7941439498108593,0.0007851410620061117,-0.27522716191219965
926,0.9159,65.7696,900.233,0.00595626,243.316,0.156804,0.527374,-0.26099,0.584998,-0.322157,0.487348,0.000243086,0.000785768,0.645741,-0.2297113775372105,0.6279930523940174,0.00024311554779576916,0.7949873956615188,0.0007860767965504056,-0.2754155783549035
927,0.9169,65.7794,900.37,0.00594159,243.352,0.157,0.528146,-0.2612,0.585467,-0.322416,0.487741,0.000243358,0.000786704,0.646262,-0.22987312116425251,0.6286329794010286,0.00024338761396025532,0.7958294421945611,0.0007870135327567862,-0.27560322141928373
928,0.9179,65.789,900.506,0.00592693,243.389,0.157196,0.52892,-0.26141,0.585936,-0.322675,0.488133,0.000243631,0.000787642,0.646783,-0.2300348308286989,0.629271528676435,0.000243660680442348,0.7966718837400508,0.0007879522714155929,-0.27579081589040344
929,0.9189,65.7987,900.643,0.00591229,243.425,0.157393,0.529697,-0.261619,0.586405,-0.322934,0.488524,0.000243903,0.00078858,0.647304,-0.2301957367338029,0.6299086984027114,0.00024393274675515997,0.797514720483292,0.0007888910109552505,-0.27597836178084667
930,0.9199,65.8084,900.779,0.00589766,243.461,0.157591,0.530477,-0.261828,0.586873,-0.323193,0.488916,0.000244176,0.000789519,0.647824,-0.23035660901308685,0.6305477478579953,0.00024420581338602254,0.7983561542526223,0.0007898307521649883,-0.276165859103194
931,0.9209,65.818,900.915,0.00588304,243.497,0.157789,0.531259,-0.262038,0.587342,-0.323452,0.489307,0.000244449,0.00079046,0.648345,-0.23051821715574516,0.6311854166835391,0.0002444788800914921,0.7991997811039997,0.0007907724958389206,-0.2763533078700232
932,0.9219,65.8277,901.051,0.00586844,243.534,0.157988,0.532044,-0.262247,0.58781,-0.32371,0.489698,0.000244723,0.000791402,0.648865,-0.23067902204366353,0.631823334886344,0.0002447529471161225,0.8000420036662639,0.0007917152411904826,-0.27653998463425467
933,0.9229,65.8373,901.186,0.00585385,243.57,0.158188,0.532831,-0.262456,0.588277,-0.323969,0.490089,0.000244996,0.000792344,0.649384,-0.2308397933268721,0.6324615025639351,0.0002450260139710281,0.8008828195972149,0.0007926579874304451,-0.2767273365151185
934,0.9239,65.8469,901.322,0.00583927,243.606,0.158389,0.533621,-0.262665,0.588745,-0.324227,0.49048,0.00024527,0.000793288,0.649904,-0.23100053101239348,0.6330999198138767,0.00024530008114576063,0.8017258300058352,0.0007936027361454823,-0.27691391679240684
935,0.9249,65.8565,901.457,0.00582471,243.642,0.15859,0.534414,-0.262874,0.589212,-0.324485,0.490871,0.000245544,0.000794233,0.650423,-0.23116123510724895,0.6337385867337699,0.00024557414839554426,0.8025674324673273,0.0007945484865468089,-0.27710044893819297
936,0.9259,65.8661,901.592,0.00581016,243.678,0.158792,0.53521,-0.263082,0.589679,-0.324743,0.491261,0.000245819,0.000795179,0.650942,-0.23132113693997958,0.6343758690445691,0.0002458492159662651,0.8034094280489552,0.0007954952386375336,-0.27728693296489293
937,0.9269,65.8756,901.727,0.00579562,243.714,0.158995,0.536008,-0.263291,0.590146,-0.325001,0.491651,0.000246093,0.000796126,0.65146,-0.23148177403519798,0.6350133999439411,0.0002461232833663729,0.8042518169343491,0.0007964429924203209,-0.27747336888492014
938,0.9279,65.8852,901.862,0.00578109,243.75,0.159199,0.536809,-0.263499,0.590613,-0.325259,0.492041,0.000246368,0.000797074,0.651978,-0.2316416092027649,0.6356511795288546,0.00024639835108808406,0.8050945993072249,0.0007973917478980574,-0.27765975671068444
939,0.9289,65.8947,901.997,0.00576658,243.786,0.159403,0.537613,-0.263708,0.591079,-0.325517,0.492431,0.000246643,0.000798023,0.652497,-0.23180217932627922,0.6362892078963154,0.0002466734188855124,0.8059359694145114,0.0007983415050734077,-0.27784609645459246
940,0.9299,65.9043,902.132,0.00575207,243.822,0.159608,0.53842,-0.263916,0.591545,-0.325774,0.492821,0.000246919,0.000798974,0.653014,-0.23196194785647617,0.6369274851433679,0.0002469494870054323,0.8067777316916362,0.0007992932647487017,-0.278031666161075
941,0.9309,65.9138,902.266,0.00573758,243.857,0.159814,0.539229,-0.264124,0.592011,-0.326032,0.49321,0.000247195,0.000799925,0.653532,-0.23212168315827475,0.6375643738019017,0.0002472255552017355,0.8076198863213933,0.0008002450253292714,-0.27821790996472173
942,0.9319,65.9233,902.401,0.0057231,243.893,0.160021,0.540041,-0.264332,0.592477,-0.326289,0.493599,0.000247471,0.000800878,0.654049,-0.23228138523858566,0.638201510258317,0.00024750162347397797,0.8084624334866617,0.0008011987884171123,-0.27840338412740995
943,0.9329,65.9328,902.535,0.00570864,243.929,0.160228,0.540856,-0.26454,0.592942,-0.326546,0.493988,0.000247747,0.000801831,0.654566,-0.23244105410431837,0.6388388946090262,0.0002477776918226038,0.8093035640659365,0.0008021525524140038,-0.27858881062936314
944,0.9339,65.9422,902.669,0.00569418,243.964,0.160436,0.541674,-0.264748,0.593407,-0.326803,0.494377,0.000248023,0.000802786,0.655083,-0.23260068976238069,0.639476526950479,0.0002480537602473909,0.8101450858618815,0.0008031083189261601,-0.2787741894828284
945,0.9349,65.9517,902.802,0.00567974,244.0,0.160645,0.542494,-0.264956,0.593872,-0.32706,0.494765,0.0002483,0.000803742,0.655599,-0.2327602922196791,0.6401127672655751,0.0002483308289966679,0.8109869990564549,0.0008040650871550259,-0.2789595207000498
946,0.9359,65.9611,902.936,0.0056653,244.036,0.160855,0.543317,-0.265163,0.594337,-0.327317,0.495154,0.000248577,0.0008047,0.656115,-0.23291909440259662,0.6407508952398855,0.00024860789782255033,0.811829303831699,0.0008050238579087043,-0.2791448042932684
947,0.9369,65.9706,903.07,0.00565088,244.071,0.161066,0.544143,-0.265371,0.594801,-0.327574,0.495542,0.000248854,0.000805658,0.656631,-0.23307863063861722,0.6413876301058146,0.00024888496672526017,0.8126701876986475,0.0008059826295807593,-0.27933004027472175
948,0.9379,65.98,903.203,0.00563647,244.107,0.161277,0.544972,-0.265578,0.595265,-0.32783,0.49593,0.000249132,0.000806617,0.657147,-0.2332373669323018,0.6420246120728059,0.00024916303595401423,0.8135114618262438,0.0008069424029784056,-0.27951450817151324
949,0.9389,65.9894,903.336,0.00562207,244.142,0.161489,0.545804,-0.265786,0.595729,-0.328086,0.496317,0.00024941,0.000807578,0.657662,-0.23339683697452052,0.6426601985757339,0.0002494411052600398,0.8143531263956105,0.0008079041789121888,-0.27969892885056724
950,0.9399,65.9988,903.469,0.00560768,244.177,0.161702,0.546639,-0.265993,0.596193,-0.328343,0.496705,0.000249688,0.00080854,0.658177,-0.2335555074063106,0.6432976743950929,0.00024971917464333693,0.8151951815879552,0.0008088669565791129,-0.27988402244030763
951,0.9409,66.0082,903.602,0.00559331,244.213,0.161915,0.547476,-0.2662,0.596656,-0.328599,0.497092,0.000249967,0.000809503,0.658692,-0.23371414499672039,0.6439337536684844,0.0002499982443537885,0.816035811547849,0.0008098307359820645,-0.28006834853581597
952,0.9419,66.0175,903.735,0.00557894,244.248,0.16213,0.548317,-0.266407,0.59712,-0.328855,0.497479,0.000250245,0.000810467,0.659207,-0.23387274975254746,0.6445700791521936,0.0002502763138920727,0.81687864768727,0.000810795517123708,-0.28025262744988344
953,0.9429,66.0269,903.868,0.00556459,244.283,0.162345,0.54916,-0.266614,0.597583,-0.329111,0.497866,0.000250524,0.000811432,0.659721,-0.23403132168058793,0.6452066509415217,0.0002505553837579555,0.8177200572724372,0.0008117613000073742,-0.2804368591945867
954,0.9439,66.0362,904.0,0.00555024,244.318,0.162561,0.550006,-0.266821,0.598045,-0.329366,0.498253,0.000250803,0.000812399,0.660235,-0.23418986078763637,0.645843469131808,0.00025083445370199797,0.8185600379594951,0.0008127290854484936,-0.2806203244026839
955,0.9449,66.0456,904.133,0.00553591,244.354,0.162778,0.550855,-0.267027,0.598508,-0.329622,0.498639,0.000251083,0.000813367,0.660749,-0.23434760142847033,0.6464788873387173,0.0002511145239747492,0.8194022262086051,0.0008136978726391852,-0.2808044620290151
956,0.9459,66.0549,904.265,0.00552158,244.389,0.162995,0.551707,-0.267234,0.59897,-0.329877,0.499026,0.000251363,0.000814335,0.661262,-0.23450607507238663,0.6471161979797722,0.0002513945943261042,0.8202429842372634,0.0008146666607675712,-0.2809878335103402
957,0.9469,66.0642,904.397,0.00550727,244.424,0.163214,0.552562,-0.26744,0.599432,-0.330132,0.499412,0.000251643,0.000815306,0.661776,-0.23466375057978683,0.6477521075548447,0.000251674664755841,0.8210841307858723,0.0008156384522808313,-0.28117115823789884
958,0.9479,66.0735,904.529,0.00549296,244.459,0.163433,0.55342,-0.267647,0.599894,-0.330388,0.499798,0.000251923,0.000816277,0.662289,-0.2348221587876017,0.6483882626383932,0.0002519547352639595,0.8219256660339693,0.0008166102447375589,-0.28135515486881635
959,0.9489,66.0828,904.66,0.00547867,244.494,0.163653,0.55428,-0.267853,0.600355,-0.330643,0.500184,0.000252204,0.000817249,0.662801,-0.23497976918846275,0.6490246633252024,0.00025223580610256313,0.8227657673944964,0.0008175830389554051,-0.28153838594137015
960,0.9499,66.092,904.792,0.00546439,244.529,0.163874,0.555144,-0.268059,0.600817,-0.330898,0.500569,0.000252485,0.000818223,0.663314,-0.2351373471249253,0.6496596600496087,0.0002525168770204367,0.8236080797382019,0.0008185578357560175,-0.28172157029595724
961,0.9509,66.1013,904.923,0.00545011,244.564,0.164095,0.556011,-0.268265,0.601278,-0.331152,0.500954,0.000252766,0.000819198,0.663826,-0.2352948926036761,0.6502949012948209,0.00025279794801713606,0.824448956870248,0.000819533634325742,-0.28190398984883813
962,0.9519,66.1105,905.055,0.00543585,244.598,0.164318,0.55688,-0.268471,0.601739,-0.331407,0.50134,0.000253048,0.000820175,0.664338,-0.2354524056314008,0.6509320380862105,0.0002530800193458749,0.8252902217360178,0.0008205114354877807,-0.2820870809863145
963,0.9529,66.1197,905.186,0.00542159,244.633,0.164541,0.557753,-0.268677,0.602199,-0.331662,0.501725,0.00025333,0.000821152,0.66485,-0.23560988621478374,0.651567769291278,0.0002533620907543277,0.8261300483833365,0.0008214892376050553,-0.2822701254415031
964,0.9539,66.1289,905.317,0.00540735,244.668,0.164765,0.558629,-0.268882,0.60266,-0.331916,0.502109,0.000253612,0.000822131,0.665361,-0.23576657012745994,0.652202093097062,0.00025364416224205044,0.8269720884109548,0.0008224690423226377,-0.2824524056790708
965,0.9549,66.1381,905.448,0.00539311,244.703,0.16499,0.559507,-0.269088,0.60312,-0.33217,0.502494,0.000253894,0.000823111,0.665872,-0.23592398599962217,0.6528383133674478,0.0002539262338094872,0.8278126888949127,0.000823449848822877,-0.2826346396233377
966,0.9559,66.1473,905.579,0.00537889,244.737,0.165215,0.560389,-0.269294,0.60358,-0.332424,0.502878,0.000254177,0.000824092,0.666383,-0.23608136944745461,0.6534731251558439,0.00025420930571073974,0.8286536761440422,0.0008244316571086596,-0.2828168272860606
967,0.9569,66.1565,905.709,0.00536467,244.772,0.165442,0.561274,-0.269499,0.604039,-0.332678,0.503262,0.00025446,0.000825074,0.666894,-0.23623795671597447,0.6541081807587759,0.00025449237769192834,0.8294932208421608,0.0008254144671830943,-0.28299896867899377
968,0.9579,66.1656,905.84,0.00535046,244.807,0.165669,0.562161,-0.269704,0.604499,-0.332932,0.503646,0.000254744,0.000826058,0.667404,-0.23639451188739435,0.6547434802698868,0.000254776450008265,0.8303349813138137,0.0008263992798756004,-0.2831810638138882
969,0.9589,66.1748,905.97,0.00533626,244.841,0.165898,0.563052,-0.269909,0.604958,-0.333186,0.50403,0.000255027,0.000827043,0.667914,-0.23655103496829344,0.6553790237828552,0.00025505952214999184,0.8311752979081419,0.000827385094364308,-0.2833631127024918
970,0.9599,66.1839,906.1,0.00532207,244.876,0.166127,0.563946,-0.270115,0.605417,-0.33344,0.504414,0.000255311,0.000828029,0.668424,-0.2367082892573421,0.6560148113913962,0.0002553435946273108,0.8320160002963197,0.0008283719106525478,-0.2835451153565499
971,0.9609,66.193,906.23,0.00530789,244.91,0.166356,0.564843,-0.27032,0.605876,-0.333693,0.504797,0.000255596,0.000829017,0.668934,-0.2368647480204732,0.6566491865392454,0.00025562866744066604,0.8328570886554674,0.0008293607295724037,-0.28372635551451797
972,0.9619,66.2022,906.36,0.00529371,244.945,0.166587,0.565743,-0.270524,0.606334,-0.333946,0.50518,0.00025588,0.000830006,0.669443,-0.23702041173363841,0.6572838046993097,0.0002559127400796335,0.8336967294651398,0.0008303505502997854,-0.28390754982452604
973,0.9629,66.2113,906.49,0.00527955,244.979,0.166819,0.566646,-0.270729,0.606793,-0.3342,0.505563,0.000256165,0.000830996,0.669952,-0.23717680651821993,0.6579186659646814,0.0002561978130553033,0.834538589456052,0.0008313413728371355,-0.28408941420911604
974,0.9639,66.2203,906.619,0.00526539,245.013,0.167051,0.567552,-0.270934,0.607251,-0.334453,0.505946,0.000256451,0.000831988,0.670461,-0.23733316924515657,0.6585537704284872,0.0002564838863687857,0.8353790005694772,0.0008323341980203125,-0.28427051667689296
975,0.9649,66.2294,906.749,0.00525125,245.048,0.167284,0.568461,-0.271138,0.607708,-0.334706,0.506328,0.000256736,0.00083298,0.67097,-0.2374887374101382,0.6591874589956013,0.0002567689595074363,0.8362179604604711,0.0008333270241882573,-0.28445157333154103
976,0.9659,66.2385,906.878,0.00523711,245.082,0.167518,0.569374,-0.271343,0.608166,-0.334958,0.506711,0.000257022,0.000833974,0.671478,-0.2376450361977961,0.6598230495002086,0.0002570550329843435,0.837059140901979,0.0008343218530098007,-0.2846318688168762
977,0.9669,66.2475,907.007,0.00522297,245.116,0.167753,0.570289,-0.271547,0.608623,-0.335211,0.507093,0.000257308,0.00083497,0.671986,-0.23780054074840828,0.6604572230245491,0.00025734110654296316,0.8378988687925797,0.0008353186844907157,-0.2848128340609969
978,0.9679,66.2565,907.136,0.00520885,245.15,0.167989,0.571208,-0.271751,0.60908,-0.335464,0.507475,0.000257595,0.000835966,0.672494,-0.23795601357932772,0.6610916388494523,0.0002576281804409497,0.8387389805265275,0.0008363155169646141,-0.284993753526702
979,0.9689,66.2655,907.265,0.00519473,245.184,0.168226,0.57213,-0.271956,0.609537,-0.335716,0.507857,0.000257882,0.000836965,0.673001,-0.23811221658518877,0.6617262970674949,0.00025791525442153684,0.8395794762792796,0.0008373153529430688,-0.2851739123998419
980,0.9699,66.2746,907.394,0.00518063,245.218,0.168464,0.573055,-0.27216,0.609994,-0.335969,0.508238,0.000258169,0.000837964,0.673509,-0.23826762584072236,0.6623595354109217,0.0002582023284842805,0.8404203562263726,0.0008383151899207242,-0.28535474052428245
981,0.9709,66.2835,907.522,0.00516653,245.252,0.168702,0.573983,-0.272364,0.61045,-0.336221,0.50862,0.000258456,0.000838965,0.674016,-0.2384230033960013,0.6629946780579707,0.0002584894026296247,0.841259779282723,0.0008393170295755148,-0.28553480844016
982,0.9719,66.2925,907.651,0.00515243,245.286,0.168941,0.574915,-0.272567,0.610906,-0.336473,0.509001,0.000258744,0.000839967,0.674522,-0.23857758783546057,0.6636283997466268,0.0002587774771161122,0.8420995852032735,0.0008403198710735804,-0.2857148309846398
983,0.9729,66.3015,907.779,0.00513835,245.32,0.169181,0.575849,-0.272771,0.611362,-0.336725,0.509382,0.000259032,0.00084097,0.675029,-0.2387329021649418,0.6642623629292475,0.00025906555168542234,0.8429397741626503,0.0008413237144178076,-0.2858948081691539
984,0.9739,66.3104,907.907,0.00512427,245.354,0.169423,0.576787,-0.272975,0.611818,-0.336977,0.509763,0.000259321,0.000841975,0.675535,-0.23888818481353158,0.6648965676978602,0.000259354626597208,0.8437803463355584,0.000842329560453603,-0.2860747400051318
985,0.9749,66.3194,908.035,0.0051102,245.388,0.169664,0.577728,-0.273178,0.612274,-0.337228,0.510143,0.000259609,0.000842981,0.676041,-0.23904267483074704,0.665529348614345,0.0002596427013328295,0.8446213018967834,0.0008433364083435535,-0.2862539127582694
986,0.9759,66.3283,908.163,0.00509613,245.422,0.169907,0.578673,-0.273382,0.612729,-0.33748,0.510524,0.000259899,0.000843989,0.676547,-0.23919789429215832,0.6661640361964738,0.0002599327766712456,0.8454607955594715,0.0008443452589352862,-0.286433754111292
987,0.9769,66.3372,908.291,0.00508208,245.456,0.170151,0.57962,-0.273585,0.613184,-0.337731,0.510904,0.000260188,0.000844998,0.677052,-0.23935232144473062,0.666797298842511,0.00026022185183349755,0.8463006712786876,0.0008453551113889457,-0.28661283676319704
988,0.9779,66.3461,908.418,0.00506803,245.489,0.170396,0.580571,-0.273788,0.613639,-0.337983,0.511284,0.000260478,0.000846008,0.677557,-0.23950671725177275,0.6674308021740809,0.0002605119273400014,0.847140929228307,0.0008463659657083067,-0.28679258767876614
989,0.9789,66.355,908.546,0.00505398,245.523,0.170641,0.581525,-0.273992,0.614093,-0.338234,0.511664,0.000260768,0.00084702,0.678062,-0.2396618420581852,0.6680645462826618,0.0002608020029304381,0.8479797216016378,0.0008473788227429946,-0.28697158027474823
990,0.9799,66.3639,908.673,0.00503995,245.557,0.170888,0.582482,-0.274195,0.614547,-0.338485,0.512044,0.000261059,0.000848033,0.678567,-0.23981617503891983,0.668698531259766,0.0002610930788662369,0.8488188948731636,0.0008483926816513776,-0.2871505279492267
991,0.9809,66.3728,908.8,0.00502591,245.59,0.171135,0.583443,-0.274397,0.615002,-0.338736,0.512423,0.000261349,0.000849047,0.679072,-0.23996971666333577,0.669331087865018,0.00026138315462520545,0.8496602988752255,0.0008494075424361203,-0.2873294307134753
992,0.9819,66.3816,908.927,0.00501189,245.624,0.171383,0.584407,-0.2746,0.615456,-0.338986,0.512802,0.000261641,0.000850063,0.679576,-0.24012398715186878,0.6699638842546602,0.0002616752309918535,0.8505002353020568,0.0008504244059506227,-0.2875075760866974
993,0.9829,66.3905,909.054,0.00499787,245.657,0.171632,0.585375,-0.274803,0.615909,-0.339237,0.513181,0.000261932,0.00085108,0.68008,-0.24027822632667106,0.6705969205195874,0.00026196630718167135,0.8513387018069736,0.0008514422713499226,-0.28768638924310974
994,0.9839,66.3993,909.181,0.00498386,245.691,0.171882,0.586345,-0.275006,0.616363,-0.339488,0.51356,0.000262224,0.000852099,0.680583,-0.24043243419409854,0.6712301967507299,0.0002622583837184056,0.8521794004017347,0.0008524621394891962,-0.287865157523052
995,0.9849,66.4081,909.308,0.00496986,245.724,0.172133,0.587319,-0.275208,0.616816,-0.339738,0.513939,0.000262516,0.000853119,0.681087,-0.24058585134673727,0.6718637130390519,0.000262550460340627,0.8530186277407577,0.0008534830095212609,-0.28804316898131177
996,0.9859,66.4169,909.434,0.00495586,245.758,0.172385,0.588297,-0.275411,0.617269,-0.339988,0.514317,0.000262809,0.000854141,0.68159,-0.2407399967726238,0.6724957969789189,0.000262843537310653,0.8538582353358866,0.0008545058823035134,-0.2882211359422695
997,0.9869,66.4257,909.56,0.00494186,245.791,0.172638,0.589277,-0.275613,0.617721,-0.340239,0.514696,0.000263102,0.000855164,0.682093,-0.24089335180389615,0.673129793020635,0.00026313661436683233,0.8546963686621205,0.0008555297569867726,-0.2883997700176336
998,0.9879,66.4345,909.687,0.00492788,245.824,0.172891,0.590261,-0.275815,0.618174,-0.340489,0.515074,0.000263395,0.000856188,0.682596,-0.2410466758605807,0.6737623556291978,0.00026342969150872086,0.8555367364460567,0.0008565546335739249,-0.28857764783947504
999,0.9889,66.4432,909.813,0.00491389,245.858,0.173146,0.591249,-0.276017,0.618626,-0.340739,0.515452,0.000263689,0.000857214,0.683098,-0.2411999689489337,0.674395157391624,0.0002637237690004124,0.8563756286262807,0.0008575815129256981,-0.28875548119741923
