,Time,S11,S22,S33,S12,S13,S23,LE11,LE22,LE33,LE12,LE13,LE23,SDV_EPBAR,E11,E12,E13,E22,E23,E33
0,1e-05,0.139606,1.94446,-1.11022e-16,0.521016,1.03943e-17,6.00106e-18,-2.12914e-06,9.12912e-06,-3e-06,6.49996e-06,2.31945e-22,4.74637e-23,0.0,-2.1291377333421124e-06,6.499981124896692e-06,0.0,9.129161670617947e-06,0.0,-2.9999955000192813e-06
1,2e-05,0.27921,3.8889,1.11022e-16,1.04203,8.19771e-18,-2.19668e-18,-4.25827e-06,1.82581e-05,-5.99996e-06,1.29999e-05,8.14908e-38,-5.51668e-39,0.0,-4.258260933531766e-06,1.2999984499106887e-05,0.0,1.8258266680115653e-05,0.0,-5.9999420002343484e-06
2,3.5e-05,0.488615,6.80552,-5.55112e-16,1.82353,-1.25908e-17,-1.41987e-17,-7.45192e-06,3.19515e-05,-1.04998e-05,2.27496e-05,7.08564e-22,-6.2831e-22,0.0,-7.451892234500157e-06,2.2749858774151477e-05,0.0,3.19520104545834e-05,0.0,-1.0499744877323636e-05
3,5.75e-05,0.802715,11.1804,-4.32987e-15,2.99577,2.02003e-17,-2.29845e-17,-1.22423e-05,5.24912e-05,-1.72495e-05,3.73739e-05,4.09671e-27,1.52891e-26,0.0,-1.2242225063352485e-05,3.737459841279822e-05,0.0,5.249257768724647e-05,0.0,-1.7249351228265652e-05
4,9.125e-05,1.27385,17.7425,-2.83107e-14,4.75408,-2.78096e-17,6.01679e-17,-1.94277e-05,8.32998e-05,-2.73738e-05,5.93098e-05,-3.05355e-21,1.69506e-21,0.0,-1.9427511283476306e-05,5.931155886096384e-05,0.0,8.330326952465938e-05,0.0,-2.737342534098186e-05
5,0.00014188,1.98053,27.5852,-1.53544e-13,7.39143,-7.81729e-17,3.37333e-18,-3.02053e-05,0.000129511,-4.25596e-05,9.22122e-05,-3.27281e-21,8.76987e-22,0.0,-3.0204843824543914e-05,9.221645167567516e-05,0.0,0.0001295193869115252,0.0,-4.255869435310089e-05
6,0.00021781,3.04047,42.3484,-8.02802e-13,11.3472,-1.25906e-17,-1.41977e-17,-4.63708e-05,0.000198823,-6.53367e-05,0.000141563,1.30916e-20,-3.50782e-21,0.0,-4.636972489102664e-05,0.00014157302051431842,0.0,0.0001988427666026471,0.0,-6.533456560431361e-05
7,0.00033172,4.63024,64.491,-4.04998e-12,17.2803,-1.25899e-17,-1.41952e-17,-7.06166e-05,0.000302781,-9.94992e-05,0.000215581,1.3092e-20,-3.50791e-21,0.0,-7.061410670661239e-05,0.00021560423925381933,0.0,0.00030282684279359096,0.0,-9.949425011879232e-05
8,0.00050258,7.01456,97.7002,-2.05221e-11,26.1787,-3.83405e-17,4.14358e-16,-0.00010698,0.000458697,-0.000150736,0.000326594,1.75327e-21,6.54328e-21,0.0,-0.00010697427784389646,0.00032664733762688414,0.0,0.00045880221755600914,0.0,-0.00015072463989995732
9,0.00075887,10.5903,147.503,-1.03755e-10,39.5234,-1.96334e-17,1.53348e-15,-0.000161514,0.00069252,-0.000227574,0.000493077,-2.44379e-20,1.35462e-20,0.0,-0.00016150095731615188,0.0004931985824463414,0.0,0.0006927598473382979,0.0,-0.0002275481070015406
10,0.0011433,15.9521,222.184,-5.2473e-10,59.5341,1.72248e-16,1.20028e-15,-0.000243289,0.00104314,-0.000342794,0.000742721,-5.7803e-24,-2.15724e-23,0.0,-0.00024325940763114673,0.0007429968855396929,0.0,0.0010436842597596474,0.0,-0.00034273525284966855
11,0.00172,23.9572,333.683,-0.000168901,89.4101,-3.85264e-05,-3.60812e-05,-0.000366341,0.00156879,-0.000516025,0.00111725,-5.3343e-10,-4.37144e-10,2.41145e-06,-0.00036627390532928406,0.0011178743562803017,-5.334299668646736e-10,0.0015700211947764497,-4.37143987674915e-10,-0.0005158918819980762
12,0.0025849,24.6709,347.051,-0.345178,93.1474,-0.0607803,-0.0936483,-0.000698842,0.00234543,-0.000934204,0.00176037,-3.85814e-06,2.07074e-06,0.000797816,-0.0006985978668030413,0.0017619203608711942,-3.858132557432725e-06,0.002348182672588628,2.070742143978066e-06,-0.0009337677672972555
13,0.0032337,25.7336,356.636,0.156415,95.419,0.0570945,0.00131571,-0.000948038,0.00292852,-0.00124684,0.00223839,-2.97177e-06,4.43197e-06,0.00139818,-0.000947588753953954,0.002240897065143521,-2.9717655842809165e-06,0.0029328123037049014,4.431979821140075e-06,-0.0012460630179648158
14,0.0038824,26.3179,364.827,0.196651,97.6225,0.0571009,0.00483249,-0.00119876,0.00351057,-0.00156134,0.00271908,-3.38823e-06,5.43124e-06,0.00200315,-0.0011980417742533112,0.002722780050841145,-3.3882242599370116e-06,0.003516739267965585,5.431254749277414e-06,-0.0015601217428226066
15,0.0048555,26.7283,375.348,-0.262545,100.692,-0.0444766,-0.108354,-0.00157622,0.0043821,-0.00203558,0.00344309,-6.69983e-06,5.76412e-06,0.00291756,-0.0015749784176770643,0.0034490242431304274,-6.699807556187487e-06,0.004391715440348332,5.764136612462778e-06,-0.002033509612083484
16,0.0058555,27.4338,385.417,-0.29795,103.398,-0.0491266,-0.106295,-0.00196406,0.0052773,-0.00252254,0.00418477,-8.52443e-06,7.10378e-06,0.00386154,-0.001962132496275748,0.004193538376923378,-8.524393667164176e-06,0.005291249475371851,7.1038052318339595e-06,-0.0025193610695291024
17,0.0068555,28.4848,395.062,0.174479,105.713,0.0619559,-0.0232657,-0.00235182,0.00617237,-0.00300859,0.00492295,-7.83881e-06,9.57387e-06,0.00480846,-0.002349056638078273,0.004935087627822465,-7.838779276569952e-06,0.006191458328908883,9.573915829674817e-06,-0.00300406872845993
18,0.0078555,29.1719,403.504,0.30858,107.918,0.0862449,-0.00165425,-0.00274066,0.00706614,-0.00349587,0.00566235,-7.8647e-06,1.11091e-05,0.00575897,-0.0027369078199814822,0.005678411404549388,-7.86466907332084e-06,0.007091164073729006,1.1109161706324144e-05,-0.0034897665608196737
19,0.0088555,29.2622,410.52,-0.283239,110.105,-0.0383121,-0.115546,-0.00313036,0.00795802,-0.00398567,0.00640506,-1.04071e-05,9.98494e-06,0.00671302,-0.0031254655316165225,0.006425616261395595,-1.0407045846316798e-05,0.00798976920554928,9.984989849609605e-06,-0.003977737759256139
20,0.0098555,30.1931,418.204,0.262511,111.88,0.0796308,-0.0126539,-0.00351887,0.0088504,-0.00447205,0.00714169,-9.03954e-06,1.20571e-05,0.00766684,-0.0035126860326137876,0.007167252685385872,-9.039499143437268e-06,0.0088896805875327,1.2057172687152118e-05,-0.004462065274008609
21,0.010855,30.7056,424.878,0.31088,113.644,0.0895441,-0.00487585,-0.00390815,0.00974138,-0.00495993,0.00787982,-8.87161e-06,1.28594e-05,0.00862291,-0.003900523120686561,0.00791094748756671,-8.871570647439597e-06,0.009788981685296516,1.2859482682481271e-05,-0.004947649858467296
22,0.011855,30.7615,430.543,-0.191041,115.432,-0.0204856,-0.0975348,-0.00429793,0.0106306,-0.00544947,0.00862056,-1.08196e-05,1.17269e-05,0.00958104,-0.004288707116690937,0.008657824029322692,-1.0819541468309879e-05,0.0106873055881882,1.1726968760283896e-05,-0.005434648573554357
23,0.012855,31.0823,436.264,-0.311434,117.03,-0.048294,-0.121611,-0.00468707,0.0115194,-0.00593776,0.00935923,-1.18503e-05,1.12247e-05,0.0105393,-0.00467610282873121,0.009403164550649823,-1.1850229785448363e-05,0.011586003787713128,1.1224762997086302e-05,-0.005920166342619937
24,0.013855,31.9926,442.512,0.331088,118.356,0.100946,0.00393501,-0.00507527,0.0124083,-0.00642357,0.010093,-9.71261e-06,1.32908e-05,0.0114968,-0.00506241257803941,0.010144106117804252,-9.71256283277544e-06,0.012485602353828451,1.3290888323025385e-05,-0.006402982978538252
25,0.014855,32.3743,447.779,0.339604,119.762,0.100921,-9.50885e-05,-0.00546434,0.0132957,-0.00691107,0.0108289,-9.40509e-06,1.36592e-05,0.0124559,-0.005449437650372979,0.010887744753772743,-9.40504577229273e-06,0.01338448085075905,1.3659293287338059e-05,-0.00688724347624925
26,0.015855,32.3409,452.232,-0.156946,121.234,-0.0147251,-0.0895359,-0.00585372,0.0141814,-0.00739988,0.0115673,-1.12012e-05,1.2383e-05,0.0134162,-0.00583662036284649,0.011634459917809536,-1.1201137266825256e-05,0.014282433084894297,1.2383076669619797e-05,-0.0073725682972892725
27,0.016855,32.5773,456.866,-0.289965,122.546,-0.0452235,-0.117231,-0.00624233,0.0150665,-0.00788739,0.0123036,-1.20845e-05,1.16804e-05,0.014376,-0.0062228871353808834,0.01237960066054744,-1.2084426982750252e-05,0.015180571879107596,1.1680468216201945e-05,-0.007856366158789152
28,0.017855,33.3997,462.127,0.328643,123.616,0.102008,0.00540117,-0.00662991,0.0159519,-0.00837235,0.0130349,-9.86601e-06,1.35405e-05,0.0153345,-0.006607980636694655,0.013120224638661027,-9.865961331123607e-06,0.016079810791770788,1.3540591673022462e-05,-0.008337399485068064
29,0.018855,33.6923,466.487,0.301476,124.796,0.0943197,-0.00599355,-0.00701826,0.0168357,-0.00885894,0.0137686,-9.61028e-06,1.36328e-05,0.0162942,-0.006993689527542979,0.013863823703437639,-9.610233821399916e-06,0.016978219076690504,1.3632892926995765e-05,-0.00881981521100017
30,0.019855,33.6765,470.252,-0.0987903,126.036,-0.00195967,-0.0762985,-0.00740672,0.017718,-0.00934634,0.014504,-1.09978e-05,1.25631e-05,0.0172544,-0.007379357845701873,0.014609693382055422,-1.0997739524398753e-05,0.01787589491084285,1.2563178916069617e-05,-0.00930279872042361
31,0.020855,34.3355,474.822,0.354061,127.004,0.112231,0.0141107,-0.00779386,0.0186006,-0.00983091,0.0152341,-9.09635e-06,1.3994e-05,0.0182129,-0.007763566625013429,0.015350730401840318,-9.096308628331329e-06,0.018774668746240675,1.3994097916469883e-05,-0.00978274457017625
32,0.021855,34.0131,477.894,-0.395574,128.249,-0.0730272,-0.133999,-0.00818225,0.0194806,-0.0103187,0.0159702,-1.19653e-05,1.15946e-05,0.0191734,-0.008148866505218177,0.016098405222446655,-1.1965228416066509e-05,0.01967158504002553,1.159466721767366e-05,-0.010265644858661438
33,0.022855,34.8199,482.428,0.274692,129.083,0.0896137,-0.00951091,-0.00856856,0.0203616,-0.010802,0.0166981,-9.57031e-06,1.32828e-05,0.0201311,-0.008531954516469598,0.01683829250091473,-9.570264204783463e-06,0.020570311537338126,1.328288821667023e-05,-0.010743867900594561
34,0.023855,35.0838,486.084,0.274395,130.063,0.0897959,-0.00972746,-0.00895559,0.0212411,-0.0112869,0.0174284,-9.195e-06,1.33981e-05,0.0210896,-0.008915608146591758,0.017581160731245715,-9.194957726110786e-06,0.021468297957979443,1.33981897549873e-05,-0.011223441916932475
35,0.024855,35.0466,489.209,-0.0887308,131.115,1.11738e-05,-0.0720348,-0.00934273,0.022119,-0.0117725,0.0181605,-1.04296e-05,1.23834e-05,0.0220484,-0.009299222297071585,0.018326404662272422,-1.0429545611922997e-05,0.02236543871907437,1.2383476674537874e-05,-0.011703475252010986
36,0.025855,35.6285,493.109,0.3229,131.923,0.106299,0.010212,-0.00972859,0.0229972,-0.0122554,0.0188875,-8.63031e-06,1.36132e-05,0.0230054,-0.009681420356942305,0.019066997131205632,-8.63027275899153e-06,0.023263674404917944,1.3613292660030751e-05,-0.012180608430733764
37,0.026855,35.3329,495.69,-0.339002,132.993,-0.0614852,-0.120937,-0.0101155,0.023873,-0.0127412,0.01962,-1.11557e-05,1.14572e-05,0.0239639,-0.010064510403128057,0.019813737166753276,-1.1155637775428495e-05,0.02416024128028904,1.1457265634007285e-05,-0.012660374546533126
38,0.027855,35.535,498.883,-0.37855,133.868,-0.0709568,-0.130994,-0.0105012,0.0247487,-0.0132247,0.0203488,-1.17465e-05,1.07556e-05,0.0249209,-0.010446254897307328,0.02055724832095529,-1.1746431010095648e-05,0.02505749120712064,1.0755657841698962e-05,-0.013137637867734364
39,0.028855,36.3208,502.818,0.323317,134.526,0.103725,0.00894142,-0.0108858,0.0256246,-0.0137057,0.0210725,-9.09934e-06,1.267e-05,0.0258759,-0.010826764091065644,0.021296092920236376,-9.099298601156214e-06,0.025955732390967823,1.2670080264731709e-05,-0.013612204521490145
40,0.029855,36.5072,505.835,0.280646,135.354,0.092474,-0.0053074,-0.0112712,0.0264988,-0.0141885,0.0217991,-8.82996e-06,1.25749e-05,0.0268319,-0.011207918003108164,0.02203843632205027,-8.829921016029196e-06,0.026853015037324734,1.2574979064483571e-05,-0.014088317606200107
41,0.030855,36.4455,508.423,-0.0629503,136.254,0.005213,-0.0644998,-0.0116565,0.0273717,-0.0146718,0.0225271,-9.96676e-06,1.15996e-05,0.0277878,-0.01158882620562407,0.022782751201436025,-9.966710332043327e-06,0.027749746355595795,1.1599667275596914e-05,-0.014564693596770373
42,0.031855,36.9452,511.737,0.291378,136.933,0.0999519,0.00669684,-0.0120407,0.0282446,-0.0151526,0.0232504,-8.33239e-06,1.26219e-05,0.0287419,-0.011968500838428597,0.0235227975708856,-8.332355285745052e-06,0.02864726077236801,1.2621979656568527e-05,-0.015038377009471526
43,0.032855,36.6863,513.923,-0.278937,137.851,-0.0482337,-0.106522,-0.0124257,0.0291154,-0.0156358,0.0239784,-1.04995e-05,1.07447e-05,0.0296971,-0.012348819749517626,0.024268193458699905,-1.0499444880407438e-05,0.029543396928102927,1.074475772444572e-05,-0.015514195498695593
44,0.033855,36.8621,516.66,-0.310154,138.598,-0.0557369,-0.115922,-0.0128096,0.029986,-0.016117,0.0247031,-1.09439e-05,1.01147e-05,0.0306508,-0.012727906267302913,0.025010749651237063,-1.0943840115795744e-05,0.030440107691025675,1.0114751153755819e-05,-0.015987816105564656
45,0.034855,37.5205,520.021,0.271911,139.167,0.0915279,0.00164168,-0.0131925,0.0308567,-0.0165959,0.0254234,-8.69524e-06,1.16741e-05,0.0316027,-0.013105860388059054,0.02574933086230069,-8.695202196484786e-06,0.03133770260403068,1.1674168142628005e-05,-0.016458946719201895
46,0.035855,37.1983,521.938,-0.372914,140.05,-0.071146,-0.126161,-0.0135766,0.0317248,-0.0170781,0.0261498,-1.11457e-05,9.50869e-06,0.0325562,-0.0134848536367711,0.026494705863664425,-1.1145637886955662e-05,0.03223339558294924,9.508735207663932e-06,-0.01693309588854186
47,0.036855,37.4004,524.548,-0.351609,140.737,-0.0659264,-0.122733,-0.0139594,0.0325929,-0.0175579,0.0268723,-1.14685e-05,9.00115e-06,0.0335079,-0.013862419364108147,0.027236616271512304,-1.1468434237049685e-05,0.03312986645053684,9.001190510504742e-06,-0.017404658252276994
48,0.037855,38.0733,527.776,0.265412,141.248,0.0911365,0.00175113,-0.0143413,0.0334611,-0.0180356,0.0275905,-9.09839e-06,1.06354e-05,0.0344578,-0.014238953402402,0.027974642602850652,-9.09834860973735e-06,0.03402721928508812,1.0635456556107314e-05,-0.017873931952082867
49,0.038855,37.7367,529.521,-0.381462,142.089,-0.0738604,-0.126623,-0.0147245,0.0343267,-0.0185166,0.0283149,-1.15774e-05,8.45912e-06,0.0354094,-0.014616624669022027,0.028719577216693493,-1.157733298218222e-05,0.034922660737251476,8.459155778517413e-06,-0.018346220996192986
50,0.039855,37.9388,531.989,-0.346079,142.729,-0.0648764,-0.120297,-0.0151063,0.0351923,-0.0189951,0.0290353,-1.1835e-05,7.99931e-06,0.0363591,-0.014992772230584595,0.02946093380470116,-1.18349299667031e-05,0.03581887761909375,7.999341994580078e-06,-0.018815829966539965
51,0.040855,38.5859,535.045,0.252,143.203,0.088491,0.000663261,-0.0154873,0.0360579,-0.0194716,0.0297516,-9.52426e-06,9.57451e-06,0.037307,-0.015367988501126306,0.030198600835491973,-9.524214644396345e-06,0.036715870602116896,9.574555835722975e-06,-0.01928325285121446
52,0.041855,38.2666,536.684,-0.359894,143.997,-0.0686383,-0.120926,-0.0158694,0.0369211,-0.0199512,0.0304738,-1.1867e-05,7.51152e-06,0.0382565,-0.01574414452353534,0.03094287899150805,-1.1866929587434072e-05,0.03761115008865645,7.511548211436292e-06,-0.019753491830826198
53,0.042855,38.4613,539.016,-0.321356,144.599,-0.0588079,-0.114249,-0.0162503,0.0377842,-0.0204285,0.0311922,-1.20731e-05,7.0864e-06,0.0392041,-0.016118976187664003,0.03168377445356074,-1.2073027120473867e-05,0.03850709886337267,7.086425108493444e-06,-0.020221251849366628
54,0.043855,39.0644,541.89,0.233758,145.049,0.0843718,-0.00140338,-0.0166303,0.0386473,-0.0209039,0.0319067,-9.91044e-06,8.54241e-06,0.0401501,-0.016492779949499825,0.032421175915709366,-9.910390891709753e-06,0.039403821265286965,8.542446486403676e-06,-0.020686927966254043
55,0.044855,38.7789,543.461,-0.32475,145.794,-0.0597078,-0.112521,-0.0170114,0.039508,-0.0213821,0.0326266,-1.20364e-05,6.65238e-06,0.0410974,-0.016867523139210805,0.03316468351370028,-1.2036327562858773e-05,0.04029882124223838,6.652402127160784e-06,-0.021155123522821007
56,0.045855,38.9625,545.668,-0.288846,146.363,-0.0506313,-0.106777,-0.0173913,0.0403687,-0.0218582,0.0333429,-1.22032e-05,6.25295e-06,0.0420428,-0.017240944231342592,0.033905004490805135,-1.2203125541287996e-05,0.041194591877275144,6.252969549702669e-06,-0.02162104064813919
57,0.046855,39.5157,548.366,0.214573,146.795,0.0798382,-0.00373937,-0.0177705,0.0412292,-0.0223324,0.0340557,-1.02221e-05,7.56898e-06,0.0429867,-0.017613535817460724,0.03464223469563654,-1.022204775447122e-05,0.04209092541578219,7.569008644736641e-06,-0.022084877966144
58,0.047855,39.2687,549.888,-0.285895,147.495,-0.0496786,-0.10342,-0.0181505,0.0420875,-0.0228092,0.0347733,-1.21097e-05,5.86704e-06,0.0439318,-0.017986771754530784,0.03538496042137251,-1.2109626677858643e-05,0.042985736010100695,5.867057211172977e-06,-0.02255103675524317
59,0.048855,40.0177,552.801,0.469152,147.836,0.147825,0.0504216,-0.0185287,0.0429469,-0.0232819,0.0354831,-8.96771e-06,8.07454e-06,0.0448737,-0.018358098935057243,0.036120137549776166,-8.967669790194144e-06,0.043882463220118906,8.074572599214846e-06,-0.023012967694190145
60,0.049855,40.0213,554.625,0.291285,148.422,0.099903,0.00614928,-0.0189079,0.0438042,-0.0237569,0.036197,-9.1188e-06,7.58981e-06,0.0458167,-0.018730266976420884,0.036860087809791775,-9.118758423909412e-06,0.044777767373128,7.589838802779525e-06,-0.023476926335634696
61,0.050855,39.9316,556.277,0.00363899,149.046,0.0224205,-0.0424912,-0.0192867,0.0446604,-0.0242318,0.0369114,-1.00075e-05,6.81731e-06,0.0467591,-0.019101901559256396,0.03760108530931494,-1.0007449925186762e-05,0.04567268915889877,6.817333237929546e-06,-0.0239405670431182
62,0.051855,40.2442,558.475,0.207784,149.507,0.0822744,-0.0012588,-0.0196646,0.0455165,-0.0247048,0.0376222,-8.89859e-06,7.36418e-06,0.0476999,-0.019472512919230134,0.03833887433991112,-8.898550407643313e-06,0.04656827284798748,7.364207115667654e-06,-0.024402133985719332
63,0.052855,40.096,559.997,-0.140775,150.126,-0.0143171,-0.0709565,-0.0200429,0.046371,-0.025179,0.0383356,-1.01978e-05,6.19266e-06,0.048641,-0.01984337631435873,0.03907988958157427,-1.0197748002593876e-05,0.04746294763249903,6.192679174565896e-06,-0.0248646528219002
64,0.053855,40.602,562.419,0.313538,150.503,0.108941,0.0196782,-0.0204197,0.0472258,-0.0256505,0.0390438,-8.17382e-06,7.45346e-06,0.0495798,-0.020212629758445733,0.03981602659472494,-8.173786594456445e-06,0.048358701750902844,7.45348777719812e-06,-0.02532432076286173
65,0.054855,40.2314,563.568,-0.311489,151.184,-0.0595104,-0.105882,-0.0207976,0.0480782,-0.0261247,0.0397575,-1.0579e-05,5.41903e-06,0.0505198,-0.02058282145353374,0.04055840818026235,-1.0578944042549665e-05,0.049252703677765686,5.419044682986041e-06,-0.02578640240174057
66,0.055855,40.3884,565.445,-0.282708,151.666,-0.0513237,-0.102964,-0.0211743,0.0489307,-0.0265966,0.0404672,-1.07385e-05,5.00809e-06,0.0514579,-0.020951698422353005,0.04129715459570593,-1.0738442342561605e-05,0.05014757299149997,5.008102540449144e-06,-0.026246025341885026
67,0.056855,40.9081,567.816,0.206386,152.015,0.0777986,-0.0024273,-0.0215501,0.049783,-0.0270667,0.0411734,-8.78887e-06,6.28612e-06,0.0523944,-0.021319555649383704,0.04203277836446184,-8.788831378003792e-06,0.051042995297972515,6.2861397576163824e-06,-0.026703679505332478
68,0.057855,40.6622,569.065,-0.265951,152.628,-0.046242,-0.0970559,-0.0219268,0.0506333,-0.0275392,0.0418843,-1.05726e-05,4.68198e-06,0.0533319,-0.021688155142697285,0.04277382283965081,-1.0572544110298843e-05,0.05193707722193519,4.681990960486715e-06,-0.02716345338663284
69,0.058855,41.342,571.621,0.429098,152.904,0.138518,0.0453161,-0.0223017,0.0514844,-0.0280078,0.0425878,-7.65116e-06,6.70154e-06,0.0542665,-0.022054855511055238,0.043507672325309166,-7.651130729979805e-06,0.05283276197293718,6.7015624554134234e-06,-0.027619217798434126
70,0.059855,40.7462,572.325,-0.476417,153.627,-0.10229,-0.138793,-0.0226783,0.0523324,-0.0284808,0.0432998,-1.1147e-05,3.78584e-06,0.0552032,-0.022423080311387844,0.044250914350767445,-1.114693787240828e-05,0.05372594281024101,3.785847166204448e-06,-0.02807904515067361
71,0.060855,40.9421,574.145,-0.384079,154.059,-0.0782654,-0.121386,-0.0230531,0.0531808,-0.0289504,0.0440061,-1.12232e-05,3.47632e-06,0.0561374,-0.022789407486886182,0.04498872930025044,-1.1223137020177631e-05,0.054620303234167666,3.4763260423620324e-06,-0.0285353520818179
72,0.061855,41.5489,576.533,0.22565,154.339,0.0839952,0.00259972,-0.0234271,0.0540293,-0.029418,0.0447083,-8.83495e-06,5.06706e-06,0.0570698,-0.023154815912851068,0.04572277808032954,-8.834910971922127e-06,0.055515528306989026,5.067072837539044e-06,-0.028989502762480357
73,0.062855,41.2285,577.568,-0.327497,154.945,-0.0635957,-0.108405,-0.0238022,0.0548754,-0.0298887,0.0454165,-1.09842e-05,3.20924e-06,0.0580036,-0.02352116182893016,0.04646362125336956,-1.0984139673930748e-05,0.056408977916046155,3.209245149626838e-06,-0.029446449852595702
74,0.063855,42.0004,580.153,0.491859,155.152,0.156642,0.0596149,-0.0241753,0.0557227,-0.0303548,0.046116,-7.54673e-06,5.60745e-06,0.0589341,-0.023885418127213898,0.04719587863359731,-7.546701523475363e-06,0.05730445255729322,5.607465721757521e-06,-0.029898719452701172
75,0.064855,41.9527,581.547,0.285388,155.642,0.0999455,0.00967824,-0.0245495,0.0565679,-0.0308236,0.0468202,-7.82283e-06,5.04868e-06,0.0598657,-0.024250611871739713,0.04793357368327289,-7.822799401702163e-06,0.058198464036624875,5.048692744535899e-06,-0.03035339634843015
76,0.065855,41.8518,582.837,0.0187263,156.158,0.0262174,-0.0353793,-0.0249233,0.057412,-0.0312921,0.0475247,-8.64258e-06,4.34761e-06,0.0607967,-0.024615278832520904,0.04867210300233982,-8.642542652981255e-06,0.059092066451959635,4.347619450895124e-06,-0.030807569383900058
77,0.066855,42.1029,584.615,0.179776,156.531,0.0754323,-0.00275099,-0.0252962,0.058256,-0.031759,0.0482259,-7.70784e-06,4.76628e-06,0.061726,-0.024978931987699515,0.0494076897475384,-7.707810294688144e-06,0.05998631747689376,4.766291358704322e-06,-0.03125997970634631
78,0.067855,41.983,585.85,-0.101462,157.036,-0.00486411,-0.0593198,-0.0256694,0.0590985,-0.0322267,0.0489292,-8.7478e-06,3.81391e-06,0.0626555,-0.025342741959118453,0.05014599777132189,-8.747761738092663e-06,0.0608797322474941,3.8139172728879345e-06,-0.03171295347766423
79,0.068855,42.379,587.803,0.247349,157.347,0.0923229,0.0105091,-0.0260414,0.0599412,-0.0326922,0.0496281,-7.14069e-06,4.75668e-06,0.0635829,-0.025705247028986355,0.05088020134671778,-7.14066450535622e-06,0.06177411239200481,4.756691313057004e-06,-0.03216358620491577
80,0.069855,42.1122,588.792,-0.217759,157.894,-0.0362325,-0.0833857,-0.0264142,0.0607818,-0.0331596,0.0503312,-8.92097e-06,3.22999e-06,0.0645111,-0.026068396417642026,0.0516193350282812,-8.920930208211608e-06,0.06266701494524707,3.22999521640277e-06,-0.032615847243085416
81,0.070855,42.7079,591.0,0.387115,158.121,0.129858,0.0395748,-0.0267852,0.0616233,-0.0336235,0.0510273,-6.29044e-06,4.96578e-06,0.0654366,-0.02642965802439934,0.05235162209033706,-6.290420215271375e-06,0.0635616255929623,4.965792329558738e-06,-0.0330645126755561
82,0.071855,42.1828,591.583,-0.400945,158.751,-0.0856543,-0.120712,-0.0271577,0.0624619,-0.0340911,0.051731,-9.3721e-06,2.44285e-06,0.0663638,-0.026792245440686258,0.05309242254687252,-9.372056081979885e-06,0.06445390245158023,2.442852983675081e-06,-0.03351654601579768
83,0.072855,42.3604,593.162,-0.312454,159.118,-0.0614128,-0.104951,-0.0275285,0.0633009,-0.0345557,0.0524293,-9.35123e-06,2.19919e-06,0.0672887,-0.02715304397989382,0.05382805380129696,-9.351186277428702e-06,0.0653473540262628,2.1991924181730127e-06,-0.03396546993541705
84,0.073855,42.8587,595.187,0.18221,159.367,0.0722652,-0.00308265,-0.0278987,0.0641397,-0.0350186,0.0531244,-7.3803e-06,3.48157e-06,0.0682119,-0.027513125267853655,0.054560824326386204,-7.380272765700191e-06,0.06624134227307432,3.4815760607820323e-06,-0.03441254383614656
85,0.074855,42.6232,596.138,-0.24524,159.877,-0.0429031,-0.0892098,-0.0282696,0.0649765,-0.0354839,0.0538241,-9.01802e-06,2.0296e-06,0.0691362,-0.027873753767002407,0.05529895874137791,-9.017979337833104e-06,0.06713394644178661,2.029602059749891e-06,-0.03486172716889302
86,0.075855,43.2208,598.277,0.37661,160.079,0.126423,0.0391258,-0.028639,0.065814,-0.0359456,0.054517,-6.36906e-06,3.82654e-06,0.0700576,-0.02823279088412267,0.05603042877841857,-6.3690397176241476e-06,0.06802804547364061,3.826547321228446e-06,-0.03530722865752667
87,0.076855,42.706,598.798,-0.397286,160.682,-0.0841932,-0.119263,-0.0290098,0.0666488,-0.036411,0.0552173,-9.37577e-06,1.3384e-06,0.070981,-0.02859305536809964,0.05677022589741898,-9.375726047644584e-06,0.06892000753916805,1.338400895667391e-06,-0.03575609221465781
88,0.077855,42.8841,600.307,-0.298924,161.026,-0.0578962,-0.101202,-0.029379,0.0674839,-0.0368735,0.0559124,-9.30808e-06,1.14474e-06,0.0719019,-0.028951632614624967,0.05750504223727293,-9.308036679978038e-06,0.06981303546937712,1.1447406551567951e-06,-0.03620195190900655
89,0.078855,43.3544,602.222,0.168276,161.26,0.0688775,-0.00457103,-0.0297475,0.0683188,-0.0373344,0.0566045,-7.44099e-06,2.3538e-06,0.0728213,-0.029309398015682886,0.05823719480917755,-7.440962315863331e-06,0.07070659533735224,2.3538027702496578e-06,-0.03664606407586102
90,0.079855,43.1416,603.136,-0.223737,161.741,-0.0373031,-0.083616,-0.0301168,0.0691518,-0.0377975,0.0573008,-8.93816e-06,1.01785e-06,0.0737415,-0.029667807870542573,0.058974301961997266,-8.938120054757803e-06,0.07159886551020045,1.0178505180924446e-06,-0.037092089998313815
91,0.080855,43.6913,605.141,0.344951,161.937,0.118358,0.0340256,-0.0304846,0.0699854,-0.0382573,0.0579908,-6.50085e-06,2.65525e-06,0.0746592,-0.030024630427117116,0.059705246377174115,-6.500828869548947e-06,0.07249252274907758,2.6552535252744036e-06,-0.037534733283842714
92,0.081855,43.2309,605.673,-0.354128,162.5,-0.072938,-0.109321,-0.0308536,0.0708163,-0.0387205,0.0586875,-9.21156e-06,4.02937e-07,0.0755784,-0.030382485310203156,0.0604438002676988,-9.211517573715078e-06,0.0733840271104258,4.029370812563826e-07,-0.037980443960823784
93,0.082855,44.0397,608.027,0.54198,162.592,0.172784,0.0749363,-0.0312203,0.0716489,-0.0391785,0.0593744,-5.42184e-06,3.04937e-06,0.0764939,-0.030737978869112226,0.06117246934684717,-5.421825301832328e-06,0.07427809880179392,3.049374649233272e-06,-0.038420948034356694
94,0.083855,43.9299,609.046,0.285521,163.013,0.101255,0.0144426,-0.0315883,0.0724791,-0.0396395,0.0600667,-5.89804e-06,2.36478e-06,0.0774108,-0.03109460167026845,0.06190737340506369,-5.898022606642961e-06,0.07517033479533364,2.364782796027143e-06,-0.03886413381514153
95,0.084855,43.8219,610.048,0.0378754,163.443,0.0310755,-0.0274065,-0.0319558,0.0733084,-0.0401,0.0607589,-6.65367e-06,1.73638e-06,0.0783268,-0.03145060898380403,0.06264268014923924,-6.653647864340861e-06,0.07606234337421425,1.7363815074666888e-06,-0.039306634987804956
96,0.085855,44.0131,611.471,0.151507,163.748,0.0679874,-0.00440501,-0.0323225,0.0741376,-0.0405592,0.0614482,-5.91699e-06,2.02017e-06,0.0792414,-0.03180571093356799,0.06337541225577437,-5.9169724946350755e-06,0.07695498430712466,2.020172040539947e-06,-0.03974768410839036
97,0.086855,43.925,612.486,-0.0640719,164.157,0.00432371,-0.0480185,-0.0326894,0.0749654,-0.0410188,0.0621391,-6.70371e-06,1.28296e-06,0.0801558,-0.032160876259163196,0.0641103521838653,-6.703687530196234e-06,0.07784685673820335,1.282960822912571e-06,-0.04018891467022412
98,0.087855,44.2216,614.04,0.186824,164.417,0.0763186,0.00228121,-0.0330552,0.0757932,-0.0414767,0.0628264,-5.49517e-06,1.93744e-06,0.0810686,-0.03251484706542007,0.06484196661942199,-5.4951549015580525e-06,0.07873946776694396,1.937441876931345e-06,-0.04062831155860158
99,0.088855,44.0472,614.907,-0.138037,164.85,-0.0159417,-0.0635708,-0.0334215,0.0766193,-0.0419358,0.0635166,-6.72333e-06,8.55992e-07,0.0819817,-0.03286917197837036,0.06557717423574472,-6.723307398481815e-06,0.07963098263078039,8.559923663220559e-07,-0.04106865801150239
100,0.089855,44.4635,616.614,0.267683,165.059,0.0982717,0.019366,-0.0337865,0.0774458,-0.0423924,0.0642019,-4.89768e-06,1.99151e-06,0.0828926,-0.03322211031543343,0.06630766454716497,-4.8976680063761435e-06,0.08052366648871279,1.991511983101546e-06,-0.0415064061167566
101,0.090855,44.1419,617.246,-0.241976,165.539,-0.0444476,-0.0848454,-0.0341524,0.0782702,-0.0428513,0.0648919,-6.87377e-06,3.39753e-07,0.0838044,-0.03357578963569141,0.06704367072863415,-6.873746375646306e-06,0.08141481748133361,3.3975305768763064e-07,-0.04194615791822154
102,0.091855,44.7394,619.195,0.394942,165.674,0.133363,0.0459896,-0.0345165,0.0790955,-0.0433064,0.0655746,-4.11079e-06,2.18721e-06,0.0847133,-0.033927600639605204,0.06777239016271586,-4.110781550714648e-06,0.08230767751821655,2.187212391868698e-06,-0.04238206902265751
103,0.092855,44.1907,619.477,-0.399157,166.233,-0.0879127,-0.117142,-0.0348821,0.0799179,-0.0437653,0.066265,-7.24654e-06,-3.38638e-07,0.0856241,-0.03428073215243743,0.06850983475746641,-7.246513743841554e-06,0.08319813345750204,-3.386379426872921e-07,-0.04282141907460335
104,0.093855,44.3719,620.807,-0.279857,166.514,-0.0548221,-0.0948668,-0.035246,0.0807408,-0.0442211,0.0669499,-7.06611e-06,-4.38404e-07,0.0865325,-0.034632093459939894,0.06924190781309236,-7.066085035090097e-06,0.08408986405375729,-4.3840390384630723e-07,-0.043257601658226785
105,0.094855,44.7914,622.471,0.141666,166.706,0.0614802,-0.00705888,-0.0356094,0.0815634,-0.0446756,0.0676321,-5.3692e-06,6.48243e-07,0.0874394,-0.03498284442186672,0.06997159351009441,-5.369185585912817e-06,0.08498200326247751,6.482432099996771e-07,-0.043692342275984064
106,0.095855,44.6165,623.263,-0.185311,167.117,-0.028303,-0.0732671,-0.0359734,0.0823843,-0.0451319,0.068318,-6.61462e-06,-4.75097e-07,0.088347,-0.03533404674379681,0.07070573877241859,-6.614598123455551e-06,0.0858730306611144,-4.7509688716473875e-07,-0.04412860591908385
107,0.096855,45.0733,624.963,0.284383,167.288,0.102242,0.0245245,-0.036336,0.0832056,-0.0455855,0.0689986,-4.57492e-06,8.66408e-07,0.0892524,-0.035683771209570114,0.07143470913870331,-4.574909535093319e-06,0.08676522451044955,8.664083752663032e-07,-0.04456209086162144
108,0.097855,44.7128,625.468,-0.272618,167.762,-0.0525351,-0.0903239,-0.0366997,0.0840246,-0.0460417,0.0696845,-6.73033e-06,-9.38213e-07,0.0901588,-0.03603442925095102,0.07216985829628375,-6.73030735143243e-06,0.08765564980871132,-9.382125598644819e-07,-0.044997862228763785
109,0.098855,45.3471,627.408,0.421508,167.859,0.140704,0.0532359,-0.0370614,0.0848447,-0.0464938,0.0703625,-3.75355e-06,1.09572e-06,0.0910622,-0.03638303254918396,0.07289703594557584,-3.7535429554536037e-06,0.08854800206614888,1.0957206002526476e-06,-0.04542952111140741
110,0.099855,44.751,627.553,-0.429109,168.416,-0.0964069,-0.122438,-0.0374248,0.0856618,-0.04695,0.0710489,-7.11436e-06,-1.60473e-06,0.0919676,-0.03673314733544586,0.07363372527390233,-7.114334693025803e-06,0.08943781812348006,-1.6047287124676402e-06,-0.04586489684712025
111,0.1009,44.9437,628.836,-0.287723,168.672,-0.0573942,-0.0952043,-0.0377865,0.0864795,-0.0474029,0.0717294,-6.8649e-06,-1.6376e-06,0.0928705,-0.037081497953047604,0.07436458166963611,-6.864876436640799e-06,0.09032901574384966,-1.6375986591210534e-06,-0.04629692679477171
112,0.1019,45.3575,630.431,0.133006,168.845,0.0593888,-0.00751271,-0.0381476,0.0872969,-0.0478546,0.0724073,-5.17363e-06,-5.53857e-07,0.093772,-0.03742914505267536,0.07509314033660952,-5.173616616782617e-06,0.09122061502830325,-5.538568466079141e-07,-0.04672761719418894
113,0.1029,45.1894,631.17,-0.178909,169.233,-0.0269396,-0.0707263,-0.0385093,0.0881126,-0.048308,0.0730888,-6.36749e-06,-1.62626e-06,0.0946741,-0.03777724397342497,0.07582606602781139,-6.367469727597275e-06,0.09211108681352531,-1.6262586776116805e-06,-0.047159732924514475
114,0.1039,45.6249,632.78,0.270058,169.391,0.0987144,0.0229628,-0.0388697,0.0889286,-0.0487588,0.0737652,-4.40917e-06,-3.44299e-07,0.095574,-0.03812396657153183,0.07655400093870579,-4.409160279661428e-06,0.093002613153643,-3.442989406909902e-07,-0.04758917651305461
115,0.1049,45.2858,633.256,-0.254053,169.839,-0.0478903,-0.0852989,-0.0392311,0.0897425,-0.0492121,0.0744467,-6.43949e-06,-2.0423e-06,0.096475,-0.03847152576228419,0.07728792254572792,-6.439469266483755e-06,0.0938925700993396,-2.042297914561786e-06,-0.04802080650301299
116,0.1059,45.8772,635.077,0.392081,169.932,0.133132,0.0486127,-0.0395907,0.0905573,-0.0496615,0.0751207,-3.65413e-06,-1.5119e-07,0.097373,-0.03881722924040942,0.07801425935353135,-3.6541233237041837e-06,0.09478423698121285,-1.5118998852869936e-07,-0.04844852983593906
117,0.1069,45.331,635.235,-0.390176,170.453,-0.0862933,-0.113266,-0.0399517,0.0913693,-0.0501147,0.0758024,-6.74644e-06,-2.63634e-06,0.0982729,-0.03916415359703962,0.07874939221569988,-6.746417242853298e-06,0.09567356279905925,-2.636336524863836e-06,-0.04887967525728554
118,0.1079,45.5124,636.447,-0.257441,170.695,-0.0494336,-0.0879877,-0.0403112,0.0921819,-0.0505648,0.0764786,-6.48736e-06,-2.65938e-06,0.0991703,-0.03950951200192876,0.07947908923747482,-6.487338957139599e-06,0.09656426898109904,-2.6593764638205286e-06,-0.049307678186167325
119,0.1089,45.887,637.93,0.119892,170.863,0.0558005,-0.00876311,-0.0406701,0.0929941,-0.0510138,0.0771525,-4.95756e-06,-1.68665e-06,0.100067,-0.03985417018546056,0.08020679536875286,-4.957547711348376e-06,0.09745526026294526,-1.6866485775812734e-06,-0.04973444322274134
120,0.1099,45.7457,638.653,-0.153277,171.224,-0.0199622,-0.0641923,-0.0410295,0.0938046,-0.0514643,0.0778295,-5.98937e-06,-2.63222e-06,0.100963,-0.040199184593893045,0.0809383429701398,-5.989352063751063e-06,0.09834510831359822,-2.632216535736198e-06,-0.05016244144223203
121,0.1109,46.1303,640.136,0.237542,171.383,0.0898681,0.0176062,-0.0413878,0.0946154,-0.0519125,0.078502,-4.26919e-06,-1.52252e-06,0.101858,-0.040543019624328824,0.08166551849115034,-4.269180887028767e-06,0.09923600764920337,-1.522518841001741e-06,-0.050588063247006154
122,0.1119,45.8462,640.638,-0.212504,171.793,-0.0366239,-0.0755899,-0.0417469,0.0954243,-0.0523627,0.0791788,-6.00017e-06,-2.9891e-06,0.102753,-0.04088749877104925,0.08239783750286511,-6.000151999030479e-06,0.10012553937839552,-2.9890955326461466e-06,-0.05101539230194441
123,0.1129,46.3556,642.29,0.336215,171.9,0.117863,0.0384234,-0.0421044,0.0962339,-0.0528097,0.0798491,-3.61383e-06,-1.39116e-06,0.103646,-0.04123032020725559,0.08312361198948803,-3.6138234701388328e-06,0.10101656165222428,-1.3911590323045786e-06,-0.051439493627877475
124,0.1139,45.9056,642.536,-0.320484,172.369,-0.0673103,-0.0977582,-0.042463,0.0970409,-0.0532597,0.0805259,-6.19772e-06,-3.48702e-06,0.10454,-0.041574073375802434,0.08385691817290364,-6.197700794130512e-06,0.10190544063190576,-3.4870139203890815e-06,-0.05186624982839838
125,0.1149,46.6054,644.451,0.468492,172.397,0.15546,0.0660901,-0.0428196,0.0978494,-0.0537051,0.0811936,-2.81358e-06,-1.15208e-06,0.105431,-0.04191578713005306,0.08458085109527835,-2.8135760419267797e-06,0.10279669142023895,-1.152079336375067e-06,-0.05228845456874931
126,0.1159,45.9251,644.348,-0.475817,172.95,-0.111379,-0.129864,-0.043178,0.0986546,-0.0541552,0.0818709,-6.58901e-06,-4.12796e-06,0.106324,-0.042259102986069386,0.0853156865296536,-6.58898829253296e-06,0.10368502090962761,-4.127951479970804e-06,-0.05271492355130358
127,0.1169,46.1401,645.545,-0.294385,173.158,-0.0604914,-0.0939302,-0.0435345,0.0994606,-0.0546017,0.0825415,-6.19202e-06,-4.0331e-06,0.107215,-0.04260047676236367,0.08604374331919784,-6.192000829519095e-06,0.10457494962957736,-4.033091867028382e-06,-0.05313779192554802
128,0.1179,46.5342,646.995,0.113334,173.297,0.0542427,-0.00878687,-0.0438905,0.100266,-0.055047,0.0832098,-4.55286e-06,-2.98442e-06,0.108104,-0.042941250331341996,0.0867697889339778,-4.5528496357416515e-06,0.10546493264205936,-2.9844155465807987e-06,-0.053559335803093466
129,0.1189,46.3866,647.648,-0.160805,173.641,-0.0227095,-0.0644624,-0.0442471,0.10107,-0.055494,0.0838814,-5.6079e-06,-3.93128e-06,0.108994,-0.04328247663720752,0.08749990867099022,-5.607884275726782e-06,0.10635408383878797,-3.931272272494901e-06,-0.053982300240395076
130,0.1199,46.7718,649.072,0.236287,173.779,0.0899708,0.0188233,-0.0446026,0.101875,-0.0559386,0.0845485,-3.85785e-06,-2.79874e-06,0.109881,-0.04362252926882648,0.08822562189479721,-3.8578425585189535e-06,0.10724505744504031,-2.7987360835535213e-06,-0.05440280622430127
131,0.1209,46.4843,649.509,-0.211664,174.172,-0.0369967,-0.0740762,-0.0449588,0.102677,-0.0563853,0.0852199,-5.59289e-06,-4.2528e-06,0.11077,-0.04396313025926324,0.08895650190630189,-5.592874359861e-06,0.10813342416855054,-4.2527909568379485e-06,-0.05482511016215408
132,0.1219,46.9822,651.086,0.328164,174.262,0.116194,0.0383116,-0.0453135,0.10348,-0.0568287,0.0858849,-3.2373e-06,-2.6773e-06,0.111656,-0.044302176403571925,0.08968089881534635,-3.2372947599279556e-06,0.10902361267100824,-2.6772964160093338e-06,-0.055244107809665044
133,0.1229,46.5432,651.289,-0.30863,174.709,-0.0647234,-0.0940261,-0.0456693,0.104281,-0.0572751,0.0865562,-5.75259e-06,-4.70654e-06,0.112543,-0.0446421532037482,0.09041264718658204,-5.752573453920995e-06,0.10991229645509826,-4.706528924258713e-06,-0.05566575272179253
134,0.1239,47.2113,653.103,0.446066,174.73,0.149904,0.0630549,-0.0460231,0.105083,-0.0577171,0.0872187,-2.50218e-06,-2.47115e-06,0.113427,-0.044980099023803954,0.09113528491265921,-2.502176869589867e-06,0.11080280316231339,-2.4711469467364466e-06,-0.05608305622822074
135,0.1249,46.5689,652.997,-0.4449,175.252,-0.103638,-0.122248,-0.0463786,0.105881,-0.0581635,0.0878904,-6.07325e-06,-5.27836e-06,0.114314,-0.04531954825792461,0.09186844668835148,-6.0732315578793106e-06,0.11168957757516917,-5.278346069448325e-06,-0.056504326717351616
136,0.1259,46.7759,654.128,-0.268097,175.444,-0.0536743,-0.0873547,-0.0467324,0.106681,-0.0586065,0.0885556,-5.65629e-06,-5.16456e-06,0.115197,-0.045657254458001506,0.0925949992036641,-5.656274003174033e-06,0.11257928507277715,-5.1645466636607296e-06,-0.05692220273424409
137,0.1269,47.1344,655.473,0.100581,175.578,0.0506676,-0.00986985,-0.0470857,0.10748,-0.0590484,0.0892188,-4.16369e-06,-4.21524e-06,0.11608,-0.045994364196059734,0.09331984854060837,-4.163681331825764e-06,0.1134685911520179,-4.215231115933804e-06,-0.057338856746371625
138,0.1279,47.0112,656.107,-0.137917,175.895,-0.0164972,-0.0583583,-0.0474394,0.108278,-0.0594918,0.0898849,-5.07068e-06,-5.04516e-06,0.116962,-0.046331736321665984,0.09404835149269375,-5.07066714416915e-06,0.11435749371270743,-5.045147273174955e-06,-0.057756740045716404
139,0.1289,47.3503,657.412,0.206976,176.032,0.0818761,0.0142166,-0.0477922,0.109076,-0.059933,0.090547,-3.53586e-06,-4.066e-06,0.117843,-0.046668131141556324,0.09477296076164454,-3.535853748903861e-06,0.11524710590074427,-4.065991733859242e-06,-0.05817236607816345
140,0.1299,47.111,657.866,-0.175451,176.391,-0.0271332,-0.0653046,-0.0481455,0.109872,-0.060376,0.0912127,-5.00613e-06,-5.31479e-06,0.118725,-0.04700488379996404,0.0955019937533319,-5.006117469341653e-06,0.11613519601001232,-5.314775876508193e-06,-0.05858950331727042
141,0.1309,47.5372,659.288,0.279745,176.49,0.102784,0.0297296,-0.0484975,0.110668,-0.0608162,0.0918729,-2.99946e-06,-3.99244e-06,0.119604,-0.04734027904783977,0.09622548296711875,-2.999455501639936e-06,0.11702399332043623,-3.992432030197612e-06,-0.05900382101989343
142,0.1319,47.1795,659.559,-0.249944,176.891,-0.0486111,-0.0806087,-0.0488504,0.111463,-0.0612588,0.0925383,-5.08017e-06,-5.6892e-06,0.120485,-0.047676413348977875,0.09695515413816147,-5.0801570959935205e-06,0.11791238048223263,-5.689183816492971e-06,-0.05942021377419604
143,0.1329,47.7358,661.161,0.369485,176.936,0.128602,0.0486561,-0.0492016,0.112258,-0.0616977,0.0931964,-2.38689e-06,-3.86193e-06,0.121362,-0.04801081066900326,0.0976772979204481,-2.3868871513732515e-06,0.11880147419263842,-3.8619225427583e-06,-0.05983294366217118
144,0.1339,47.2243,661.196,-0.352323,177.394,-0.0780705,-0.101799,-0.0495541,0.113051,-0.0621402,0.0938618,-5.26866e-06,-6.14666e-06,0.122241,-0.048346327719888005,0.09840793545063287,-5.268646120604181e-06,0.11968903563327249,-6.146641109316953e-06,-0.06024887555288305
145,0.1349,47.9562,663.044,0.488593,177.367,0.162941,0.0736836,-0.0499044,0.113845,-0.0625777,0.0945174,-1.65146e-06,-3.63991e-06,0.123117,-0.048679633619351126,0.09912828779881266,-1.6514586362870176e-06,0.12057842176713529,-3.639903375485254e-06,-0.06065992674582377
146,0.1359,47.2405,662.77,-0.488653,177.901,-0.117288,-0.130151,-0.0502567,0.114636,-0.0630201,0.0951831,-5.5987e-06,-6.70764e-06,0.123995,-0.049014724754657735,0.09986022109696857,-5.598684327257075e-06,0.12146514995351687,-6.707617503876051e-06,-0.061075398885017895
147,0.1369,47.4686,663.873,-0.279381,178.065,-0.0576404,-0.0881344,-0.050607,0.115428,-0.0634587,0.0958418,-5.06949e-06,-6.49891e-06,0.12487,-0.04934779655564425,0.10058493768380927,-5.069477150176915e-06,0.12235370217251229,-6.498888882155995e-06,-0.06148712091782493
148,0.1379,47.8226,665.155,0.0894347,178.18,0.0476137,-0.0106623,-0.0509569,0.116219,-0.0638964,0.0964986,-3.58001e-06,-5.55041e-06,0.125745,-0.04968037157423688,0.10130803931145982,-3.5800035917965545e-06,0.12324183516122034,-5.550394596487429e-06,-0.06189781811736017
149,0.1389,47.7085,665.745,-0.131536,178.476,-0.0152035,-0.0556066,-0.0513073,0.117009,-0.0643355,0.0971582,-4.42606e-06,-6.32243e-06,0.126619,-0.05001330523865277,0.10203470172110651,-4.426050205008636e-06,0.12412954681093114,-6.322410013526181e-06,-0.06230964836147779
150,0.1399,48.0266,666.964,0.192271,178.602,0.077962,0.0127315,-0.0516567,0.117799,-0.0647726,0.097814,-2.97676e-06,-5.40229e-06,0.127492,-0.050345172609196576,0.10275765310834495,-2.9767555694837355e-06,0.12501796002992838,-5.402275407684343e-06,-0.0627194232513526
151,0.1409,47.8078,667.392,-0.15857,178.935,-0.0228517,-0.0603721,-0.0520066,0.118588,-0.0652113,0.0984732,-4.32632e-06,-6.54902e-06,0.128365,-0.0506773987069552,0.10348483060464408,-4.326310641511455e-06,0.12590594946615852,-6.548998555233609e-06,-0.0631305180601327
152,0.1419,48.1955,668.704,0.253652,179.03,0.0957133,0.0259101,-0.0523553,0.119377,-0.0656474,0.0991272,-2.49512e-06,-5.35215e-06,0.129236,-0.05100836978986423,0.1042067457243725,-2.4951168872133778e-06,0.1267946398025226,-5.352135677316738e-06,-0.06353899776573302
153,0.1429,47.8794,668.981,-0.218366,179.398,-0.0402267,-0.072654,-0.0527048,0.120163,-0.0660857,0.099786,-4.34773e-06,-6.86741e-06,0.130108,-0.05133998441159193,0.10493443680357806,-4.347720548580902e-06,0.12768064854522887,-6.867386419417976e-06,-0.06394935868584728
154,0.1439,48.371,670.436,0.325284,179.45,0.116455,0.0410983,-0.0530528,0.120951,-0.0665206,0.100438,-1.96501e-06,-5.26561e-06,0.130978,-0.05167006066041824,0.10565508896344866,-1.965008069371166e-06,0.12856961110152998,-5.265596136672102e-06,-0.06435635860120825
155,0.1449,47.9333,670.525,-0.298642,179.863,-0.0635049,-0.0892747,-0.0534019,0.121736,-0.0669586,0.101097,-4.45317e-06,-7.24606e-06,0.131849,-0.05200106486209666,0.1063839558023214,-4.4531600846831054e-06,0.1294558860636552,-7.246033747354552e-06,-0.06476608078043344
156,0.1459,48.5613,672.172,0.417147,179.858,0.143112,0.0604994,-0.053749,0.122523,-0.0673923,0.101747,-1.35011e-06,-5.11534e-06,0.132716,-0.05233005819238756,0.10710333914785175,-1.350109088638085e-06,0.13034511771274437,-5.115326916715901e-06,-0.06517160378717857
157,0.1469,47.9672,672.022,-0.402316,180.329,-0.0935637,-0.110844,-0.0540977,0.123306,-0.0678301,0.102405,-4.65694e-06,-7.69565e-06,0.133586,-0.052660453093397064,0.1078320528655321,-4.656929156521272e-06,0.1312305245314469,-7.695620388603608e-06,-0.06558078208337592
158,0.1479,48.7711,673.918,0.535397,180.252,0.177498,0.0853998,-0.054444,0.124092,-0.0682624,0.103053,-6.24711e-07,-4.88322e-06,0.134452,-0.052988459980820246,0.10855016067759204,-6.247108048640371e-07,0.13212002125014521,-4.88320807712217e-06,-0.06598464421019301
159,0.1489,47.9766,673.466,-0.535054,180.799,-0.132049,-0.138568,-0.0547924,0.124874,-0.0687001,0.103712,-4.98246e-06,-8.23418e-06,0.135321,-0.05331834133269464,0.10928093599749955,-4.982447587620342e-06,0.13300568535629465,-8.234146099184159e-06,-0.06639337327454098
160,0.1499,48.2289,674.547,-0.289377,180.934,-0.0613915,-0.0885449,-0.0551387,0.125657,-0.0691337,0.104363,-4.32228e-06,-7.91634e-06,0.136186,-0.05364612043286421,0.11000331299503463,-4.322270658940752e-06,0.13389317621525731,-7.916308665811833e-06,-0.06679809735736708
161,0.1509,48.5758,675.76,0.0762605,181.032,0.0439025,-0.0117508,-0.0554848,0.126439,-0.0695666,0.105012,-2.84892e-06,-6.97727e-06,0.137051,-0.053973596837521676,0.11072393896300103,-2.8489159418221277e-06,0.13478022747089402,-6.977245658901232e-06,-0.06720199303149477
162,0.1519,48.474,676.311,-0.123111,181.304,-0.0133552,-0.0522942,-0.0558312,0.12722,-0.0700007,0.105664,-3.61708e-06,-7.67858e-06,0.137916,-0.05430124363187616,0.11144836710911732,-3.6170734584173303e-06,0.13566683700450533,-7.678550519751859e-06,-0.0676068327694973
163,0.1529,48.7673,677.437,0.175063,181.42,0.0732543,0.010846,-0.0561767,0.128001,-0.070433,0.106313,-2.27291e-06,-6.83061e-06,0.138779,-0.054627926114552805,0.11216993122159868,-2.272907416944747e-06,0.1365541392506313,-6.830586671391359e-06,-0.06800981922389293
164,0.1539,48.5729,677.844,-0.139325,181.726,-0.0178834,-0.0548068,-0.0565228,0.128781,-0.0708667,0.106964,-3.48146e-06,-7.86031e-06,0.139643,-0.054955062775059904,0.11289418956733699,-3.481453939691015e-06,0.1374409973089259,-7.860279107818613e-06,-0.06841393572629761
165,0.1549,48.918,679.039,0.224933,181.819,0.0877762,0.0216527,-0.0568676,0.129561,-0.071298,0.107611,-1.84777e-06,-6.80346e-06,0.140504,-0.05528085809907346,0.11361446509199324,-1.8477682929285422e-06,0.13832854738635825,-6.803436856550604e-06,-0.06881564216159897
166,0.1559,48.6472,679.326,-0.184642,182.152,-0.0311665,-0.0640996,-0.0572132,0.130339,-0.0717313,0.108262,-3.45179e-06,-8.12257e-06,0.141367,-0.055607296622688374,0.11433966413544505,-3.451784042596273e-06,0.13921451159161236,-8.122537011989728e-06,-0.06921903694205978
167,0.1569,49.0709,680.629,0.279147,182.211,0.103582,0.0332288,-0.0575573,0.131117,-0.0721616,0.108908,-1.39863e-06,-6.75805e-06,0.142227,-0.05593220624801354,0.11505976012443875,-1.3986290219314412e-06,0.14010116534521755,-6.758027164432967e-06,-0.0696194658320094
168,0.1579,48.709,680.775,-0.244106,182.578,-0.048558,-0.0764037,-0.0579024,0.131894,-0.0725944,0.109558,-3.48002e-06,-8.42566e-06,0.143088,-0.05625794783369398,0.11578478457593944,-3.480013944789917e-06,0.14098736819591284,-8.425624504204698e-06,-0.07002204740226137
169,0.1589,49.2327,682.217,0.345943,182.594,0.123102,0.04743,-0.0582458,0.132671,-0.0730236,0.110202,-8.96634e-07,-6.67226e-06,0.143946,-0.056581973216065506,0.11650358140494266,-8.96633598035379e-07,0.14187425989380542,-6.6722377405348254e-06,-0.07042110829492265
170,0.1599,48.7579,682.189,-0.318301,183.004,-0.070259,-0.0918334,-0.0585905,0.133446,-0.0734562,0.110852,-3.57084e-06,-8.77294e-06,0.144806,-0.0569071133687733,0.11722954464534907,-3.5708336245665606e-06,0.1427595554529415,-8.772901517906107e-06,-0.07082315715403609
171,0.1609,49.406,683.806,0.428855,182.968,0.147379,0.0650019,-0.0589332,0.134223,-0.0738842,0.111493,-3.27368e-07,-6.53582e-06,0.145663,-0.057230255927381735,0.11794591835671264,-3.273679464177448e-07,0.1436478246754318,-6.535798641627011e-06,-0.07122075974974906
172,0.1619,48.7918,683.566,-0.410013,183.431,-0.0970886,-0.11098,-0.0592775,0.134996,-0.0743165,0.112144,-3.73596e-06,-9.17337e-06,0.146522,-0.05755479567754207,0.11867393809427607,-3.735953021277716e-06,0.1445322062133334,-9.173327924716368e-06,-0.07162218424115385
173,0.1629,49.5937,685.403,0.531347,183.332,0.177449,0.0866669,-0.0596193,0.135772,-0.0747432,0.112783,3.24165e-07,-6.33836e-06,0.147377,-0.05787686840301509,0.1193889991784034,3.2416505257870654e-07,0.14542070789942296,-6.338339912592694e-06,-0.07201823855094192
174,0.1639,48.8077,684.902,-0.522712,183.86,-0.130065,-0.134589,-0.0599633,0.136543,-0.0751754,0.113433,-3.9896e-06,-9.638e-06,0.148234,-0.05820090302313441,0.1201168385500393,-3.989592041508949e-06,0.14630416779523947,-9.637953554575418e-06,-0.07241922560869507
175,0.1649,49.0612,685.927,-0.269769,183.974,-0.0566419,-0.0829064,-0.0603052,0.137316,-0.0756034,0.114076,-3.27077e-06,-9.26886e-06,0.149089,-0.058522849094573726,0.12083730528245828,-3.2707646510088395e-06,0.1471906034801982,-9.268817044216782e-06,-0.07281614523327584
176,0.1659,49.3766,687.039,0.0621167,184.064,0.0397219,-0.0128209,-0.0606469,0.138089,-0.0760308,0.114717,-1.92694e-06,-8.41515e-06,0.149943,-0.05884449688038429,0.12155599230972869,-1.9269381434927624e-06,0.14807772464484503,-8.41511459270805e-06,-0.07321233894017687
177,0.1669,49.2975,687.565,-0.103159,184.31,-0.00803201,-0.0464147,-0.0609889,0.13886,-0.0764593,0.115361,-2.55603e-06,-9.00434e-06,0.150797,-0.05916631702806907,0.12227850699353326,-2.556026733380179e-06,0.14896323389049515,-9.004299461046195e-06,-0.07360938238030879
178,0.1679,49.5492,688.576,0.148585,184.423,0.0656753,0.00712658,-0.0613301,0.139631,-0.0768862,0.116001,-1.40604e-06,-8.2907e-06,0.151649,-0.05948727472220272,0.12299699512968831,-1.4060390115533394e-06,0.1498494261270329,-8.290665632237904e-06,-0.07400477413259632
179,0.1689,49.3956,688.987,-0.109198,184.696,-0.00966051,-0.0468704,-0.0616716,0.1404,-0.0773142,0.116644,-2.38642e-06,-9.14186e-06,0.152502,-0.05980840498177242,0.12371931439831485,-2.386417152555609e-06,0.15073400041094498,-9.141818213320718e-06,-0.07440101528761156
180,0.1699,49.6804,690.04,0.184862,184.793,0.0763264,0.0150768,-0.0620122,0.14117,-0.0777403,0.117283,-1.04627e-06,-8.29249e-06,0.153353,-0.06012857971018415,0.12443760050818642,-1.046269452631421e-06,0.15162040681393063,-8.292455617397998e-06,-0.07479532900049501
181,0.1709,49.4733,690.366,-0.139267,185.084,-0.0185816,-0.0529903,-0.0623533,0.141938,-0.0781678,0.117926,-2.30285e-06,-9.34497e-06,0.154205,-0.06044911518121254,0.12516084638394354,-2.3028473484787426e-06,0.15250519100000215,-9.34492633586359e-06,-0.0751907694659254
182,0.1719,49.8103,691.49,0.220989,185.159,0.0869436,0.0228738,-0.0626932,0.142707,-0.078593,0.118563,-6.8193e-07,-8.29008e-06,0.155054,-0.06076841425901014,0.12587780216926459,-6.819297674320879e-07,0.15339180835256072,-8.290045637404653e-06,-0.07558391476213522
183,0.1729,49.5432,691.72,-0.177943,185.472,-0.0300136,-0.0609559,-0.0630338,0.143474,-0.07902,0.119205,-2.25428e-06,-9.57208e-06,0.155904,-0.061088262063940246,0.1266008477910674,-2.2542774591460812e-06,0.154276799220179,-9.572034187832479e-06,-0.07597855616859539
184,0.1739,49.9443,692.932,0.263516,185.518,0.0994675,0.0320083,-0.063373,0.144241,-0.0794442,0.119841,-2.90852e-07,-8.26625e-06,0.156752,-0.06140668691753992,0.1273175938313431,-2.908519577404789e-07,0.1551624691361746,-8.26621583460696e-06,-0.07637044294000783
185,0.1749,49.6058,693.051,-0.224415,185.858,-0.0437468,-0.0705834,-0.0637131,0.145006,-0.0798707,0.120482,-2.23945e-06,-9.82204e-06,0.157601,-0.06172584822686211,0.12804043605517168,-2.2394474924469776e-06,0.15604650652625196,-9.821991763914184e-06,-0.07676428695288817
186,0.1759,50.0837,694.369,0.314214,185.872,0.114422,0.0428589,-0.0640517,0.145772,-0.0802939,0.121116,1.3388e-07,-8.21603e-06,0.158447,-0.06204349407417575,0.12875584045086064,1.3388000885683482e-07,0.15693237739547827,-8.21599624856173e-06,-0.07715491764336546
187,0.1769,49.6605,694.357,-0.279651,186.244,-0.0600726,-0.0820763,-0.0643913,0.146536,-0.08072,0.121757,-2.26261e-06,-1.0098e-05,0.159295,-0.06236197002331123,0.12947960488630939,-2.2626074402953833e-06,0.15781661146621295,-1.0097949015408503e-05,-0.07754805816842048
188,0.1779,50.2298,695.804,0.374433,186.218,0.132216,0.0557102,-0.0647292,0.147301,-0.0811422,0.12239,5.98116e-07,-8.13535e-06,0.16014,-0.06267874439159682,0.13019479180898275,5.981161788071176e-07,0.15870268005200616,-8.135316908131074e-06,-0.07793743517499174
189,0.1789,49.7062,695.638,-0.344929,186.628,-0.0793716,-0.0957084,-0.0650684,0.148064,-0.081568,0.12303,-2.32907e-06,-1.04042e-05,0.160986,-0.06299662984507837,0.1309183479890208,-2.3290672876985496e-06,0.15958710756307415,-1.0404145876496962e-05,-0.07832996583938512
190,0.1799,50.3835,697.238,0.445603,186.558,0.153283,0.0708605,-0.0654055,0.148828,-0.081989,0.123661,1.10815e-06,-8.01994e-06,0.161829,-0.06331244044828976,0.1316321826577549,1.108150613937653e-06,0.16047337062263223,-8.0199078403842e-06,-0.07871790725636851
191,0.1809,49.7419,696.892,-0.421663,187.013,-0.102066,-0.111786,-0.0657444,0.149589,-0.0824145,0.124301,-2.44462e-06,-1.0745e-05,0.162675,-0.06362983007751144,0.13235665906237637,-2.444617011931882e-06,0.1613568269701806,-1.0744942272711278e-05,-0.07910982939948186
192,0.1819,50.5463,698.674,0.529284,186.889,0.178099,0.0886353,-0.0660807,0.150352,-0.0828343,0.124929,1.67093e-06,-7.86511e-06,0.163516,-0.0639446784209401,0.13306800238269156,1.6709313959140104e-06,0.16224328036812463,-7.865079070135117e-06,-0.07949633795927702
193,0.1829,49.7663,698.117,-0.51139,187.399,-0.128611,-0.130642,-0.0664193,0.151111,-0.0832596,0.12557,-2.61552e-06,-1.11254e-05,0.16436,-0.06426157309952996,0.13379453180002088,-2.615516579540511e-06,0.16312575787577321,-1.1125338112982774e-05,-0.0798877449281512
194,0.1839,50.022,699.086,-0.249441,187.491,-0.0517662,-0.0768651,-0.0667557,0.151871,-0.0836808,0.126202,-1.82933e-06,-1.0697e-05,0.165202,-0.06457630256587499,0.13451131642420133,-1.8293283268189242e-06,0.16401006944759144,-1.0696942787324915e-05,-0.08027521460314546
195,0.1849,50.3044,700.09,0.0471871,187.574,0.0351862,-0.013836,-0.067092,0.152631,-0.0841015,0.126833,-6.2189e-07,-9.932e-06,0.166042,-0.06489083266412166,0.13522741897145818,-6.218898066512324e-07,0.16489505335165777,-9.931950677888324e-06,-0.08066206144142385
196,0.1859,50.2485,700.591,-0.0831258,187.791,-0.00270984,-0.0402709,-0.0674285,0.15339,-0.0845231,0.127466,-1.10851e-06,-1.04058e-05,0.166883,-0.06520544396261063,0.13594624541223355,-1.108509385616685e-06,0.1657795443190122,-1.0405745859864979e-05,-0.08104957262322321
197,0.1869,50.4584,701.482,0.122118,187.9,0.0579396,0.00361152,-0.0677644,0.154149,-0.0849433,0.128096,-1.54582e-07,-9.82592e-06,0.167722,-0.06551938872400898,0.13666211702272313,-1.5458198809881196e-07,0.1666647068698448,-9.8258717258215e-06,-0.08143563447553115
198,0.1879,50.3441,701.893,-0.0803055,188.138,-0.00177287,-0.0389366,-0.0681004,0.154906,-0.0853644,0.128729,-9.11743e-07,-1.05017e-05,0.168561,-0.06583332146574372,0.1373818519148593,-9.117425843196969e-07,0.1675482064153324,-1.0501644857385806e-05,-0.08182236049897462
199,0.1889,50.5708,702.803,0.146608,188.239,0.0651997,0.0090702,-0.0684357,0.155663,-0.0857839,0.129358,1.45314e-07,-9.84994e-06,0.169399,-0.06614649504657133,0.13809749014434236,1.453140106022488e-07,0.1684323750231842,-9.849891489555063e-06,-0.08220745523947603
200,0.1899,50.4229,703.158,-0.097569,188.489,-0.00698308,-0.0423846,-0.0687713,0.156419,-0.0862044,0.12999,-7.85807e-07,-1.06519e-05,0.170237,-0.0664598436999887,0.13881699509772982,-7.858066912724837e-07,0.16931604388344357,-1.0651843268760786e-05,-0.08259330587376645
201,0.1909,50.6799,704.109,0.167905,188.575,0.0715172,0.0137508,-0.0691059,0.157175,-0.0866231,0.130618,4.36389e-07,-9.87946e-06,0.171073,-0.06677215398386238,0.13953239678326845,4.3638909530407943e-07,0.17020038104994928,-9.879411198343568e-06,-0.08297734365267762
202,0.1919,50.497,704.407,-0.119595,188.838,-0.0135835,-0.0468664,-0.069441,0.15793,-0.0870431,0.131249,-6.78877e-07,-1.08145e-05,0.17191,-0.06708482624389933,0.14025166863204164,-6.788767695775633e-07,0.17108421594333012,-1.0814441523510077e-05,-0.08336241229826746
203,0.1929,50.7898,705.404,0.191503,188.908,0.0785289,0.0189104,-0.069775,0.158685,-0.0874609,0.131875,7.36817e-07,-9.90028e-06,0.172745,-0.06739636788158421,0.14096568964186407,7.368172714183885e-07,0.17196871838402306,-9.900230992343495e-06,-0.0837453034908694
204,0.1939,50.5676,705.639,-0.144891,189.184,-0.021158,-0.0520524,-0.0701096,0.159438,-0.0878803,0.132505,-5.86671e-07,-1.09861e-05,0.17358,-0.06770836485688614,0.1416847244985362,-5.866708279178567e-07,0.17285154317078422,-1.0986039652993718e-05,-0.08412950013891662
205,0.1949,50.9015,706.692,0.218255,189.236,0.0864877,0.0247355,-0.070443,0.160192,-0.0882973,0.133131,1.04966e-06,-9.91015e-06,0.174414,-0.0680191390791014,0.14239964288217966,1.0496605509224821e-06,0.17373620671057743,-9.910100894572338e-06,-0.08451133851852344
206,0.1959,50.6348,706.856,-0.173535,189.529,-0.0297342,-0.0579551,-0.0707771,0.160944,-0.0887161,0.13376,-5.09721e-07,-1.11669e-05,0.175248,-0.06833046187536596,0.14311843829501125,-5.097208700677314e-07,0.17461918829748968,-1.1166837650455896e-05,-0.08489466489580577
207,0.1969,51.0151,707.972,0.248502,189.56,0.0954996,0.0312993,-0.0711099,0.161697,-0.0891323,0.134384,1.37638e-06,-9.90807e-06,0.17608,-0.06864046990945571,0.14383196679824772,1.3763809472155941e-06,0.17550400963970447,-9.90802091527243e-06,-0.08527545248888124
208,0.1979,50.6983,708.057,-0.205774,189.872,-0.0393888,-0.0646273,-0.0714435,0.162447,-0.0895506,0.135013,-4.49084e-07,-1.13579e-05,0.176913,-0.06895111962943967,0.14455166342622472,-4.4908389917885927e-07,0.17638596834010523,-1.1357835499326008e-05,-0.08565800175134886
209,0.1989,51.1309,709.246,0.282529,189.88,0.105654,0.0386615,-0.0717756,0.163199,-0.0899659,0.135635,1.71829e-06,-9.8932e-06,0.177743,-0.06926026962541254,0.14526379601115047,1.7182914762159385e-06,0.17727094329717596,-9.8931510624789e-06,-0.08603764914398382
210,0.1999,50.7579,709.242,-0.241868,190.213,-0.0502023,-0.0721256,-0.0721088,0.163948,-0.0903837,0.136263,-4.0584e-07,-1.156e-05,0.178575,-0.06957034044290644,0.14598324755918646,-4.058399176720684e-07,0.17815304954125555,-1.1559933183469262e-05,-0.08641942285608961
211,0.2009,51.2491,710.513,0.320607,190.195,0.117035,0.0468793,-0.0724403,0.164698,-0.090798,0.136884,2.07661e-06,-9.86471e-06,0.179404,-0.06987872675719387,0.14669512417073127,2.076612156232116e-06,0.17903699576681098,-9.864661343894632e-06,-0.08679784089449094
212,0.2019,50.8134,710.411,-0.282069,190.552,-0.062252,-0.0805049,-0.072773,0.165446,-0.0912154,0.137512,-3.81015e-07,-1.17738e-05,0.180234,-0.07018812663327845,0.14741547487515705,-3.8101492738640275e-07,0.17991924535985726,-1.1773730689057516e-05,-0.0871789319364682
213,0.2029,51.3699,711.774,0.362998,190.506,0.129725,0.0560072,-0.0731038,0.166196,-0.0916288,0.138131,2.45257e-06,-9.82185e-06,0.181062,-0.07049565753257303,0.148125944921899,2.4525730075719565e-06,0.18080451672914344,-9.821801765785843e-06,-0.08755621417639359
214,0.2039,50.8648,711.565,-0.32661,190.89,-0.07561,-0.0898169,-0.0734361,0.166942,-0.0920458,0.138758,-3.75548e-07,-1.20003e-05,0.181891,-0.07080448051179522,0.14884604561734194,-3.75547929531983e-07,0.18168572554864593,-1.2000227996633583e-05,-0.08793662391413926
215,0.2049,51.4936,713.03,0.409942,190.813,0.1438,0.0660956,-0.0737663,0.16769,-0.0924583,0.139376,2.8473e-06,-9.76391e-06,0.182717,-0.07111125022186382,0.14955625190467248,2.84730405364364e-06,0.18256995713274105,-9.763862333200812e-06,-0.08831277247080116
216,0.2059,50.9117,712.702,-0.375702,191.226,-0.0903412,-0.100108,-0.0740981,0.168435,-0.0928748,0.140003,-3.90262e-07,-1.22402e-05,0.183545,-0.07141940438343763,0.15027724968380007,-3.9026192388824654e-07,0.18345130001026289,-1.2240125089046927e-05,-0.08869241113582704
217,0.2069,51.6203,714.281,0.461656,191.115,0.15933,0.0771896,-0.0744277,0.169182,-0.0932863,0.140619,3.26187e-06,-9.69026e-06,0.184369,-0.07172541411457889,0.15098603875422612,3.2618753198487838e-06,0.18433566840184112,-9.690213049529106e-06,-0.08906733706234471
218,0.2079,50.9542,713.823,-0.429524,191.561,-0.106501,-0.11142,-0.0747591,0.169926,-0.0937025,0.141245,-4.25833e-07,-1.24941e-05,0.185196,-0.07203299334364799,0.15170678158345496,-4.2583290937869833e-07,0.1852171420066524,-1.2494021949027712e-05,-0.08944638835061458
219,0.2089,51.7502,715.527,0.518327,191.413,0.176375,0.0893276,-0.0750879,0.170672,-0.094113,0.141859,3.6972e-06,-9.60038e-06,0.186019,-0.07233805873993715,0.152414146686211,3.6972068346852183e-06,0.1861016438727654,-9.600333916504056e-06,-0.08982009389988488
220,0.2099,50.992,714.929,-0.488216,191.895,-0.124135,-0.123786,-0.0754189,0.171414,-0.0945288,0.142485,-4.82763e-07,-1.27625e-05,0.186845,-0.07264506403031568,0.15313578379088422,-4.827628834469522e-07,0.1869820578857242,-1.2762418559630895e-05,-0.0901984680354071
221,0.2109,51.8835,716.769,0.580101,191.706,0.194984,0.102539,-0.0757471,0.172159,-0.0949383,0.143098,4.1541e-06,-9.49388e-06,0.187666,-0.07294937198063467,0.15384287272696517,4.154108628195985e-06,0.18786668900302428,-9.493834933316236e-06,-0.0905709554907349
222,0.2119,51.0252,716.018,-0.551874,192.228,-0.143273,-0.137228,-0.0760777,0.1729,-0.0953538,0.143724,-5.61341e-07,-1.3046e-05,0.188491,-0.07325580426221079,0.15456540449414002,-5.613408424753885e-07,0.18874722441765623,-1.3045914901366196e-05,-0.09094874476757109
223,0.2129,51.3098,716.957,-0.246036,192.283,-0.0522795,-0.0736036,-0.0764061,0.173642,-0.0957648,0.144341,4.11039e-07,-1.24634e-05,0.189312,-0.07356009708847422,0.1552779911590929,4.1103908454687144e-07,0.18962960217984004,-1.2463322332179061e-05,-0.0913222880650657
224,0.2139,51.5672,717.853,0.0262423,192.35,0.0286964,-0.0155763,-0.0767344,0.174384,-0.0961756,0.144957,1.51913e-06,-1.17606e-05,0.190133,-0.07386419738780459,0.1559898616352433,1.5191311539819452e-06,0.19051263490928627,-1.1760530844395767e-05,-0.09169549620692785
225,0.2149,51.5359,718.318,-0.0655429,192.534,0.00164258,-0.0340193,-0.0770629,0.175125,-0.096587,0.145575,1.18291e-06,-1.21078e-05,0.190953,-0.07416838303373496,0.15670448416535154,1.1829106996152916e-06,0.19139513169643352,-1.2107726700905097e-05,-0.0920690958250775
226,0.2159,51.7046,719.078,0.095024,192.636,0.0498205,0.000556835,-0.0773909,0.175865,-0.0969974,0.14619,1.94674e-06,-1.16546e-05,0.191773,-0.07447200600721016,0.1574160762152399,1.946741894798265e-06,0.1922770903783544,-1.1654532085403346e-05,-0.09244163421804386
227,0.2169,51.6275,719.472,-0.0533925,192.836,0.00540628,-0.0307465,-0.0777189,0.176605,-0.0974084,0.146807,1.40442e-06,-1.21573e-05,0.192592,-0.07477552940868071,0.15813042228736607,1.404420986172994e-06,0.19315970195123988,-1.2157226100373286e-05,-0.0928145640640472
228,0.2179,51.7979,720.23,0.10971,192.935,0.0542167,0.00394722,-0.0780463,0.177344,-0.0978182,0.147422,2.18985e-06,-1.16911e-05,0.193411,-0.07507839831800645,0.15884289155891773,2.189852397638248e-06,0.19404177285603819,-1.169103165932217e-05,-0.09318625249153334
229,0.2189,51.7038,720.595,-0.0597202,193.141,0.00343226,-0.0319099,-0.0783739,0.178082,-0.0982285,0.148038,1.56106e-06,-1.22566e-05,0.194229,-0.07538135300802984,0.15955695869021458,1.5610612185135153e-06,0.1949233009282545,-1.2256524888232256e-05,-0.09355824185329997
230,0.2199,51.8862,721.367,0.118953,193.234,0.0569823,0.0060786,-0.0787007,0.17882,-0.0986375,0.148652,2.41444e-06,-1.17405e-05,0.195046,-0.07568346901342271,0.16026914528175973,2.4144429147110458e-06,0.19580547980830687,-1.174043108065348e-05,-0.09392890072747517
231,0.2209,51.7774,721.705,-0.0685274,193.445,0.000733701,-0.0336221,-0.0790278,0.179557,-0.0990473,0.149267,1.70829e-06,-1.23615e-05,0.195863,-0.07598576350774855,0.160982930272495,1.7082914591792786e-06,0.19668711328895694,-1.2361423596951582e-05,-0.09430013259335246
232,0.2219,51.9737,722.494,0.128041,193.53,0.0597093,0.00816956,-0.0793541,0.180294,-0.0994556,0.14988,2.63808e-06,-1.1789e-05,0.196678,-0.07628722016778722,0.1616948309840276,2.638083479666875e-06,0.19756939677297902,-1.178893051001495e-05,-0.09466985436537845
233,0.2229,51.8498,722.805,-0.0780206,193.746,-0.00217224,-0.0354877,-0.0796806,0.181029,-0.0998647,0.150494,1.85181e-06,-1.24674e-05,0.197494,-0.07658876316083008,0.16240833063222837,1.8518117146371083e-06,0.19844993383733756,-1.2467322282327942e-05,-0.09504014917898906
234,0.2239,52.0609,723.612,0.137524,193.824,0.0625584,0.0103431,-0.0800063,0.181765,-0.100272,0.151105,2.8625e-06,-1.18352e-05,0.198308,-0.0768894692280272,0.16311877914216222,2.862504096867724e-06,0.19933231766605886,-1.1835129964277158e-05,-0.09540866427303496
235,0.2249,51.9212,723.896,-0.0879764,194.045,-0.00522012,-0.037455,-0.0803324,0.182499,-0.100681,0.151719,1.99239e-06,-1.25738e-05,0.199123,-0.07719044649510143,0.16383315336299842,1.9923919847286697e-06,0.20021295074002676,-1.2573720950093126e-05,-0.0957785664791897
236,0.2259,52.1477,724.722,0.147427,194.115,0.0655381,0.0126055,-0.0806576,0.183234,-0.101088,0.152329,3.08779e-06,-1.1879e-05,0.199936,-0.07749049537130959,0.16454330816174267,3.0877947672092176e-06,0.20109543153078313,-1.1878929444986142e-05,-0.09614650972110383
237,0.2269,51.9916,724.977,-0.0983326,194.342,-0.00839219,-0.0395103,-0.0809831,0.183967,-0.101496,0.152942,2.13027e-06,-1.26805e-05,0.200749,-0.0777907233503119,0.16525739205399792,2.1302722690297315e-06,0.2019761572286296,-1.2680419602784099e-05,-0.09651520672583414
238,0.2279,52.2342,725.823,0.15771,194.404,0.0686371,0.0149489,-0.0813077,0.184701,-0.101902,0.153551,3.31379e-06,-1.19207e-05,0.20156,-0.07809002390240483,0.16596724993554424,3.3137954906781175e-06,0.2028587315932029,-1.1920628948725032e-05,-0.09688194709857012
239,0.2289,52.0611,726.05,-0.109038,194.636,-0.0116734,-0.0416425,-0.0816327,0.185432,-0.102309,0.154163,2.26569e-06,-1.27874e-05,0.202372,-0.07838959596154005,0.16668104029007447,2.265692566671973e-06,0.20373834278471903,-1.278731824150281e-05,-0.0972494413559466
240,0.2299,52.3204,726.916,0.168321,194.69,0.0718401,0.0173618,-0.0819568,0.186165,-0.102715,0.154771,3.54029e-06,-1.19604e-05,0.203182,-0.07868824149536602,0.16739059804627066,3.540296266812959e-06,0.2046210064466918,-1.1960328474724946e-05,-0.0976158836899288
241,0.2309,52.1298,727.113,-0.120033,194.928,-0.0150469,-0.0438394,-0.0822813,0.186895,-0.103121,0.155382,2.39889e-06,-1.28943e-05,0.203993,-0.07898715865906791,0.16810409165177664,2.3988928772311624e-06,0.2055007008307823,-1.2894216868897246e-05,-0.09798217727852065
242,0.2319,52.4061,728.001,0.179199,194.974,0.0751291,0.0198315,-0.0826049,0.187626,-0.103526,0.155989,3.76705e-06,-1.19982e-05,0.204802,-0.07928515019689464,0.16881334607234888,3.7670570953718396e-06,0.20638224400786553,-1.1998128021883936e-05,-0.09834742052997203
243,0.2329,52.1976,728.167,-0.131256,195.218,-0.0184932,-0.0460874,-0.0829289,0.188356,-0.103932,0.156599,2.53016e-06,-1.30009e-05,0.205611,-0.07958341348696862,0.1695265397153991,2.5301632009533392e-06,0.20726322456477186,-1.3000815488717343e-05,-0.09871341717489046
244,0.2339,52.4914,729.077,0.190275,195.256,0.0784834,0.0223434,-0.0832519,0.189086,-0.104336,0.157205,3.99379e-06,-1.20345e-05,0.206418,-0.07988066003651029,0.17023548758797613,3.993797975221369e-06,0.20814484847227877,-1.2034427585683183e-05,-0.09907746341206036
245,0.2349,52.2648,729.213,-0.142632,195.506,-0.0219909,-0.0483709,-0.0835754,0.189814,-0.104742,0.157814,2.65983e-06,-1.31072e-05,0.207227,-0.0801782705019003,0.17094837805303076,2.6598335374217186e-06,0.20902469814838986,-1.3107114101074124e-05,-0.09944316371972928
246,0.2359,52.5762,730.145,0.201475,195.535,0.0818805,0.0248813,-0.0838979,0.190543,-0.105145,0.158419,4.22021e-06,-1.20695e-05,0.208033,-0.08047486518120073,0.1716570161631661,4.220218905004458e-06,0.20990639849406834,-1.2069427163918789e-05,-0.09980601500530528
247,0.2369,52.3313,730.25,-0.154084,195.792,-0.0255164,-0.0506735,-0.0842209,0.19127,-0.10555,0.159027,2.78823e-06,-1.32128e-05,0.20884,-0.08077182383834225,0.17236960023259917,2.788233887107694e-06,0.2107863202585798,-1.3212712711374586e-05,-0.10017051975203461
248,0.2379,52.6605,731.206,0.212716,195.812,0.0852956,0.0274281,-0.0845428,0.191997,-0.105952,0.159631,4.44595e-06,-1.21033e-05,0.209644,-0.08106767576832596,0.17307792536379507,4.445959883359052e-06,0.21166688195880212,-1.2103226755377783e-05,-0.10053217850481455
249,0.2389,52.3972,731.28,-0.165528,196.075,-0.0290443,-0.0529771,-0.0848653,0.192723,-0.106357,0.160238,2.91574e-06,-1.33175e-05,0.21045,-0.08136398366067488,0.1737901998179181,2.9157442507088405e-06,0.2125468715126606,-1.3317411322488759e-05,-0.10089638921487298
250,0.2399,52.7441,732.258,0.223911,196.087,0.0887023,0.0299651,-0.0851867,0.19345,-0.106759,0.16084,4.67067e-06,-1.21364e-05,0.211253,-0.08165918583479581,0.17449703425402707,4.670680907592484e-06,0.21342871359900872,-1.2136326354217353e-05,-0.10125775622677269
251,0.2409,52.4626,732.301,-0.176875,196.357,-0.0325478,-0.0552628,-0.0855087,0.194174,-0.107162,0.161447,3.04275e-06,-1.34211e-05,0.212058,-0.0819548439734421,0.17521017036873388,3.0427546291456053e-06,0.21430755408952296,-1.3421009937397699e-05,-0.10161987637890169
252,0.2419,52.827,733.302,0.234969,196.36,0.0920729,0.032473,-0.0858295,0.1949,-0.107564,0.162049,4.89398e-06,-1.21689e-05,0.21286,-0.08224930562532107,0.17591785988446773,4.893991975452039e-06,0.21518946146743412,-1.2168825959224527e-05,-0.1019809526074128
253,0.2429,52.5277,733.315,-0.188033,196.636,-0.0359989,-0.0575109,-0.0861511,0.195623,-0.107967,0.162655,3.16966e-06,-1.35232e-05,0.213663,-0.08254440679382069,0.17663068207086563,3.169665023339263e-06,0.21606836113201844,-1.352310856195249e-05,-0.10234278137011932
254,0.2439,52.9092,734.338,0.245796,196.63,0.0953786,0.0349316,-0.0864714,0.196347,-0.108367,0.163255,5.11548e-06,-1.22013e-05,0.214464,-0.08283822076350544,0.17733687231599604,5.115493084018041e-06,0.21694911341933354,-1.2201225564445473e-05,-0.1027017724545678
255,0.2449,52.5923,734.321,-0.198906,196.913,-0.0393688,-0.0597011,-0.0867924,0.19707,-0.10877,0.16386,3.29689e-06,-1.36236e-05,0.215266,-0.08313258244706256,0.17804937663457077,3.2968954346568324e-06,0.21782928577230032,-1.3623507199134188e-05,-0.10306331078540187
256,0.2459,52.9906,735.366,0.256296,196.899,0.09859,0.0373205,-0.0871122,0.197793,-0.10917,0.164459,5.33478e-06,-1.22338e-05,0.216065,-0.08342574976724293,0.17875523959602635,5.334794229927553e-06,0.2187100947199796,-1.2233725167343223e-05,-0.10342201371571891
257,0.2469,52.6568,735.32,-0.2094,197.188,-0.0426283,-0.061813,-0.0874328,0.198514,-0.109572,0.165063,3.42486e-06,-1.3722e-05,0.216866,-0.08371955637215223,0.1794674228184241,3.424865864909421e-06,0.2195891015421534,-1.3721905853802951e-05,-0.10378236563061749
258,0.2479,53.0711,736.385,0.266372,197.166,0.101677,0.0396192,-0.087752,0.199236,-0.109971,0.165661,5.55145e-06,-1.22667e-05,0.217664,-0.08401198641544039,0.18017295527044763,5.551465409370238e-06,0.22046996282612552,-1.2266624764389888e-05,-0.10413988513684624
259,0.2489,52.721,736.312,-0.21942,197.46,-0.0457486,-0.0638262,-0.0880721,0.199956,-0.110372,0.166265,3.55398e-06,-1.38181e-05,0.218464,-0.08430514725569305,0.1808859950517676,3.55398631546322e-06,0.22134901762111125,-1.3818004530485872e-05,-0.1044990530249319
260,0.2499,53.1507,737.397,0.275928,197.431,0.104611,0.0418074,-0.0883907,0.200676,-0.11077,0.166861,5.7651e-06,-1.23003e-05,0.219261,-0.08459684116647004,0.18159001288129173,5.765116618317023e-06,0.2222287055634553,-1.2300224351613487e-05,-0.1048553914857705
261,0.2509,52.7852,737.298,-0.228872,197.731,-0.048701,-0.0657206,-0.0887104,0.201395,-0.111171,0.167464,3.68466e-06,-1.39115e-05,0.220059,-0.08488944878052973,0.18230272652062562,3.6846667883505546e-06,0.2231078040007719,-1.3911403235478126e-05,-0.10521427251332971
262,0.2519,53.2292,738.401,0.284873,197.694,0.107364,0.0438651,-0.0890285,0.202115,-0.111569,0.16806,5.97532e-06,-1.2335e-05,0.220855,-0.08518049915285675,0.1830075889737781,5.9753378522930944e-06,0.223988758725296,-1.2334923924162133e-05,-0.1055703263734512
263,0.2529,52.8494,738.277,-0.237668,197.999,-0.051458,-0.067477,-0.0893476,0.202832,-0.111969,0.168662,3.8173e-06,-1.40022e-05,0.221652,-0.08547237148486986,0.18371997394870365,3.817307285824967e-06,0.22486667336008814,-1.400210196966789e-05,-0.10592802669806756
264,0.2539,53.3067,739.396,0.293117,197.956,0.109906,0.0457737,-0.0896652,0.203551,-0.112366,0.169256,6.18175e-06,-1.2371e-05,0.222446,-0.08576277934047771,0.18442331248409394,6.181769107049817e-06,0.22574766917827738,-1.2370923479498863e-05,-0.10628290282389641
265,0.2549,52.9136,739.249,-0.245722,198.265,-0.0539934,-0.0690771,-0.0899839,0.204267,-0.112766,0.169857,3.95226e-06,-1.40896e-05,0.223242,-0.08605410031823824,0.18513536484519855,3.952267810136689e-06,0.22662561877785836,-1.4089500741998329e-05,-0.10664031817493114
266,0.2559,53.383,740.384,0.300578,198.216,0.112214,0.0475152,-0.0903009,0.204985,-0.113162,0.170451,6.38402e-06,-1.24086e-05,0.224035,-0.08634377525253456,0.18583954437253114,6.3840403778936405e-06,0.2275066522252991,-1.2408523013651696e-05,-0.10699401857163315
267,0.2569,52.978,740.216,-0.252956,198.529,-0.0562829,-0.0705039,-0.0906191,0.2057,-0.113561,0.171051,4.08989e-06,-1.41738e-05,0.224829,-0.08663445441374196,0.18655126159296942,4.089898363535127e-06,0.2283846333224786,-1.4173699552144647e-05,-0.10735025688395361
268,0.2579,53.4581,741.363,0.30718,198.474,0.114262,0.0490735,-0.0909357,0.206416,-0.113957,0.171644,6.58179e-06,-1.2448e-05,0.225621,-0.08692358017445156,0.18725509515712058,6.581811660133496e-06,0.22926447166447605,-1.2447922523972643e-05,-0.10770367620058441
269,0.2589,53.0426,741.176,-0.2593,198.791,-0.0583044,-0.0717421,-0.0912533,0.20713,-0.114355,0.172243,4.2305e-06,-1.42543e-05,0.226414,-0.08721352719936337,0.18796647399581157,4.230508948488421e-06,0.23014247990888737,-1.425419840794806e-05,-0.10805873947517797
270,0.2599,53.532,742.334,0.312854,198.731,0.11603,0.050434,-0.0915694,0.207845,-0.11475,0.172835,6.77479e-06,-1.24895e-05,0.227205,-0.08750201340576869,0.18866995835924305,6.774812948862063e-06,0.23102234629677176,-1.2489422006489725e-05,-0.10841098669967852
271,0.2609,53.1075,742.13,-0.264691,199.051,-0.0600386,-0.0727781,-0.0918866,0.208558,-0.115148,0.173433,4.37436e-06,-1.43311e-05,0.227997,-0.08779141186609407,0.18938099557327992,4.3743695674614e-06,0.23190037821086174,-1.4330997310296745e-05,-0.10876576852070641
272,0.2619,53.6047,743.297,0.317543,198.986,0.117499,0.0515842,-0.0922021,0.209272,-0.115543,0.174024,6.96274e-06,-1.25332e-05,0.228786,-0.08807916827968909,0.19008412749668113,6.962764239837327e-06,0.23278026916459438,-1.2533121459767926e-05,-0.10911773652388379
273,0.2629,53.1727,743.079,-0.269078,199.308,-0.0614687,-0.0736005,-0.0925188,0.209984,-0.11594,0.174621,4.52171e-06,-1.44039e-05,0.229577,-0.0883679278795988,0.19079481984135338,4.521720222916414e-06,0.23365832126569397,-1.4403796264383928e-05,-0.10947134658624214
274,0.2639,53.676,744.253,0.321198,199.24,0.118653,0.0525138,-0.0928338,0.210697,-0.116334,0.175211,7.14544e-06,-1.25794e-05,0.230365,-0.08865504675871905,0.1914975960836649,7.145465528823891e-06,0.23453823330012002,-1.2579320879724243e-05,-0.10982214576371108
275,0.2649,53.2382,744.023,-0.272418,199.563,-0.0625816,-0.0742002,-0.09315,0.211408,-0.11673,0.175807,4.67272e-06,-1.44726e-05,0.231155,-0.08894316847848949,0.1922079403124839,4.672730917087975e-06,0.2354163021004647,-1.4472495272421781e-05,-0.11017458640613575
276,0.2659,53.7459,745.2,0.323783,199.492,0.119482,0.0532147,-0.0934646,0.212119,-0.117123,0.176396,7.32272e-06,-1.26281e-05,0.231942,-0.0892297418773269,0.19291035763092124,7.3227468111447536e-06,0.2362949954297202,-1.2628020265914586e-05,-0.11052421908635646
277,0.2669,53.3041,744.961,-0.274682,199.817,-0.0633672,-0.0745703,-0.0937803,0.212829,-0.11752,0.176992,4.82754e-06,-1.45372e-05,0.23273,-0.08951722666595463,0.19362154411658983,4.827551652653028e-06,0.23717307655838926,-1.4537094335409506e-05,-0.11087727088596
278,0.2679,53.8146,746.14,0.325272,199.743,0.119975,0.0536815,-0.0940943,0.21354,-0.117912,0.177579,7.49447e-06,-1.26794e-05,0.233516,-0.0898030733764994,0.19432240564572045,7.494498083682188e-06,0.2380530193984327,-1.2679319616792917e-05,-0.11122573869162045
279,0.2689,53.3704,745.894,-0.275851,200.068,-0.0638191,-0.0747068,-0.0944095,0.214248,-0.118307,0.178174,4.98625e-06,-1.45975e-05,0.234303,-0.09008992223801571,0.19503323892901037,4.98626243139455e-06,0.238929871305114,-1.459739345699429e-05,-0.11157673519846356
280,0.2699,53.8819,747.071,0.325652,199.993,0.120129,0.0539114,-0.0947231,0.214958,-0.118699,0.178761,7.66063e-06,-1.27334e-05,0.235087,-0.09037522530054343,0.1957349293662567,7.660659342656473e-06,0.23980982385993221,-1.2733318930591153e-05,-0.11192492886784777
281,0.2709,53.4371,746.822,-0.275918,200.317,-0.0639346,-0.074608,-0.0950378,0.215665,-0.119094,0.179355,5.14888e-06,-1.46536e-05,0.235873,-0.09066143917902547,0.19644540690523926,5.148893255535469e-06,0.2406866793372877,-1.4653492636518273e-05,-0.1122756492491096
282,0.2719,53.9478,747.995,0.324923,200.241,0.119943,0.0539039,-0.0953508,0.216373,-0.119485,0.17994,7.82117e-06,-1.27902e-05,0.236656,-0.09094601760971466,0.1971455322349709,7.82120058540059e-06,0.24156539653544096,-1.2790118205763257e-05,-0.1126226816210033
283,0.2729,53.5042,747.745,-0.27489,200.564,-0.0637147,-0.0742747,-0.0956651,0.217079,-0.11988,0.180533,5.31541e-06,-1.47055e-05,0.237441,-0.0912316883808666,0.1978556500647135,5.315424126850488e-06,0.2424422511986697,-1.4705391874647589e-05,-0.11297312644435387
284,0.2739,54.0124,748.911,0.323097,200.488,0.11942,0.0536616,-0.0959776,0.217787,-0.12027,0.181118,7.97616e-06,-1.28495e-05,0.238223,-0.09151563410941677,0.1985566006280508,7.976191809699884e-06,0.24332221178180724,-1.2849417445504052e-05,-0.11331899947541557
285,0.2749,53.5717,748.662,-0.272783,200.808,-0.063164,-0.0737106,-0.0962914,0.218492,-0.120664,0.18171,5.48578e-06,-1.47532e-05,0.239006,-0.0918006717786839,0.19926635620254407,5.485795046888953e-06,0.24419906299484784,-1.4753091172048372e-05,-0.11366828297625409
286,0.2759,54.0758,749.82,0.320196,200.733,0.118565,0.0531891,-0.0966034,0.219198,-0.121054,0.182294,8.12568e-06,-1.29116e-05,0.239787,-0.09208398576980814,0.19996693230287632,8.12571301334053e-06,0.24507777768310857,-1.2911516645619514e-05,-0.11401388494912812
287,0.2769,53.6396,749.575,-0.269626,201.051,-0.0622905,-0.0729215,-0.0969167,0.219902,-0.121447,0.182885,5.65988e-06,-1.47968e-05,0.240569,-0.09236839130261332,0.20067632236398247,5.6598960171960755e-06,0.2459546210512482,-1.4796690527840717e-05,-0.11436200908147054
288,0.2779,54.1378,750.722,0.316256,200.977,0.11739,0.0524938,-0.0972283,0.220607,-0.121836,0.183468,8.26987e-06,-1.29761e-05,0.241349,-0.09265116525341399,0.201376520747917,8.269904195445932e-06,0.24683332876716424,-1.2976015810739483e-05,-0.11470645526081247
289,0.2789,53.7079,750.483,-0.26546,201.292,-0.0611056,-0.0719158,-0.097541,0.22131,-0.122228,0.184059,5.83752e-06,-1.48365e-05,0.24213,-0.09293484887779291,0.20208674412201377,5.837537038422269e-06,0.2477101607676242,-1.4836389939709704e-05,-0.11505342232036353
290,0.2799,54.1986,751.616,0.311321,201.22,0.115907,0.0515853,-0.0978521,0.222014,-0.122617,0.184641,8.40894e-06,-1.3043e-05,0.242908,-0.09321699295652008,0.20278656223440983,8.408975355145287e-06,0.2485888579859341,-1.304291494041987e-05,-0.11539759959226137
291,0.2809,53.7765,751.386,-0.260333,201.531,-0.059624,-0.0707041,-0.0981644,0.222716,-0.123009,0.18523,6.01852e-06,-1.48723e-05,0.243688,-0.09350013707436444,0.20349521219649258,6.018538111218774e-06,0.2494656750910358,-1.4872189407877379e-05,-0.11574429577632961
292,0.2819,54.2583,752.503,0.305449,201.462,0.114134,0.0504751,-0.098475,0.223419,-0.123397,0.185811,8.54311e-06,-1.31121e-05,0.244465,-0.09378165221022539,0.20419464608064697,8.543146492456799e-06,0.2503443582815785,-1.311201403675355e-05,-0.11608732043848058
293,0.2829,53.8454,752.284,-0.254305,201.768,-0.0578631,-0.0692987,-0.0987868,0.224119,-0.123788,0.186399,6.20262e-06,-1.49046e-05,0.245244,-0.09406416704471465,0.20490292074488692,6.202639236230212e-06,0.25121990573823405,-1.4904488927047765e-05,-0.11643286273826725
294,0.2839,54.3168,753.383,0.298702,201.702,0.112089,0.049177,-0.099097,0.224821,-0.124176,0.18698,8.67266e-06,-1.31832e-05,0.24602,-0.094345144758201,0.20560317274534756,8.672697607625679e-06,0.2520985704873051,-1.3183113102055444e-05,-0.11677562028826016
295,0.2849,53.9145,753.177,-0.247443,202.003,-0.0558427,-0.067714,-0.0994082,0.225521,-0.124566,0.187567,6.38953e-06,-1.49334e-05,0.246797,-0.09462694069942956,0.20631106955513623,6.389550412988498e-06,0.2529753463223867,-1.4933288497331887e-05,-0.11712001063586475
296,0.2859,54.3742,754.256,0.291152,201.941,0.109793,0.047706,-0.0997179,0.226221,-0.124953,0.188147,8.79791e-06,-1.32562e-05,0.247572,-0.09490729132136033,0.2070109329162333,8.797948701788627e-06,0.25385273611541326,-1.3256112136983411e-05,-0.11746161908624997
297,0.2869,53.9839,754.065,-0.239821,202.237,-0.0535851,-0.0659656,-0.100029,0.22692,-0.125343,0.188733,6.57896e-06,-1.4959e-05,0.248348,-0.09518882186868305,0.2077184486047725,6.578981641469639e-06,0.25472948556619257,-1.4958888114757762e-05,-0.11780574194648685
298,0.2879,54.4307,755.123,0.282877,202.179,0.107272,0.0460786,-0.100338,0.227619,-0.12573,0.189312,8.91919e-06,-1.33307e-05,0.249121,-0.09546836533103642,0.2084179200639611,8.91922977608317e-06,0.2556068480790783,-1.3330611146611382e-05,-0.11814708507019889
299,0.2889,54.0533,754.949,-0.231518,202.468,-0.051114,-0.0640705,-0.100648,0.228317,-0.126119,0.189897,6.77057e-06,-1.49818e-05,0.249896,-0.0957487266795295,0.20912505136293702,6.770592920313234e-06,0.2564835675985546,-1.4981687773363284e-05,-0.11849005914132482
300,0.2899,54.4863,755.983,0.273961,202.416,0.104549,0.0443126,-0.100957,0.229015,-0.126505,0.190475,9.03685e-06,-1.34066e-05,0.250669,-0.09602809715802374,0.20982412765621095,9.03689083253667e-06,0.2573608992818759,-1.3406510131930283e-05,-0.11883025631621758
301,0.2909,54.1228,755.827,-0.222618,202.698,-0.048455,-0.0620467,-0.101267,0.229712,-0.126893,0.191059,6.96401e-06,-1.50018e-05,0.251443,-0.09630828501654287,0.2105308712958185,6.964034248824191e-06,0.25823758531826724,-1.500168747359254e-05,-0.11917208385793543
302,0.2919,54.541,756.837,0.264489,202.651,0.101651,0.0424263,-0.101575,0.230409,-0.127279,0.191637,9.15129e-06,-1.34835e-05,0.252214,-0.09658657920525271,0.2112307603878898,9.151331873180624e-06,0.25911488261782645,-1.3483409098014043e-05,-0.11951201782209042
303,0.2929,54.1923,756.701,-0.213207,202.926,-0.0456341,-0.0599126,-0.101884,0.231104,-0.127667,0.19222,7.15891e-06,-1.50195e-05,0.252986,-0.09686569082731189,0.2119371138032098,7.158935624973495e-06,0.25999027162368904,-1.5019387207826362e-05,-0.11985358089165499
304,0.2939,54.5949,757.685,0.254551,202.885,0.0986058,0.0404386,-0.102192,0.231801,-0.128052,0.192796,9.26289e-06,-1.35611e-05,0.253756,-0.09714381336146816,0.21263539066519077,9.262932900711007e-06,0.26086879097143756,-1.3561008048723622e-05,-0.12019237204153055
305,0.2949,54.2618,757.569,-0.203374,203.153,-0.0426784,-0.0576873,-0.102501,0.232495,-0.128439,0.193379,7.35489e-06,-1.50351e-05,0.254528,-0.09742275282477286,0.2133425632187178,7.354917047175391e-06,0.26174413762252646,-1.5034986973416764e-05,-0.12053279171809439
306,0.2959,54.6482,758.527,0.244237,203.117,0.0954406,0.0383686,-0.102808,0.23319,-0.128823,0.193954,9.37205e-06,-1.36393e-05,0.255297,-0.0976998015105065,0.21404043581171117,9.372093917825453e-06,0.2626213545957625,-1.3639206985160968e-05,-0.12087044229301513
307,0.2969,54.3311,758.432,-0.193208,203.378,-0.0396148,-0.0553896,-0.103117,0.233883,-0.12921,0.194535,7.5516e-06,-1.50489e-05,0.256067,-0.09797856920001358,0.21474599825095897,7.55162851340252e-06,0.263496654450867,-1.5048786765836653e-05,-0.12121059960716207
308,0.2979,54.7008,759.363,0.233636,203.348,0.0921829,0.0362355,-0.103424,0.234577,-0.129593,0.195111,9.47916e-06,-1.37177e-05,0.256835,-0.09825544727630986,0.2154458934964314,9.479204927442808e-06,0.2643738254721939,-1.3717605912733077e-05,-0.12154711150137121
309,0.2989,54.4002,759.291,-0.182796,203.601,-0.0364704,-0.0530386,-0.103731,0.23527,-0.129979,0.195691,7.74865e-06,-1.50612e-05,0.257604,-0.09853224036408315,0.21615105659218914,7.748680020958076e-06,0.2652503402105242,-1.5061086580669958e-05,-0.12188612888176797
310,0.2999,54.7529,760.193,0.222835,203.578,0.0888596,0.0340578,-0.104038,0.235963,-0.130363,0.196265,9.58461e-06,-1.37961e-05,0.25837,-0.09880894848942079,0.21684932768330412,9.584655932481922e-06,0.26612746258408926,-1.379600483419896e-05,-0.12222325987498395
311,0.3009,54.4691,760.144,-0.172223,203.823,-0.0332713,-0.0506524,-0.104345,0.236654,-0.130748,0.196844,7.94569e-06,-1.50722e-05,0.259138,-0.09908557167840237,0.2175540874522972,7.945721567148567e-06,0.2670026590062746,-1.5072086414935626e-05,-0.12256113887405129
312,0.3019,54.8045,761.018,0.21192,203.806,0.085497,0.0318539,-0.104651,0.237346,-0.131131,0.197417,9.68878e-06,-1.38742e-05,0.259903,-0.09936120931875903,0.2182519458617478,9.688826936304906e-06,0.2678797282772749,-1.3874103753752642e-05,-0.12289713361076327
313,0.3029,54.5377,760.992,-0.161573,204.044,-0.030043,-0.048249,-0.104958,0.238036,-0.131515,0.197995,8.14237e-06,-1.50822e-05,0.26067,-0.09963766298968846,0.21895629902491054,8.142403149280497e-06,0.268754867177986,-1.5082086264217587e-05,-0.12323387645269313
314,0.3039,54.8557,761.838,0.200972,204.033,0.0821203,0.0296411,-0.105264,0.238727,-0.131897,0.198568,9.79203e-06,-1.39517e-05,0.261434,-0.09991313171594896,0.2196549611318297,9.79207794205017e-06,0.26963187976415814,-1.3951602675477126e-05,-0.12356873714942307
315,0.3049,54.6059,761.835,-0.150924,204.263,-0.0268097,-0.0458451,-0.10557,0.239416,-0.132281,0.199145,8.33837e-06,-1.50915e-05,0.2622,-0.1001885161616749,0.22035890511271083,8.338404764218765e-06,0.2705069575589978,-1.5091386123877726e-05,-0.1239052221451038
316,0.3059,54.9066,762.653,0.190067,204.259,0.0787532,0.0274358,-0.105875,0.240105,-0.132663,0.199717,9.8947e-06,-1.40285e-05,0.262963,-0.1004629168160186,0.22105715008545967,9.894748952632426e-06,0.2713826384901947,-1.4028401601029472e-05,-0.1242398264367558
317,0.3069,54.6736,762.672,-0.140349,204.481,-0.0235942,-0.0434567,-0.106181,0.240793,-0.133046,0.200293,8.53336e-06,-1.51003e-05,0.263727,-0.10073813305324109,0.22176068160153428,8.533396409271532e-06,0.27225765071516617,-1.5100185991046011e-05,-0.12457517835923804
318,0.3079,54.9572,763.463,0.179277,204.483,0.0754178,0.0252533,-0.106486,0.241482,-0.133428,0.200865,9.99712e-06,-1.41042e-05,0.264489,-0.10101236609999431,0.2224597286197978,9.997169971409647e-06,0.27313453828958845,-1.4104100536260766e-05,-0.12490952677649125
319,0.3089,54.7409,763.505,-0.129916,204.697,-0.0204177,-0.0410982,-0.106791,0.242169,-0.13381,0.20144,8.72707e-06,-1.51088e-05,0.265252,-0.10128651551842227,0.22316284509036732,8.727108081085788e-06,0.27400948222622357,-1.5108685862630367e-05,-0.1252437474970408
320,0.3099,55.0075,764.268,0.168667,204.706,0.0721345,0.0231076,-0.107095,0.242857,-0.134191,0.20201,1.00996e-05,-1.41787e-05,0.266013,-0.10155968289415984,0.22386024665263182,1.0099651001072019e-05,0.27488630234152844,-1.4178599482717047e-05,-0.1255769661470607
321,0.3109,54.8077,764.332,-0.119687,204.913,-0.0172994,-0.0387831,-0.1074,0.243543,-0.134573,0.202584,8.91924e-06,-1.51172e-05,0.266775,-0.10183366540642003,0.22456294408908128,8.919279776531397e-06,0.27576117439173853,-1.511708573576076e-05,-0.12591093195446224
322,0.3119,55.0578,765.068,0.158296,204.928,0.0689216,0.0210113,-0.107704,0.244229,-0.134953,0.203154,1.02024e-05,-1.42518e-05,0.267535,-0.10210666647387179,0.2252611439352643,1.0202452044749677e-05,0.27663664681007805,-1.4251698443601413e-05,-0.12624302269908183
323,0.3129,54.8739,765.154,-0.109717,205.126,-0.0142567,-0.0365233,-0.108008,0.244914,-0.135335,0.203727,9.10964e-06,-1.51257e-05,0.268295,-0.10237958456161256,0.2259634197535465,9.109681492924793e-06,0.2775114424964591,-1.5125585607123071e-05,-0.12657673412147108
324,0.3139,55.1078,765.864,0.148215,205.148,0.0657953,0.0189756,-0.108312,0.245599,-0.135714,0.204296,1.03057e-05,-1.43234e-05,0.269054,-0.10265241969486438,0.22666119143660413,1.0305753104011828e-05,0.2783868376231704,-1.4323297420570924e-05,-0.12690769881746755
325,0.3149,54.9395,765.971,-0.100055,205.339,-0.0113049,-0.0343294,-0.108616,0.246284,-0.136095,0.204868,9.29806e-06,-1.51346e-05,0.269813,-0.10292517189884154,0.22736304234833038,9.298103227139976e-06,0.27926283260096896,-1.5134485472523274e-05,-0.1272402836227895
326,0.3159,55.1579,766.655,0.138469,205.366,0.0627698,0.0170103,-0.108919,0.246968,-0.136474,0.205436,1.04097e-05,-1.43932e-05,0.270571,-0.10319694439614369,0.22806038258226247,1.0409754181095465e-05,0.28013814770210566,-1.4393096418374718e-05,-0.12757099688117535
327,0.3169,55.0045,766.782,-0.0907427,205.551,-0.00845707,-0.0322102,-0.109222,0.247651,-0.136854,0.206007,9.48433e-06,-1.51438e-05,0.271329,-0.10346863455885336,0.2287618052978444,9.484374976498344e-06,0.2810127807101581,-1.5143685333285362e-05,-0.12790245692096436
328,0.3179,55.2078,767.442,0.129097,205.583,0.0598572,0.0151236,-0.109525,0.248334,-0.137233,0.206575,1.05147e-05,-1.44612e-05,0.272086,-0.10374024241191426,0.22945994025481187,1.0514755279578125e-05,0.28188801129660446,-1.4461095437345861e-05,-0.12823291926322178
329,0.3189,55.0688,767.588,-0.0818142,205.761,-0.00572437,-0.0301733,-0.109828,0.249016,-0.137612,0.207145,9.6683e-06,-1.51535e-05,0.272843,-0.10401176798026246,0.23016093218447775,9.668346738100908e-06,0.2827625571065322,-1.5153385186317259e-05,-0.12856325638398247
330,0.3199,55.2578,768.225,0.12013,205.799,0.0570674,0.0133223,-0.11013,0.249698,-0.13799,0.207712,1.06208e-05,-1.45274e-05,0.273598,-0.10428231557158985,0.23085863121200867,1.062085640080035e-05,0.28363769956013485,-1.452729447781742e-05,-0.12889259722372914
331,0.3209,55.1325,768.389,-0.0732978,205.97,-0.00311577,-0.0282249,-0.110432,0.250379,-0.138369,0.208281,9.84987e-06,-1.51639e-05,0.274354,-0.104552781469881,0.2315591890629758,9.849918510163036e-06,0.2845121545516651,-1.516378502863791e-05,-0.12922268437391515
332,0.3219,55.3077,769.003,0.111592,206.013,0.0544081,0.0116116,-0.110734,0.25106,-0.138747,0.208847,1.07281e-05,-1.45915e-05,0.275109,-0.10482316569980332,0.2322564488698966,1.0728157546324724e-05,0.2853872052498596,-1.4591393544538533e-05,-0.12955177599698664
333,0.3229,55.1954,769.185,-0.0652149,206.179,-0.000638231,-0.0263695,-0.111036,0.25174,-0.139125,0.209415,1.00289e-05,-1.5175e-05,0.275863,-0.10509346828601707,0.2329565693482476,1.002895028956452e-05,0.28626156579832407,-1.5174884860247317e-05,-0.12988074324693244
334,0.3239,55.3577,769.777,0.103501,206.226,0.0518852,0.00999566,-0.111337,0.25242,-0.139502,0.20998,1.08366e-05,-1.46536e-05,0.276616,-0.10536279461641684,0.23365338664227808,1.0836658716151248e-05,0.2871365211141592,-1.4653492636518273e-05,-0.13020871637990827
335,0.3249,55.2577,769.976,-0.0575808,206.386,0.0017032,-0.0246106,-0.111638,0.253099,-0.13988,0.210548,1.02054e-05,-1.51868e-05,0.27737,-0.10563203989179049,0.2343543008066693,1.0205452075195964e-05,0.28801078359051724,-1.518668468114548e-05,-0.13053743535331663
336,0.3259,55.4077,770.548,0.0958688,206.438,0.0495027,0.00847695,-0.111939,0.253778,-0.140256,0.211112,1.09465e-05,-1.47136e-05,0.278122,-0.10590120413653203,0.23505067299082083,1.0946559913183052e-05,0.2888856398926778,-1.4713491755524721e-05,-0.13086429182475634
337,0.3269,55.3193,770.762,-0.0504047,206.592,0.00390529,-0.0229501,-0.11224,0.254456,-0.140633,0.211678,1.03794e-05,-1.51994e-05,0.278874,-0.10617028737502798,0.23574990953700903,1.0379453866171673e-05,0.2897598006635398,-1.5199284489675335e-05,-0.13119189422980493
338,0.3279,55.4577,771.314,0.088702,206.648,0.0472626,0.00705695,-0.112541,0.255134,-0.141009,0.212242,1.10578e-05,-1.47715e-05,0.279626,-0.1064392896316575,0.23644706906649482,1.1057861137642178e-05,0.29063455431636886,-1.4771390901890946e-05,-0.1315185046709637
339,0.3289,55.3803,771.542,-0.0436906,206.797,0.00596653,-0.021389,-0.112841,0.255811,-0.141386,0.212807,1.05507e-05,-1.52129e-05,0.280377,-0.10670731763855668,0.23714585905009855,1.0550755658922384e-05,0.2915086097440196,-1.521278428440187e-05,-0.13184586048425473
340,0.3299,55.5078,772.076,0.0820013,206.857,0.0451657,0.00573598,-0.113141,0.256488,-0.141761,0.213371,1.11705e-05,-1.48273e-05,0.281127,-0.10697526524911394,0.2378438061171746,1.117056239019476e-05,0.2923832571075424,-1.4827190076172059e-05,-0.1321713572521147
341,0.3309,55.4405,772.318,-0.0374373,207.001,0.00788692,-0.0199271,-0.113441,0.257164,-0.142137,0.213935,1.07194e-05,-1.52271e-05,0.281877,-0.10724313248744444,0.23854214693742426,1.0719457453012282e-05,0.29325720354996365,-1.5226984068306137e-05,-0.13249759948440465
342,0.3319,55.5579,772.835,0.0757631,207.065,0.0432109,0.00451334,-0.113741,0.25784,-0.142512,0.214497,1.12845e-05,-1.4881e-05,0.282626,-0.10751091937765633,0.23923840325370227,1.1284563670166392e-05,0.2941317409799111,-1.4880889278479081e-05,-0.13282285189595933
343,0.3329,55.5,773.088,-0.0316394,207.203,0.00966786,-0.0185633,-0.11404,0.258515,-0.142887,0.215061,1.08855e-05,-1.52422e-05,0.283374,-0.10777773372203014,0.2399375308485867,1.0885559247331145e-05,0.29500557479080536,-1.5242083838296061e-05,-0.133147982360726
344,0.3339,55.6081,773.589,0.0699797,207.271,0.0413961,0.00338744,-0.114339,0.25919,-0.143261,0.215622,1.14e-05,-1.49326e-05,0.284122,-0.10804446830084047,0.24063333095707473,1.1400064980238156e-05,0.2958799986386371,-1.4932488509256103e-05,-0.13347212439698408
345,0.3349,55.5589,773.854,-0.0262876,207.405,0.011312,-0.0172956,-0.114639,0.259864,-0.143636,0.216185,1.10492e-05,-1.5258e-05,0.28487,-0.10831201482636488,0.24133200418046097,1.1049261042561653e-05,0.29675371616745094,-1.5257883597352695e-05,-0.13379701143020917
346,0.3359,55.6583,774.34,0.0646396,207.476,0.039718,0.00235591,-0.114937,0.260538,-0.14401,0.216745,1.15168e-05,-1.49823e-05,0.285617,-0.10857769825714925,0.24202734477999832,1.1516866318617147e-05,0.29762802278037825,-1.4982187765855137e-05,-0.13412091077498134
347,0.3369,55.6171,774.615,-0.0213692,207.606,0.0128229,-0.0161214,-0.115236,0.261211,-0.144384,0.217307,1.12103e-05,-1.52746e-05,0.286363,-0.1088441936823189,0.24272556032795656,1.1210362835578636e-05,0.2985016203723261,-1.527448334393e-05,-0.1344446890040486
348,0.3379,55.7086,775.087,0.0597285,207.679,0.0381724,0.00141573,-0.115534,0.261883,-0.144757,0.217867,1.16348e-05,-1.50299e-05,0.287109,-0.10910971854743168,0.24342168153748678,1.1634867684628958e-05,0.2993745067181801,-1.5029787051590304e-05,-0.1347674809306133
349,0.3389,55.6747,775.371,-0.0168687,207.806,0.0142053,-0.0150373,-0.115832,0.262555,-0.145131,0.218428,1.13691e-05,-1.52919e-05,0.287855,-0.10937516429792338,0.2441194368028814,1.1369164628405315e-05,0.3002479798407933,-1.5291783079462995e-05,-0.1350910173876565
350,0.3399,55.7589,775.831,0.0552293,207.882,0.036754,0.000563322,-0.11613,0.263227,-0.145503,0.218987,1.1754e-05,-1.50757e-05,0.288599,-0.10964053095736648,0.244815093986122,1.1754069078495633e-05,0.3011220401346124,-1.5075586362156557e-05,-0.135412703691826
351,0.3409,55.7317,776.122,-0.0127683,208.005,0.0154643,-0.0140396,-0.116428,0.263898,-0.145876,0.219547,1.15256e-05,-1.53098e-05,0.289343,-0.1099058185493268,0.24551238566220102,1.1525666419931468e-05,0.301995385998312,-1.5309682805608738e-05,-0.1357351346162433
352,0.3419,55.8092,776.57,0.0511231,208.083,0.0354573,-0.000205327,-0.116725,0.264569,-0.146249,0.220105,1.18744e-05,-1.51196e-05,0.290087,-0.110170137267945,0.24620757551333083,1.1874470500883305e-05,0.3028693180737383,-1.5119485699433e-05,-0.13605744529635266
353,0.3429,55.788,776.869,-0.00904837,208.203,0.016606,-0.0131241,-0.117023,0.265239,-0.146621,0.220664,1.16798e-05,-1.53284e-05,0.29083,-0.11043526706073792,0.24690440029242322,1.1679868209046873e-05,0.30374253301118603,-1.5328282520710168e-05,-0.13637877215620098
354,0.3439,55.8595,777.306,0.0473894,208.282,0.034276,-0.000894568,-0.117319,0.265909,-0.146993,0.221222,1.19958e-05,-1.51617e-05,0.291573,-0.1106985392554809,0.24760036710446864,1.199587194999907e-05,0.3046163331986791,-1.5161585061984617e-05,-0.13669997950468793
355,0.3449,55.8438,777.611,-0.00568807,208.399,0.0176365,-0.0122863,-0.117616,0.266578,-0.147364,0.22178,1.18319e-05,-1.53475e-05,0.292315,-0.11096262257100842,0.24829672237436506,1.1831969997100344e-05,0.3054894135383994,-1.534738222774834e-05,-0.13702020440689933
356,0.3459,55.9097,778.038,0.0440066,208.481,0.0332034,-0.00150899,-0.117913,0.267247,-0.147736,0.222337,1.21182e-05,-1.5202e-05,0.293056,-0.11122662746543743,0.24899221732609012,1.2118273425620885e-05,0.3063630781642892,-1.5201884450144476e-05,-0.13734117318696548
357,0.3469,55.899,778.349,-0.00266558,208.595,0.0185626,-0.0115216,-0.118209,0.267915,-0.148107,0.222894,1.1982e-05,-1.5367e-05,0.293797,-0.1114896654521651,0.24968809977641193,1.1982071784544246e-05,0.3072360202306925,-1.5366881928269294e-05,-0.1376611602504425
358,0.3479,55.96,778.767,0.0409524,208.678,0.032233,-0.00205333,-0.118505,0.268582,-0.148477,0.22345,1.22415e-05,-1.52408e-05,0.294537,-0.11175262559117072,0.25038311955748194,1.2241574927518428e-05,0.30810823750831173,-1.5240683859607529e-05,-0.1379801666013356
359,0.3489,55.9537,779.083,4.14311e-05,208.79,0.019391,-0.0108252,-0.118801,0.269249,-0.148848,0.224006,1.21302e-05,-1.5387e-05,0.295277,-0.11201550790549386,0.2510785258769983,1.2130273571164807e-05,0.3089810367489183,-1.538688162072699e-05,-0.1382999166422264
360,0.3499,56.0102,779.492,0.0382043,208.875,0.0313576,-0.00253241,-0.119097,0.269916,-0.149218,0.224561,1.23655e-05,-1.52779e-05,0.296016,-0.1122783124181671,0.25177306717624237,1.2365576453010618e-05,0.30985441834081096,-1.5277783293465852e-05,-0.13861868669697197
361,0.3509,56.0079,779.812,0.00245543,208.984,0.0201286,-0.0101922,-0.119392,0.270582,-0.149588,0.225117,1.22765e-05,-1.54073e-05,0.296755,-0.11254015169281184,0.2524692465215159,1.2276575356517938e-05,0.3107270719448201,-1.5407181308213502e-05,-0.13893733882861448
362,0.3519,56.0603,780.213,0.0357397,209.07,0.0305704,-0.00295104,-0.119688,0.271248,-0.149958,0.225671,1.24902e-05,-1.53136e-05,0.297493,-0.11280280093390538,0.2531633067210126,1.2490278002763588e-05,0.31160030692970797,-1.5313482747414398e-05,-0.13925587308077725
363,0.3529,56.0615,780.536,0.00459877,209.177,0.0207823,-0.00961796,-0.119983,0.271913,-0.150327,0.226226,1.24211e-05,-1.54279e-05,0.298231,-0.11306448550725756,0.2538590053947669,1.24211771421745e-05,0.31247281120933557,-1.5427780990617812e-05,-0.13957342907092707
364,0.3539,56.1104,780.93,0.0335364,209.264,0.0298646,-0.00331397,-0.120277,0.272578,-0.150696,0.22678,1.26155e-05,-1.53479e-05,0.298968,-0.11332520622069553,0.2545538357339885,1.2615579575658842e-05,0.3133458958972737,-1.5347782221564188e-05,-0.1398908679045332
365,0.3549,56.1147,781.257,0.00649336,209.369,0.0213587,-0.0090977,-0.120572,0.273242,-0.151065,0.227333,1.25641e-05,-1.54487e-05,0.299705,-0.11358673670721708,0.2552477958674413,1.2564178928586855e-05,0.31421824716071756,-1.5448580669485956e-05,-0.1402081896248184
366,0.3559,56.1603,781.644,0.0315725,209.456,0.0292335,-0.00362587,-0.120866,0.273906,-0.151434,0.227886,1.27413e-05,-1.53808e-05,0.300441,-0.11384730390137077,0.2559421398669772,1.2741381170799926e-05,0.315091177857751,-1.5380681716137268e-05,-0.14052539427498967
367,0.3569,56.1674,781.973,0.0081605,209.56,0.0218644,-0.00862686,-0.121161,0.274569,-0.151802,0.228439,1.27055e-05,-1.54696e-05,0.301176,-0.114108680391792,0.2566368679449327,1.2705580715310916e-05,0.31596337240921546,-1.5469480346363973e-05,-0.1408416227402901
368,0.3579,56.2102,782.355,0.0298272,209.648,0.0286705,-0.0038912,-0.121455,0.275232,-0.15217,0.228991,1.28676e-05,-1.54124e-05,0.301911,-0.11436909415705754,0.2573307229824102,1.2867682787964796e-05,0.31683614541740446,-1.54122812295876e-05,-0.14115773485492522
369,0.3589,56.2197,782.685,0.00962071,209.75,0.0223058,-0.00820103,-0.121748,0.275894,-0.152538,0.229543,1.28455e-05,-1.54906e-05,0.302645,-0.11462854600091821,0.2580249611335981,1.2845582503695496e-05,0.31770817955712416,-1.5490480021251862e-05,-0.141473730661704
370,0.3599,56.2599,783.062,0.0282803,209.839,0.0281695,-0.00411429,-0.122042,0.276556,-0.152905,0.230095,1.29942e-05,-1.54429e-05,0.303379,-0.11488880694816006,0.25871958261003347,1.2994284424916458e-05,0.3185807911745684,-1.544278075904515e-05,-0.1417887519926011
371,0.3609,56.2715,783.394,0.0108935,209.939,0.0226889,-0.00781602,-0.122335,0.277217,-0.153273,0.230646,1.29842e-05,-1.55117e-05,0.304113,-0.11514810653847929,0.25941332820941243,1.2984284295081139e-05,0.31945266119883287,-1.5511579694149624e-05,-0.14210451562779547
372,0.3619,56.3096,783.765,0.0269128,210.028,0.0277246,-0.00429922,-0.122628,0.277878,-0.15364,0.231197,1.3121e-05,-1.54722e-05,0.304845,-0.1154073301651477,0.26010745616794706,1.312108608075846e-05,0.32032510771969447,-1.547208030616698e-05,-0.14241930550308468
373,0.3629,56.323,784.098,0.0119974,210.128,0.0230193,-0.00746785,-0.122921,0.278538,-0.154006,0.231747,1.31216e-05,-1.55327e-05,0.305578,-0.11566647785041939,0.26080070589503856,1.3121686088579665e-05,0.32119680992087307,-1.5532579368260357e-05,-0.14273312260523774
374,0.3639,56.3591,784.465,0.0257067,210.217,0.0273302,-0.00444984,-0.123214,0.279198,-0.154373,0.232297,1.3248e-05,-1.55004e-05,0.306309,-0.11592554961654211,0.26149433701435343,1.3248087755046711e-05,0.3220690876354031,-1.5500279869407052e-05,-0.14304768182409433
375,0.3649,56.374,784.798,0.0129498,210.315,0.0233025,-0.00715278,-0.123506,0.279857,-0.154739,0.232846,1.32578e-05,-1.55537e-05,0.30704,-0.11618366166986027,0.26218708754799613,1.3257887885087527e-05,0.32294061830196874,-1.555357904181598e-05,-0.14336126898259616
376,0.3659,56.4084,785.161,0.0246451,210.404,0.0269811,-0.00456977,-0.123798,0.280516,-0.155105,0.233395,1.33751e-05,-1.55276e-05,0.307771,-0.1164416983654617,0.2628802185060988,1.3375189447106806e-05,0.32381272349652956,-1.5527479447441372e-05,-0.14367474138919878
377,0.3669,56.4247,785.495,0.0137667,210.501,0.0235435,-0.00686735,-0.12409,0.281174,-0.155471,0.233944,1.33929e-05,-1.55745e-05,0.308501,-0.11669965972534757,0.2635737300975718,1.3392989685279133e-05,0.3246840789130836,-1.557437871813061e-05,-0.14398809908589383
378,0.3679,56.4575,785.853,0.0237125,210.59,0.0266724,-0.00466235,-0.124382,0.281832,-0.155836,0.234492,1.35023e-05,-1.55538e-05,0.309231,-0.11695754577151263,0.2642663582644498,1.3502391156494653e-05,0.3255560078701758,-1.555367904026994e-05,-0.1443004864155717
379,0.3689,56.4751,786.188,0.0144634,210.686,0.0237469,-0.00660831,-0.124674,0.28249,-0.156201,0.23504,1.3527e-05,-1.55952e-05,0.30996,-0.11721535652594539,0.26495936609558157,1.352709149027298e-05,0.3264285107453202,-1.559507839554719e-05,-0.14461275974468057
380,0.3699,56.5065,786.543,0.0228944,210.776,0.0263996,-0.00473068,-0.124965,0.283147,-0.156566,0.235588,1.36295e-05,-1.55791e-05,0.310688,-0.11747220948327852,0.2656527537990805,1.3629592882091757e-05,0.32730026061535455,-1.5578978646457742e-05,-0.14492491911482308
381,0.3709,56.525,786.877,0.0150534,210.871,0.0239171,-0.00637269,-0.125256,0.283803,-0.15693,0.236135,1.36601e-05,-1.56157e-05,0.311416,-0.11772898770727525,0.26634525523728514,1.3660193299624979e-05,0.32817125524132074,-1.5615578075611758e-05,-0.14523610980412383
382,0.3719,56.5554,787.228,0.0221776,210.96,0.0261587,-0.00477761,-0.125547,0.284459,-0.157295,0.236681,1.37566e-05,-1.56035e-05,0.312144,-0.11798569121967983,0.2670368685398945,1.3756694622557575e-05,0.3290428214272123,-1.5603378266004775e-05,-0.1455480416930125
383,0.3729,56.5747,787.562,0.0155495,211.054,0.0240579,-0.00615779,-0.125838,0.285115,-0.157659,0.237228,1.37923e-05,-1.56359e-05,0.312871,-0.11824232004223034,0.2677301272959698,1.3792395114231581e-05,0.32991495954809613,-1.5635777759981373e-05,-0.14585900560697052
384,0.3739,56.604,787.911,0.0215501,211.144,0.0259459,-0.00480572,-0.126129,0.28577,-0.158023,0.237774,1.38836e-05,-1.56271e-05,0.313597,-0.11849887419665805,0.26842249694518716,1.3883696377670063e-05,0.33078633919228007,-1.5626977897476024e-05,-0.14616985635066204
385,0.3749,56.624,788.244,0.015963,211.237,0.024173,-0.00596112,-0.126419,0.286424,-0.158386,0.238319,1.39236e-05,-1.56558e-05,0.314323,-0.11875447245960158,0.2691139756168446,1.3923696933870744e-05,0.3316569581194695,-1.5655677448656036e-05,-0.14647974044544076
386,0.3759,56.6524,788.589,0.0210009,211.326,0.0257577,-0.00481735,-0.126709,0.287078,-0.158749,0.238864,1.40104e-05,-1.56498e-05,0.315049,-0.11900999660979572,0.2698058312470901,1.4010498146088679e-05,0.33252814661766683,-1.564967754252855e-05,-0.14678951207270718
387,0.3769,56.6731,788.922,0.0163045,211.418,0.0242655,-0.00578046,-0.126999,0.287732,-0.159112,0.239409,1.40542e-05,-1.56754e-05,0.315773,-0.11926544666873007,0.27049806404142207,1.405429876077946e-05,0.33339990505949313,-1.5675277141524724e-05,-0.14709917127327965
388,0.3779,56.7007,789.265,0.0205201,211.508,0.0255911,-0.00481465,-0.127289,0.288385,-0.159475,0.239953,1.41371e-05,-1.56719e-05,0.316498,-0.11952082265788799,0.2711894030154123,1.413719992937601e-05,0.3342708995462469,-1.5671777196413217e-05,-0.14740871808796152
389,0.3789,56.7218,789.597,0.0165831,211.599,0.0243384,-0.00561377,-0.127578,0.289037,-0.159837,0.240497,1.41839e-05,-1.56947e-05,0.317221,-0.11977524437443099,0.27188111818011884,1.4184000592054602e-05,0.3351411278363454,-1.5694576838809482e-05,-0.14771730027526797
390,0.3799,56.7487,789.937,0.020099,211.688,0.0254434,-0.00479949,-0.127867,0.28969,-0.1602,0.241041,1.42635e-05,-1.56932e-05,0.317945,-0.1200295925737217,0.27257320974024535,1.4263601724184838e-05,0.33601325971289,-1.5693076862333122e-05,-0.14802662274984224
391,0.3809,56.7702,790.268,0.0168073,211.779,0.0243942,-0.00545928,-0.128157,0.290341,-0.160562,0.241584,1.43129e-05,-1.57137e-05,0.318668,-0.12028474699269642,0.27326440463556523,1.4313002429933164e-05,0.3368832875082839,-1.571357654051031e-05,-0.14833498129614253
392,0.3819,56.7966,790.606,0.0197297,211.868,0.025312,-0.00477359,-0.128445,0.290993,-0.160923,0.242126,1.43897e-05,-1.57138e-05,0.31939,-0.12053806850551363,0.2739547009962926,1.4389803532299794e-05,0.33775521963072275,-1.571367653885325e-05,-0.14864237687965354
393,0.3829,56.8184,790.936,0.0169845,211.958,0.0244354,-0.00531536,-0.128734,0.291643,-0.161285,0.242669,1.44412e-05,-1.57322e-05,0.320111,-0.12079219628048332,0.2746466462450672,1.444130427463719e-05,0.3386250431855129,-1.5732076249608262e-05,-0.1489505125632994
394,0.3839,56.8442,791.271,0.019405,212.046,0.0251947,-0.00473845,-0.129022,0.292294,-0.161646,0.243211,1.45155e-05,-1.57337e-05,0.320833,-0.12104537166894869,0.2753376919838102,1.4515605350373662e-05,0.33949677180550597,-1.57335762259736e-05,-0.14925768598012634
395,0.3849,56.8663,791.6,0.0171213,212.136,0.0244639,-0.0051806,-0.129311,0.292943,-0.162007,0.243752,1.45689e-05,-1.57504e-05,0.321553,-0.12129935285448734,0.2760278363423896,1.4569006126841089e-05,0.3403663873701348,-1.5750275963122284e-05,-0.149564748527363
396,0.3859,56.8916,791.933,0.0191189,212.224,0.0250897,-0.00469541,-0.129599,0.293593,-0.162367,0.244293,1.46411e-05,-1.5753e-05,0.322274,-0.12155238220289011,0.2767183541700815,1.4641207181531612e-05,0.3412379087356845,-1.5752875922148135e-05,-0.1498708501163013
397,0.3869,56.9139,792.261,0.0172234,212.313,0.0244816,-0.00505374,-0.129887,0.294242,-0.162728,0.244834,1.4696e-05,-1.57682e-05,0.322993,-0.12180533868933319,0.27740924566898695,1.4696107986766904e-05,0.34210865466494456,-1.5768075682598415e-05,-0.15017769135123404
398,0.3879,56.9389,792.592,0.0188658,212.401,0.0249952,-0.00464563,-0.130174,0.29489,-0.163088,0.245375,1.47663e-05,-1.57717e-05,0.323712,-0.1220573443925812,0.2781005110413173,1.476640902242643e-05,0.34297862291243786,-1.5771575627376855e-05,-0.1504835723204696
399,0.3889,56.9612,792.918,0.017296,212.49,0.0244901,-0.00493369,-0.130462,0.295538,-0.163448,0.245915,1.48224e-05,-1.57855e-05,0.324431,-0.12231015547085344,0.2787908716978811,1.4822509852407961e-05,0.3438491550820464,-1.5785375409693714e-05,-0.15078934319237502
400,0.3899,56.9859,793.247,0.018641,212.577,0.0249097,-0.00459015,-0.130749,0.296185,-0.163807,0.246454,1.48912e-05,-1.57897e-05,0.325149,-0.12256201631247365,0.27948032576890647,1.4891310874398656e-05,0.34471890681973094,-1.578957534331682e-05,-0.15109415510115765
401,0.3909,57.0083,793.572,0.0173435,212.665,0.0244908,-0.00481947,-0.131036,0.296832,-0.164167,0.246993,1.49483e-05,-1.58024e-05,0.325867,-0.12281380488040428,0.2801701515558448,1.4948411726445343e-05,0.3455892214688723,-1.580227514275112e-05,-0.15139970620282295
402,0.3919,57.0326,793.9,0.0184404,212.752,0.0248319,-0.00452985,-0.131323,0.297479,-0.164526,0.247532,1.50158e-05,-1.58072e-05,0.326584,-0.1230655211953845,0.28086034925910464,1.5015912737670334e-05,0.34646009939379163,-1.5807075066875953e-05,-0.15170429903061222
403,0.3929,57.0552,794.223,0.0173697,212.84,0.0244849,-0.00471025,-0.131609,0.298125,-0.164885,0.248071,1.50736e-05,-1.58189e-05,0.3273,-0.1233162885948752,0.28155091907920315,1.5073713607316463e-05,0.34733019362817896,-1.581877488188166e-05,-0.15200878252920202
404,0.3939,57.0792,794.549,0.0182603,212.926,0.0247606,-0.00446553,-0.131895,0.298771,-0.165243,0.248609,1.51399e-05,-1.58241e-05,0.328016,-0.12356698428514457,0.2822405789755451,1.5140014608894248e-05,0.3482008501250331,-1.5823974799600293e-05,-0.15231230905056747
405,0.3949,57.1018,794.871,0.0173781,213.013,0.0244734,-0.0046053,-0.132182,0.299416,-0.165601,0.249146,1.51983e-05,-1.58349e-05,0.328732,-0.12381848446865207,0.2829293270787694,1.5198415494799278e-05,0.3490707201762979,-1.5834774628631365e-05,-0.15261572692888659
406,0.3959,57.1256,795.195,0.0180977,213.1,0.024695,-0.00439784,-0.132468,0.30006,-0.165959,0.249684,1.52637e-05,-1.58404e-05,0.329447,-0.1240690365514383,0.2836197287581368,1.526381649075148e-05,0.3499398015342521,-1.584027454148984e-05,-0.15291903620304648
407,0.3969,57.1481,795.516,0.0173715,213.186,0.0244572,-0.004504,-0.132753,0.300705,-0.166317,0.250221,1.53226e-05,-1.58505e-05,0.330161,-0.12431864130565418,0.28430921766368233,1.532271739157487e-05,0.35081079357097744,-1.5850374381454202e-05,-0.1532222369119206
408,0.3979,57.1717,795.837,0.0179497,213.272,0.0246341,-0.00432737,-0.133039,0.301348,-0.166675,0.250757,1.53871e-05,-1.58562e-05,0.330875,-0.12456905036403854,0.2849977919257669,1.5387218382123535e-05,0.35167964421679065,-1.585607429110958e-05,-0.15352532909436833
409,0.3989,57.1943,796.157,0.0173524,213.358,0.0244372,-0.0044058,-0.133324,0.301992,-0.167032,0.251293,1.54463e-05,-1.58656e-05,0.331589,-0.12481851263462274,0.2856867353625858,1.544641929474011e-05,0.3525504062629503,-1.586547414200723e-05,-0.15382746661712499
410,0.3999,57.2176,796.477,0.0178142,213.444,0.0245772,-0.00425461,-0.133609,0.302635,-0.167389,0.251829,1.55101e-05,-1.58714e-05,0.332302,-0.12506790381859,0.2863760481720701,1.5510220282122233e-05,0.3534203758394223,-1.5871274050005546e-05,-0.15412949629603712
411,0.4009,57.2402,796.795,0.0173229,213.529,0.024414,-0.00431025,-0.133894,0.303277,-0.167746,0.252364,1.55695e-05,-1.58802e-05,0.333014,-0.12531722393619737,0.2870644434871692,1.5569621205191453e-05,0.35428955069598667,-1.588007391029045e-05,-0.15443141816959838
412,0.4019,57.2633,797.114,0.0176891,213.615,0.0245236,-0.00417998,-0.134179,0.303919,-0.168102,0.252899,1.56326e-05,-1.58861e-05,0.333726,-0.12556647300769574,0.28775320719229747,1.5632722189629078e-05,0.3551592837419686,-1.5885973816631704e-05,-0.15473238700909797
413,0.4029,57.2858,797.43,0.0172849,213.7,0.0243881,-0.00421696,-0.134464,0.30456,-0.168459,0.253434,1.56922e-05,-1.58944e-05,0.334438,-0.12581565105333048,0.2884423394845963,1.5692323123150942e-05,0.3560282193069433,-1.5894273684646798e-05,-0.15503409368908894
414,0.4039,57.3088,797.747,0.0175728,213.785,0.024473,-0.00410385,-0.134748,0.305201,-0.168815,0.253968,1.57548e-05,-1.59003e-05,0.335149,-0.126063884157662,0.2891305514301168,1.5754924107547197e-05,0.3568977120381678,-1.590017359087703e-05,-0.15533484801428943
415,0.4049,57.3313,798.062,0.0172398,213.869,0.0243601,-0.00412558,-0.135032,0.305842,-0.169171,0.254502,1.58145e-05,-1.59081e-05,0.335859,-0.1263120467738018,0.28981913097895706,1.581462504995912e-05,0.3577677622929003,-1.590797346684436e-05,-0.15563549529000598
416,0.4059,57.3541,798.378,0.0174638,213.954,0.0244247,-0.00402651,-0.135316,0.306482,-0.169526,0.255036,1.58766e-05,-1.5914e-05,0.336569,-0.12656013892176554,0.2905080783274705,1.5876726033869915e-05,0.35863701179093677,-1.5913873372963572e-05,-0.15593519148995516
417,0.4069,57.3765,798.691,0.0171889,214.038,0.0243304,-0.00403585,-0.1356,0.307122,-0.169881,0.255569,1.59363e-05,-1.59213e-05,0.337279,-0.1268081606215633,0.2911961024753662,1.593642698360931e-05,0.35950681778671223,-1.5921173256772114e-05,-0.1562347813166357
418,0.4079,57.3992,799.005,0.0173611,214.122,0.0243785,-0.00394822,-0.135883,0.307761,-0.170236,0.256101,1.59979e-05,-1.59271e-05,0.337988,-0.12705523894887505,0.29188320155403247,1.5998027967034645e-05,0.3603758202599989,-1.5926973164437364e-05,-0.1565342648078034
419,0.4089,57.4215,799.317,0.0171334,214.206,0.0242992,-0.00394751,-0.136167,0.308399,-0.170591,0.256634,1.60576e-05,-1.59341e-05,0.338696,-0.1273031200602297,0.29257195883797116,1.6057728923879466e-05,0.3612440169586222,-1.593397305288402e-05,-0.15683364200120065
420,0.4099,57.444,799.629,0.0172635,214.29,0.024334,-0.0038692,-0.13645,0.309038,-0.170946,0.257166,1.61188e-05,-1.59398e-05,0.339404,-0.1275500583338388,0.29325979006695735,1.6118929908603974e-05,0.3621141298569226,-1.5939672962095308e-05,-0.15713291293455656
421,0.4109,57.4662,799.94,0.0170741,214.373,0.0242669,-0.00386038,-0.136733,0.309676,-0.1713,0.257697,1.61785e-05,-1.59464e-05,0.340112,-0.12779692673380416,0.2939466933721704,1.6178630872554223e-05,0.3629834359509281,-1.594627285683714e-05,-0.15743123507724321
422,0.4119,57.4887,800.251,0.0171702,214.456,0.024291,-0.00378963,-0.137015,0.310313,-0.171654,0.258229,1.62393e-05,-1.5952e-05,0.340819,-0.12804285332318643,0.2946352561545045,1.6239431858133813e-05,0.36385193298656726,-1.5951872767483444e-05,-0.15772945163258123
423,0.4129,57.5108,800.56,0.0170118,214.539,0.0242338,-0.00377428,-0.137298,0.31095,-0.172008,0.258759,1.62989e-05,-1.59582e-05,0.341525,-0.12828958228190157,0.29532159470391584,1.6299032827848947e-05,0.3647209834310601,-1.5958072668631473e-05,-0.15802756263794215
424,0.4139,57.5331,800.87,0.0170806,214.622,0.0242492,-0.00370966,-0.13758,0.311586,-0.172361,0.25929,1.63594e-05,-1.59636e-05,0.342231,-0.12853536996200632,0.29600959311811703,1.635953381562416e-05,0.3655892220471355,-1.5963472582369853e-05,-0.1583247264558314
425,0.4149,57.5552,801.178,0.0169471,214.705,0.0242,-0.00368907,-0.137862,0.312222,-0.172714,0.25982,1.64189e-05,-1.59696e-05,0.342937,-0.12878108833975743,0.29669666025917873,1.6419034790882137e-05,0.3664580130386077,-1.596947248660996e-05,-0.15862178539340532
426,0.4159,57.5773,801.485,0.016994,214.787,0.0242084,-0.00362941,-0.138144,0.312858,-0.173067,0.26035,1.64791e-05,-1.59748e-05,0.343642,-0.12902673743469528,0.29738409164234114,1.647923578107502e-05,0.36732735675689887,-1.5974672403551438e-05,-0.1589187394876802
427,0.4169,57.5993,801.792,0.0168806,214.87,0.0241656,-0.00360465,-0.138426,0.313493,-0.17342,0.260879,1.65385e-05,-1.59805e-05,0.344346,-0.12927231726635502,0.29807058938946485,1.653863676165379e-05,0.3681958853570857,-1.598037231254068e-05,-0.15921558877565922
428,0.4179,57.6213,802.098,0.01691,214.952,0.0241685,-0.00354898,-0.138708,0.314128,-0.173773,0.261408,1.65984e-05,-1.59856e-05,0.34505,-0.12951782785426602,0.2987574503899688,1.6598537754264342e-05,0.3690649656480769,-1.5985472231028197e-05,-0.15951233329433245
429,0.4189,57.6432,802.403,0.0168127,215.034,0.0241309,-0.0035209,-0.138989,0.314762,-0.174125,0.261937,1.66576e-05,-1.59909e-05,0.345754,-0.12976239898078634,0.29944467483606485,1.6657738738601324e-05,0.3699332280463945,-1.5990772146201593e-05,-0.1598081328892299
430,0.4199,57.6652,802.708,0.0168281,215.116,0.0241293,-0.00346845,-0.13927,0.315396,-0.174477,0.262465,1.67173e-05,-1.59958e-05,0.346457,-0.13000690139247506,0.3001309627884541,1.671743973474804e-05,0.37080204109761095,-1.5995672067892208e-05,-0.16010382838099313
431,0.4209,57.687,803.012,0.0167437,215.197,0.0240959,-0.00343776,-0.139551,0.316029,-0.174829,0.262993,1.67763e-05,-1.60009e-05,0.347159,-0.1302513351086383,0.30081761319656186,1.6776440722843233e-05,0.3716700334802321,-1.6000771986268703e-05,-0.16039941980626016
432,0.4219,57.7088,803.315,0.016748,215.278,0.0240909,-0.00338791,-0.139832,0.316662,-0.17518,0.26352,1.68357e-05,-1.60056e-05,0.347861,-0.1304957001485767,0.30150332474784003,1.6835841721185574e-05,0.37253857547596536,-1.6005471911051394e-05,-0.16069406789614327
433,0.4229,57.7305,803.617,0.016674,215.36,0.0240608,-0.00335516,-0.140112,0.317294,-0.175531,0.264047,1.68946e-05,-1.60104e-05,0.348563,-0.13073912727114756,0.3021893977643433,1.6894742714601563e-05,0.3734062940258456,-1.6010271834177026e-05,-0.16098861258269526
434,0.4239,57.7522,803.919,0.0166695,215.44,0.024053,-0.00330739,-0.140393,0.317926,-0.175882,0.264574,1.69538e-05,-1.60149e-05,0.349264,-0.13098335526074478,0.3028758324366143,1.695394371648007e-05,0.37427456114717983,-1.6014771762162816e-05,-0.1612830539022042
435,0.4249,57.7738,804.22,0.0166038,215.521,0.0240255,-0.00327305,-0.140673,0.318558,-0.176233,0.2651,1.70125e-05,-1.60195e-05,0.349964,-0.13122664585899846,0.3035613253933187,1.7012644713432223e-05,0.3751433771867745,-1.6019371688491546e-05,-0.16157739189094555
436,0.4259,57.7954,804.521,0.0165924,215.602,0.0240156,-0.00322696,-0.140953,0.319189,-0.176584,0.265626,1.70714e-05,-1.60238e-05,0.350664,-0.13146986834542085,0.30424717901416454,1.707154571728431e-05,0.3760113664796012,-1.6023671619569413e-05,-0.16187162658518217
437,0.4269,57.8169,804.82,0.0165332,215.682,0.0239903,-0.00319137,-0.141233,0.31982,-0.176934,0.266152,1.713e-05,-1.60281e-05,0.351364,-0.13171302273908037,0.30493339348891135,1.7130146719335215e-05,0.3768799036465078,-1.602797155064728e-05,-0.16216492018650308
438,0.4279,57.8384,805.119,0.0165164,215.762,0.0239786,-0.00314664,-0.141512,0.32045,-0.177284,0.266677,1.71886e-05,-1.60322e-05,0.352063,-0.13195524101471556,0.30561866338810173,1.7188747724938835e-05,0.377747611285012,-1.6032071484928245e-05,-0.16245811115302566
439,0.4289,57.8598,805.418,0.0164624,215.843,0.023955,-0.00311011,-0.141792,0.32108,-0.177634,0.267202,1.7247e-05,-1.60362e-05,0.352762,-0.13219825952305253,0.30630429314844454,1.7247148730303863e-05,0.3786158657515608,-1.603607142086627e-05,-0.16275119952066586
440,0.4299,57.8812,805.715,0.0164414,215.922,0.023942,-0.00306647,-0.142071,0.321709,-0.177983,0.267727,1.73054e-05,-1.60401e-05,0.35346,-0.13244034243650882,0.3069902829589164,1.7305549739221604e-05,0.37948328790678754,-1.6039971358239313e-05,-0.16304334836909373
441,0.4309,57.9026,806.012,0.0163915,216.002,0.0239198,-0.00302922,-0.14235,0.322338,-0.178333,0.268251,1.73637e-05,-1.60439e-05,0.354157,-0.13268235781825344,0.3076753253326141,1.7363850749907428e-05,0.38035125584217955,-1.6043771297269416e-05,-0.16333623193954983
442,0.4319,57.9239,806.309,0.0163673,216.082,0.0239058,-0.00298646,-0.142628,0.322966,-0.178682,0.268775,1.74219e-05,-1.60476e-05,0.354855,-0.1329234386109971,0.3083607267625801,1.742205176213929e-05,0.3812183886820615,-1.604747123795658e-05,-0.16362817664728824
443,0.4329,57.9451,806.604,0.0163208,216.161,0.0238846,-0.00294868,-0.142907,0.323594,-0.179031,0.269298,1.74799e-05,-1.60512e-05,0.355551,-0.13316531922770958,0.3090451783911765,1.7480052774354604e-05,0.3820860662523944,-1.605107118018978e-05,-0.16392001948410106
444,0.4339,57.9663,806.899,0.0162941,216.24,0.0238699,-0.00290665,-0.143185,0.324222,-0.179379,0.269821,1.75379e-05,-1.60546e-05,0.356247,-0.13340626577584236,0.30972998808159935,1.7538053789900587e-05,0.3829542888953765,-1.605447112562608e-05,-0.1642109246968778
445,0.4349,57.9874,807.193,0.0162501,216.319,0.0238496,-0.00286847,-0.143464,0.324849,-0.179728,0.270344,1.75957e-05,-1.6058e-05,0.356943,-0.1336480117025659,0.31041515602116454,1.7595854805207978e-05,0.38382167313105553,-1.605787107106238e-05,-0.16450256419010678
446,0.4359,58.0085,807.487,0.0162215,216.398,0.0238342,-0.00282704,-0.143742,0.325476,-0.180076,0.270866,1.76535e-05,-1.60612e-05,0.357638,-0.13388882408084113,0.3110993712972583,1.7653655823846037e-05,0.384689601387183,-1.6061071019590756e-05,-0.16479326671259598
447,0.4369,58.0296,807.78,0.0161796,216.476,0.0238147,-0.00278859,-0.14402,0.326102,-0.180423,0.271388,1.77112e-05,-1.60644e-05,0.358333,-0.13412956952257982,0.31178394382696095,1.771135684425218e-05,0.3855566884475854,-1.6064270968230154e-05,-0.1650830331716585
448,0.4379,58.0506,808.072,0.0161496,216.555,0.0237989,-0.00274764,-0.144297,0.326728,-0.180771,0.27191,1.77688e-05,-1.60674e-05,0.359027,-0.1343693824162029,0.3124688737968082,1.7768957865982316e-05,0.3864243184744185,-1.606727092007265e-05,-0.16537353372608654
449,0.4389,58.0716,808.364,0.0161094,216.633,0.0237799,-0.002709,-0.144575,0.327353,-0.181118,0.272431,1.78262e-05,-1.60703e-05,0.359721,-0.13460999428129228,0.31315284823992706,1.7826358887695903e-05,0.3872911045158871,-1.6070170873461187e-05,-0.16566309886742603
450,0.4399,58.0925,808.655,0.0160783,216.711,0.0237638,-0.00266847,-0.144852,0.327978,-0.181466,0.272952,1.78836e-05,-1.60731e-05,0.360414,-0.13484967411568682,0.3138371791265764,1.7883759912518116e-05,0.3881584324679612,-1.607297082839576e-05,-0.1659533975941121
451,0.4409,58.1133,808.945,0.0160394,216.789,0.0237453,-0.00262972,-0.145129,0.328603,-0.181812,0.273472,1.79409e-05,-1.60758e-05,0.361107,-0.13508928756796146,0.31452055212130237,1.7941060938886366e-05,0.3890263026694407,-1.6075670784987395e-05,-0.1662419277999404
452,0.4419,58.1341,809.235,0.0160075,216.867,0.023729,-0.00258953,-0.145406,0.329227,-0.182159,0.273993,1.79981e-05,-1.60784e-05,0.3618,-0.1353288346565017,0.3152055957673314,1.7998261966800655e-05,0.38989332556531675,-1.607827074323609e-05,-0.16653119166081154
453,0.4429,58.1549,809.524,0.0159697,216.944,0.0237108,-0.00255072,-0.145682,0.329851,-0.182506,0.274512,1.80552e-05,-1.60809e-05,0.362491,-0.13556745096757084,0.3158883646347299,1.8055362996038937e-05,0.39076088965231404,-1.6080770703030822e-05,-0.16682035516453586
454,0.4439,58.1756,809.812,0.0159373,217.022,0.0236944,-0.00251082,-0.145959,0.330474,-0.182852,0.275032,1.81122e-05,-1.60832e-05,0.363183,-0.13580686562319222,0.3165728045232883,1.8112364026823258e-05,0.39162760363994154,-1.6083070666028654e-05,-0.16710858545493312
455,0.4449,58.1963,810.1,0.0159004,217.099,0.0236765,-0.00247199,-0.146235,0.331097,-0.183198,0.275551,1.81691e-05,-1.60855e-05,0.363874,-0.1360453500159201,0.31725628315619914,1.8169265059153616e-05,0.3924948577586165,-1.6085370629026485e-05,-0.16739671603490092
456,0.4459,58.2169,810.387,0.0158676,217.176,0.02366,-0.00243236,-0.146511,0.331719,-0.183543,0.27607,1.82259e-05,-1.60876e-05,0.364564,-0.1362837685960382,0.31794011660658783,1.822606609280797e-05,0.39336125898299024,-1.6087470595227416e-05,-0.1676839146232637
457,0.4469,58.2375,810.674,0.0158314,217.253,0.0236424,-0.00239355,-0.146787,0.332341,-0.183889,0.276588,1.82826e-05,-1.60897e-05,0.365254,-0.13652212138170816,0.3186229864350065,1.8282767127786315e-05,0.3942281992765584,-1.6089570561428346e-05,-0.16797184617377336
458,0.4479,58.2581,810.96,0.0157984,217.329,0.0236258,-0.00235414,-0.147063,0.332963,-0.184234,0.277106,1.83392e-05,-1.60916e-05,0.365943,-0.13676040839108694,0.3193062100816271,1.8339368164088654e-05,0.39509567897472686,-1.6091470530943397e-05,-0.1682588463764617
459,0.4489,58.2786,811.245,0.0157628,217.406,0.0236085,-0.00231537,-0.147338,0.333584,-0.184579,0.277624,1.83957e-05,-1.60935e-05,0.366632,-0.1369977666405242,0.31998978772977527,1.8395869201937032e-05,0.39596230245010866,-1.6093370500347426e-05,-0.16854574758115837
460,0.4499,58.299,811.53,0.0157296,217.482,0.0235919,-0.00227616,-0.147614,0.334204,-0.184924,0.278141,1.84521e-05,-1.60952e-05,0.367321,-0.1372359223899262,0.3206723988898119,1.8452270241109403e-05,0.39682806743704035,-1.6095070472954554e-05,-0.16883254982201157
461,0.4509,58.3194,811.814,0.0156945,217.558,0.0235747,-0.00223746,-0.147889,0.334825,-0.185268,0.278658,1.85085e-05,-1.60968e-05,0.368009,-0.13747314989099246,0.32135536305106127,1.85086712833904e-05,0.3976957670597665,-1.609667044721874e-05,-0.1691184222519958
462,0.4519,58.3398,812.097,0.0156613,217.634,0.0235581,-0.00219843,-0.148164,0.335444,-0.185612,0.279174,1.85647e-05,-1.60983e-05,0.368697,-0.1377103121634654,0.3220373583580527,1.8564872325210757e-05,0.39856120856608923,-1.6098170423028968e-05,-0.16940419635877657
463,0.4529,58.3601,812.38,0.0156266,217.71,0.0235411,-0.00215981,-0.148439,0.336064,-0.185957,0.279691,1.86208e-05,-1.60997e-05,0.369384,-0.13794740922528026,0.32272102838579775,1.8620973368133065e-05,0.3994285853744257,-1.6099570400496255e-05,-0.16969070248588414
464,0.4539,58.3804,812.662,0.0155934,217.786,0.0235246,-0.00212095,-0.148713,0.336683,-0.1863,0.280207,1.86769e-05,-1.6101e-05,0.37007,-0.13818357927837766,0.3234037285579414,1.867707441438604e-05,0.4002950998273278,-1.6100870379620602e-05,-0.16997544973798606
465,0.4549,58.4006,812.943,0.0155591,217.862,0.0235077,-0.00208241,-0.148988,0.337301,-0.186644,0.280722,1.87328e-05,-1.61022e-05,0.370757,-0.13842054620962974,0.3240854570081573,1.8732975459956336e-05,0.40116074965726756,-1.6102070360290988e-05,-0.1702609290780145
466,0.4559,58.4208,813.224,0.0155259,217.937,0.0234912,-0.00204372,-0.149262,0.337919,-0.186987,0.281237,1.87887e-05,-1.61033e-05,0.371442,-0.13865658664095248,0.324767536638946,1.8788876508635255e-05,0.4020269346241425,-1.610317034250741e-05,-0.1705454807759348
467,0.4569,58.4409,813.505,0.015492,218.012,0.0234745,-0.00200528,-0.149536,0.338537,-0.18733,0.281752,1.88445e-05,-1.61043e-05,0.372128,-0.13889256240605663,0.32544996763121237,1.8844677558638168e-05,0.4028936550587694,-1.6104170326491918e-05,-0.17082993488935938
468,0.4579,58.461,813.784,0.0154589,218.087,0.023458,-0.00196674,-0.14981,0.339154,-0.187673,0.282267,1.89002e-05,-1.61052e-05,0.372812,-0.13912847352265845,0.3261327501659541,1.8900378609965074e-05,0.4037595075319602,-1.610507031191144e-05,-0.17111429145175405
469,0.4589,58.4811,814.063,0.0154253,218.162,0.0234414,-0.0019284,-0.150083,0.339771,-0.188016,0.282781,1.89558e-05,-1.6106e-05,0.373497,-0.13936345937235883,0.32681455760904154,1.895597966239393e-05,0.4046258944009711,-1.6105870299099045e-05,-0.17139855049657293
470,0.4599,58.5011,814.342,0.0153923,218.237,0.0234251,-0.00189,-0.150357,0.340387,-0.188358,0.283294,1.90113e-05,-1.61067e-05,0.37418,-0.1395992414808669,0.3274953880951834,1.9011480715924733e-05,0.405491410503513,-1.610657028783269e-05,-0.17168188373955695
471,0.4609,58.5211,814.62,0.0153589,218.311,0.0234086,-0.00185177,-0.15063,0.341003,-0.1887,0.283808,1.90667e-05,-1.61073e-05,0.374864,-0.139834098828456,0.328177896114199,1.906688177077953e-05,0.40635745992822025,-1.610717027811237e-05,-0.17196512009913978
472,0.4619,58.541,814.897,0.0153261,218.386,0.0233923,-0.00181352,-0.150903,0.341619,-0.189042,0.284321,1.9122e-05,-1.61078e-05,0.375547,-0.1400688920687403,0.3288594261724189,1.9122182826514234e-05,0.40722404300372084,-1.6107670270049113e-05,-0.17224825960845003
473,0.4629,58.5609,815.174,0.0152929,218.46,0.0233759,-0.0017754,-0.151176,0.342234,-0.189384,0.284834,1.91772e-05,-1.61082e-05,0.376229,-0.14030362121921858,0.329541305945253,1.917738388357293e-05,0.4080897519683886,-1.6108070263642915e-05,-0.17253130230060476
474,0.4639,58.5807,815.45,0.0152602,218.534,0.0233597,-0.00173728,-0.151449,0.342849,-0.189725,0.285346,1.92324e-05,-1.61084e-05,0.376911,-0.14053828629738518,0.33022220538928027,1.923258494374025e-05,0.40895599350781975,-1.6108270260439816e-05,-0.1728134210225445
475,0.4649,58.6005,815.725,0.0152274,218.608,0.0233434,-0.00169927,-0.151721,0.343463,-0.190067,0.285858,1.92874e-05,-1.61086e-05,0.377593,-0.1407720280931869,0.3309034535430848,1.9287586003002843e-05,0.40982135812758536,-1.6108470257236718e-05,-0.1730962704625436
476,0.4659,58.6203,816.0,0.0151948,218.682,0.0233272,-0.00166128,-0.151993,0.344077,-0.190407,0.28637,1.93424e-05,-1.61087e-05,0.378274,-0.1410057063198661,0.331585050585252,1.9342587065374062e-05,0.41068725424438024,-1.6108570255579657e-05,-0.17337736994096709
477,0.4669,58.64,816.275,0.0151622,218.755,0.0233111,-0.0016234,-0.152266,0.344691,-0.190748,0.286881,1.93972e-05,-1.61087e-05,0.378954,-0.14124017975496062,0.33226566442812766,1.9397388126840553e-05,0.41155368218464394,-1.6108570255579657e-05,-0.1736592002030265
478,0.4679,58.6596,816.548,0.0151298,218.829,0.023295,-0.00158554,-0.152538,0.345304,-0.191089,0.287392,1.9452e-05,-1.61086e-05,0.379634,-0.141473730661704,0.3329466261535534,1.945218919141567e-05,0.41241922985508017,-1.6108470257236718e-05,-0.1739409343773506
479,0.4689,58.6793,816.822,0.0150973,218.902,0.0232789,-0.00154777,-0.152809,0.345916,-0.191429,0.287902,1.95067e-05,-1.61084e-05,0.380314,-0.14170635975802848,0.33362660231207375,1.950689025687069e-05,0.4132838949842932,-1.6108270260439816e-05,-0.17422174671885904
480,0.4699,58.6989,817.094,0.0150651,218.975,0.0232629,-0.00151004,-0.153081,0.346528,-0.191769,0.288413,1.95613e-05,-1.6108e-05,0.380993,-0.14193978388105433,0.3343082596544733,1.956149132342766e-05,0.41414908945052575,-1.6107870266846014e-05,-0.17450246360040056
481,0.4709,58.7184,817.366,0.0150329,219.048,0.0232469,-0.00147239,-0.153352,0.34714,-0.192109,0.288923,1.96159e-05,-1.61076e-05,0.381672,-0.14217228669406845,0.33498893042318945,1.9616092393093254e-05,0.41501481357783154,-1.610747027325221e-05,-0.17478308505442586
482,0.4719,58.7379,817.638,0.0150008,219.121,0.023231,-0.00143478,-0.153624,0.347752,-0.192449,0.289432,1.96703e-05,-1.61071e-05,0.38235,-0.14240558410220183,0.33566861275325355,1.9670493461632077e-05,0.41588106769046207,-1.610697028131547e-05,-0.17506361111337498
483,0.4729,58.7574,817.909,0.0149688,219.194,0.0232151,-0.00139725,-0.153895,0.348363,-0.192788,0.289941,1.97246e-05,-1.61065e-05,0.383028,-0.14263796070045898,0.336348641129685,1.972479453127285e-05,0.416746435365724,-1.6106370291035788e-05,-0.17534321715330603
484,0.4739,58.7768,818.179,0.014937,219.266,0.0231993,-0.00135977,-0.154165,0.348973,-0.193127,0.29045,1.97789e-05,-1.61058e-05,0.383705,-0.1428694172030358,0.33702901572866595,1.97790956038002e-05,0.4176109143305753,-1.6105670302302144e-05,-0.1756227284228541
485,0.4749,58.7962,818.449,0.0149051,219.339,0.0231835,-0.00132236,-0.154436,0.349583,-0.193466,0.290959,1.98331e-05,-1.6105e-05,0.384382,-0.14310166811955327,0.337709736726469,1.9833296677207457e-05,0.4184759207884643,-1.610487031522556e-05,-0.1759021449541408
486,0.4759,58.8155,818.718,0.0148734,219.411,0.0231678,-0.001285,-0.154707,0.350193,-0.193805,0.291467,1.98872e-05,-1.61041e-05,0.385059,-0.14333385610459992,0.33838946590932073,1.9887397751716662e-05,0.41934145506125975,-1.6103970329695017e-05,-0.17618146677927693
487,0.4769,58.8348,818.987,0.0148418,219.483,0.023152,-0.00124771,-0.154977,0.350802,-0.194143,0.291975,1.99412e-05,-1.61031e-05,0.385735,-0.14356512474078076,0.33906954048231897,1.9941398827105772e-05,0.4202060972642194,-1.6102970345821532e-05,-0.1764598703906447
488,0.4779,58.8541,819.255,0.0148103,219.555,0.0231364,-0.00121047,-0.155247,0.351411,-0.194481,0.292482,1.99951e-05,-1.6102e-05,0.38641,-0.14379633094285893,0.3397486208716758,1.9995299903374786e-05,0.4210712661946532,-1.6101870363494086e-05,-0.17673817991749308
489,0.4789,58.8733,819.522,0.0147788,219.627,0.0231207,-0.0011733,-0.155517,0.35202,-0.194819,0.29299,2.00489e-05,-1.61008e-05,0.387085,-0.14402747472768918,0.340429386070799,2.0049100980523704e-05,0.42193696217343546,-1.61006703828237e-05,-0.17701639539161707
490,0.4799,58.8925,819.789,0.0147475,219.698,0.0231052,-0.00113619,-0.155787,0.352628,-0.195157,0.293496,2.01026e-05,-1.60995e-05,0.38776,-0.14425855611212202,0.34110781496818676,2.0102802058552527e-05,0.42280176271916226,-1.6099370403699353e-05,-0.17729451684480135
491,0.4809,58.9117,820.056,0.0147163,219.77,0.0230896,-0.00109914,-0.156056,0.353235,-0.195495,0.294003,2.01563e-05,-1.60981e-05,0.388434,-0.14448871960215048,0.3417879290247203,2.0156503139689974e-05,0.42366566555711893,-1.6097970426232067e-05,-0.17757254430881952
492,0.4819,58.9308,820.322,0.0146851,219.841,0.0230741,-0.00106214,-0.156326,0.353843,-0.195832,0.294509,2.02099e-05,-1.60966e-05,0.389108,-0.14471967646727812,0.34246704551879015,2.021010422148528e-05,0.42453151747408735,-1.609647045042184e-05,-0.17784965566550126
493,0.4829,58.9498,820.587,0.014654,219.912,0.0230587,-0.00102521,-0.156595,0.354449,-0.196169,0.295015,2.02634e-05,-1.6095e-05,0.389781,-0.1449497159326132,0.3431465057327596,2.0263605304160492e-05,0.4253950451961499,-1.6094870476157652e-05,-0.17812667365138957
494,0.4839,58.9688,820.852,0.0146231,219.983,0.0230433,-0.00098834,-0.156864,0.355056,-0.196506,0.29552,2.03168e-05,-1.60933e-05,0.390454,-0.14517969352565419,0.34382496601495705,2.0317006387493564e-05,0.4262605226344127,-1.6093170503550525e-05,-0.17840359829794528
495,0.4849,58.9878,821.116,0.0145922,220.054,0.0230279,-0.000951529,-0.157133,0.355662,-0.196842,0.296025,2.03701e-05,-1.60916e-05,0.391126,-0.1454096092630427,0.3445037690061239,2.0370307471928584e-05,0.4271250984511432,-1.6091470530943397e-05,-0.17867960831663732
496,0.4859,59.0068,821.38,0.0145614,220.125,0.0230126,-0.000914775,-0.157401,0.356267,-0.197179,0.29653,2.04233e-05,-1.60897e-05,0.391798,-0.14563860880045165,0.3451829148793719,2.0423508557021464e-05,0.42798877037011773,-1.6089570561428346e-05,-0.17895634665560545
497,0.4869,59.0257,821.643,0.0145307,220.195,0.0229973,-0.000878083,-0.15767,0.356873,-0.197515,0.297035,2.04765e-05,-1.60878e-05,0.39247,-0.14586840110623345,0.3458624038078997,2.0476709645000923e-05,0.42885439382237744,-1.6087670592024317e-05,-0.17923217098204736
498,0.4879,59.0446,821.905,0.0145,220.266,0.022982,-0.000841449,-0.157938,0.357477,-0.197851,0.297539,2.05296e-05,-1.60857e-05,0.393141,-0.14609727770390302,0.34654088942343186,2.0529810733638243e-05,0.42971768256320075,-1.6085570625823387e-05,-0.1795079026470836
499,0.4889,59.0634,822.167,0.0144695,220.336,0.0229668,-0.000804876,-0.158206,0.358082,-0.198187,0.298042,2.05826e-05,-1.60836e-05,0.393811,-0.14632609297086308,0.34721836986285837,2.0582811823155467e-05,0.43058292347013416,-1.6083470659622456e-05,-0.17978354168184307
500,0.4899,59.0822,822.429,0.0144391,220.406,0.0229516,-0.00076836,-0.158474,0.358686,-0.198522,0.298546,2.06355e-05,-1.60813e-05,0.394481,-0.14655484692354803,0.3478975390575296,2.063571291333055e-05,0.4314472565582259,-1.6081170696624625e-05,-0.1800582681761227
501,0.4909,59.1009,822.69,0.0144087,220.476,0.0229365,-0.000731905,-0.158742,0.359289,-0.198857,0.299049,2.06883e-05,-1.6079e-05,0.395151,-0.14678353957838797,0.34857570206337307,2.068851400438554e-05,0.4323106795498002,-1.6078870733626793e-05,-0.1803329026524404
502,0.4919,59.1197,822.95,0.0143784,220.546,0.0229214,-0.000695508,-0.15901,0.359893,-0.199192,0.299552,2.07411e-05,-1.60766e-05,0.39582,-0.14701217095180852,0.34925420627101356,2.0741315098105062e-05,0.433176056517784,-1.6076470772175e-05,-0.18060744514161742
503,0.4929,59.1383,823.21,0.0143483,220.616,0.0229064,-0.000659171,-0.159277,0.360495,-0.199527,0.300054,2.07937e-05,-1.60741e-05,0.396489,-0.14723988830054546,0.34993170191974166,2.079391619047577e-05,0.43403908825029536,-1.6073970812380267e-05,-0.180881895674464
504,0.4939,59.157,823.47,0.0143182,220.686,0.0228914,-0.000622892,-0.159544,0.361098,-0.199862,0.300556,2.08463e-05,-1.60715e-05,0.397157,-0.14746754485686653,0.3506095377566658,2.0846517285511013e-05,0.4349040745876811,-1.6071370854131573e-05,-0.1811562542817805
505,0.4949,59.1756,823.729,0.0142882,220.755,0.0228764,-0.000586673,-0.159811,0.3617,-0.200196,0.301058,2.08988e-05,-1.60688e-05,0.397825,-0.14769514063700107,0.35128771395260294,2.089901838142616e-05,0.4357681469002537,-1.606867089753994e-05,-0.18142970242446854
506,0.4959,59.1941,823.987,0.0142582,220.824,0.0228614,-0.000550511,-0.160078,0.362301,-0.20053,0.301559,2.09512e-05,-1.6066e-05,0.398493,-0.14792267565717399,0.3519648787129015,2.0951419477999167e-05,0.43663130290894037,-1.6065870942494342e-05,-0.1817030592507276
507,0.4969,59.2127,824.245,0.0142284,220.894,0.0228466,-0.000514409,-0.160345,0.362902,-0.200864,0.30206,2.10036e-05,-1.60631e-05,0.39916,-0.1481501499336063,0.3526423828177436,2.100382057723671e-05,0.4374949778303059,-1.6062970989105807e-05,-0.1819763247910522
508,0.4979,59.2312,824.502,0.0141986,220.963,0.0228317,-0.000478364,-0.160612,0.363503,-0.201198,0.302561,2.10558e-05,-1.60601e-05,0.399826,-0.14837756348251419,0.35332022643718375,2.105602167490339e-05,0.43835917197631047,-1.605997103726331e-05,-0.1822494990759269
509,0.4989,59.2496,824.759,0.014169,221.031,0.0228169,-0.000442379,-0.160878,0.364104,-0.201532,0.303062,2.1108e-05,-1.60571e-05,0.400492,-0.14860406492460054,0.3539984097413611,2.1108222775456653e-05,0.43922388565910175,-1.6056971085420813e-05,-0.18252258213582584
510,0.4999,59.268,825.015,0.0141394,221.1,0.0228021,-0.000406451,-0.161144,0.364703,-0.201865,0.303562,2.11601e-05,-1.60539e-05,0.401158,-0.1488305061253158,0.3546755782242448,2.116032387644573e-05,0.44008623901565747,-1.6053771136892436e-05,-0.18279475679637858
511,0.5009,59.2864,825.271,0.0141099,221.169,0.0227874,-0.000370582,-0.16141,0.365303,-0.202198,0.304061,2.12121e-05,-1.60507e-05,0.401823,-0.14905688710068188,0.35535173002362264,2.1212324978092667e-05,0.4409505500264408,-1.6050571188253038e-05,-0.18306684083785818
512,0.5019,59.3048,825.526,0.0140805,221.237,0.0227727,-0.000334771,-0.161676,0.365902,-0.202531,0.304561,2.12641e-05,-1.60473e-05,0.402488,-0.14928320786671667,0.3560295753358407,2.1264326082626184e-05,0.44181393796477875,-1.6047171242816738e-05,-0.18333883429043585
513,0.5029,59.3231,825.781,0.0140512,221.306,0.022758,-0.000299018,-0.161941,0.366501,-0.202863,0.30506,2.13159e-05,-1.60439e-05,0.403152,-0.14950861794847714,0.3567064029483782,2.1316127185366796e-05,0.442677843227415,-1.6043771297269416e-05,-0.1836099207946017
514,0.5039,59.3414,826.036,0.0140219,221.374,0.0227434,-0.000263323,-0.162207,0.367099,-0.203196,0.305559,2.13677e-05,-1.60404e-05,0.403816,-0.14973481857008641,0.357383568382174,2.1367928290993987e-05,0.4435408225827753,-1.6040271353490176e-05,-0.18388173343166136
515,0.5049,59.3596,826.289,0.0139928,221.442,0.0227288,-0.000227685,-0.162472,0.367697,-0.203528,0.306057,2.14194e-05,-1.60368e-05,0.40448,-0.1499601089908661,0.35805971374545,2.1419629397056994e-05,0.44440431815412307,-1.6036671411256975e-05,-0.18415263972322926
516,0.5059,59.3778,826.543,0.0139637,221.51,0.0227142,-0.000192106,-0.162737,0.368295,-0.20386,0.306555,2.14711e-05,-1.60331e-05,0.405143,-0.15018533971759418,0.358736195912974,2.1471330505784536e-05,0.44526833025024803,-1.6032971470569812e-05,-0.18442345608883692
517,0.5069,59.396,826.795,0.0139347,221.578,0.0226997,-0.000156584,-0.163002,0.368892,-0.204191,0.307053,2.15226e-05,-1.60293e-05,0.405805,-0.15041051076608736,0.35941301505251655,2.1522831612719173e-05,0.44613141304798853,-1.6029171531428688e-05,-0.18469336725210972
518,0.5079,59.4141,827.048,0.0139058,221.645,0.0226853,-0.000121119,-0.163267,0.369489,-0.204523,0.30755,2.15741e-05,-1.60255e-05,0.406467,-0.1506356221521583,0.3600888112424403,2.157433272254039e-05,0.44699501125999497,-1.6025371592398585e-05,-0.18496400412597502
519,0.5089,59.4322,827.299,0.013877,221.713,0.0226708,-8.57121e-05,-0.163532,0.370085,-0.204854,0.308047,2.16255e-05,-1.60215e-05,0.407129,-0.1508606738916155,0.3607649433865481,2.1625733832797422e-05,0.4478576773356604,-1.602137165646056e-05,-0.18523373639745577
520,0.5099,59.4502,827.551,0.0138482,221.78,0.0226564,-5.03623e-05,-0.163796,0.370681,-0.205185,0.308544,2.16768e-05,-1.60175e-05,0.40779,-0.1510848170855047,0.3614414116518505,2.167703494349027e-05,0.44872085771355374,-1.6017371720522533e-05,-0.18550337940232897
521,0.5109,59.4682,827.801,0.0138195,221.848,0.0226421,-1.50699e-05,-0.16406,0.371277,-0.205516,0.30904,2.1728e-05,-1.60134e-05,0.408451,-0.151308901113401,0.3621168540879065,2.1728236054618932e-05,0.44958455270029063,-1.6013271786241567e-05,-0.1857729331701372
522,0.5119,59.4862,828.052,0.013791,221.915,0.0226277,2.01654e-05,-0.164324,0.371872,-0.205847,0.309537,2.17792e-05,-1.60091e-05,0.409112,-0.15153292599092205,0.3627939944198224,2.177943716841213e-05,0.4504473121546315,-1.6008971855052678e-05,-0.18604239773041298
523,0.5129,59.5042,828.302,0.0137624,221.982,0.0226135,5.53436e-05,-0.164588,0.372467,-0.206177,0.310032,2.18303e-05,-1.60049e-05,0.409772,-0.15175689173368168,0.3634687444339111,2.1830538282641143e-05,0.4513105851035977,-1.600477192231775e-05,-0.1863109594240453
524,0.5139,59.5221,828.551,0.013734,222.049,0.0225992,9.04648e-05,-0.164852,0.373061,-0.206507,0.310528,2.18813e-05,-1.60005e-05,0.410431,-0.15198079835728917,0.3641451926764465,2.188153939730597e-05,0.45217291967916284,-1.60003719926749e-05,-0.1865794325069402
525,0.5149,59.54,828.8,0.0137057,222.116,0.022585,0.000125529,-0.165115,0.373655,-0.206837,0.311023,2.19322e-05,-1.5996e-05,0.41109,-0.15220379808157214,0.3648206116992381,2.1932440512406615e-05,0.45303576663362755,-1.599587206468911e-05,-0.18684781700833464
526,0.5159,59.5578,829.048,0.0136774,222.182,0.0225708,0.000160537,-0.165379,0.374249,-0.207167,0.311518,2.19831e-05,-1.59914e-05,0.411749,-0.15242758673747625,0.3654963651372072,2.1983341630171793e-05,0.4538991262714349,-1.5991272138249357e-05,-0.18711611295745545
527,0.5169,59.5756,829.296,0.0136492,222.249,0.0225567,0.000195487,-0.165642,0.374842,-0.207497,0.312012,2.20339e-05,-1.59868e-05,0.412407,-0.15265046897186574,0.3661710869841597,2.2034142748150742e-05,0.45476154413493797,-1.5986672211809605e-05,-0.18738432038352026
528,0.5179,59.5934,829.543,0.0136211,222.315,0.0225425,0.000230382,-0.165905,0.375435,-0.207826,0.312506,2.20846e-05,-1.59821e-05,0.413065,-0.15287329259593518,0.3668461422260465,2.2084843866565507e-05,0.45562447356389835,-1.598197228691589e-05,-0.18765162696776982
529,0.5189,59.6112,829.79,0.0135931,222.381,0.0225285,0.000265219,-0.166168,0.376027,-0.208155,0.313,2.21352e-05,-1.59773e-05,0.413722,-0.15309605762509704,0.3675215310276052,2.2135444985416086e-05,0.4564864583745776,-1.5977172363568215e-05,-0.1879188456226184
530,0.5199,59.6289,830.037,0.0135652,222.447,0.0225144,0.0003,-0.16643,0.376619,-0.208484,0.313494,2.21858e-05,-1.59724e-05,0.414379,-0.15331791739310052,0.36819725355365507,2.2186046106709156e-05,0.457348953631342,-1.59722724418776e-05,-0.18818597637698986
531,0.5209,59.6465,830.283,0.0135373,222.513,0.0225004,0.000334725,-0.166693,0.377211,-0.208813,0.313987,2.22362e-05,-1.59674e-05,0.415036,-0.15354056550131656,0.36887194109647115,2.223644722620932e-05,0.4582119596364649,-1.5967272521733022e-05,-0.18845301925979885
532,0.5219,59.6642,830.528,0.0135095,222.579,0.0224865,0.000369394,-0.166955,0.377802,-0.209141,0.31448,2.22866e-05,-1.59623e-05,0.415692,-0.1537623088235116,0.3695469613422504,2.2286848348151977e-05,0.45907401761765176,-1.5962172603134483e-05,-0.18871916301951908
533,0.5229,59.6818,830.773,0.0134818,222.645,0.0224725,0.000404006,-0.167217,0.378393,-0.209469,0.314972,2.2337e-05,-1.59572e-05,0.416348,-0.15398399405656615,0.37022094423342633,2.2337249472537124e-05,0.45993658522568537,-1.5957072684535945e-05,-0.18898521949840075
534,0.5239,59.6994,831.018,0.0134542,222.711,0.0224586,0.000438562,-0.167479,0.378984,-0.209797,0.315464,2.23872e-05,-1.59519e-05,0.417003,-0.1542056212156977,0.3708952588057719,2.2387450595129366e-05,0.46079966276184425,-1.5951772769140504e-05,-0.18925118872506763
535,0.5249,59.7169,831.262,0.0134266,222.776,0.0224448,0.000473063,-0.167741,0.379574,-0.210125,0.315956,2.24374e-05,-1.59466e-05,0.417658,-0.15442719031611962,0.3715699052225139,2.2437651720386143e-05,0.46166178886506537,-1.594647285363404e-05,-0.18951707072813362
536,0.5259,59.7344,831.505,0.0133991,222.841,0.0224309,0.000507507,-0.168003,0.380163,-0.210453,0.316448,2.24875e-05,-1.59412e-05,0.418312,-0.1546487013730412,0.37224488364696007,2.2487752845634645e-05,0.4625229612490773,-1.594107293978464e-05,-0.18978286553620327
537,0.5269,59.7519,831.748,0.0133717,222.907,0.0224172,0.000541895,-0.168264,0.380753,-0.21078,0.316939,2.25376e-05,-1.59357e-05,0.418966,-0.15486930927139975,0.3729188213229908,2.2537853973547683e-05,0.4633861043984051,-1.5935573027370253e-05,-0.19004776322604022
538,0.5279,59.7693,831.991,0.0133444,222.972,0.0224034,0.000576228,-0.168526,0.381342,-0.211107,0.31743,2.25875e-05,-1.59302e-05,0.419619,-0.15509070450832818,0.37359308998367036,2.2587755099445772e-05,0.4642482927034257,-1.593007311506689e-05,-0.1903125743084937
539,0.5289,59.7867,832.233,0.0133171,223.037,0.0223897,0.000610505,-0.168787,0.38193,-0.211434,0.31792,2.26374e-05,-1.59245e-05,0.420272,-0.15531119705892193,0.3742663155245498,2.263765622778635e-05,0.46510952387668647,-1.5924373205855602e-05,-0.19057729881187957
540,0.5299,59.8041,832.475,0.01329,223.102,0.022376,0.000644726,-0.169048,0.382519,-0.211761,0.318411,2.26873e-05,-1.59188e-05,0.420925,-0.15553163206846954,0.3749412459673367,2.2687557358791466e-05,0.4659727275747836,-1.5918673296533292e-05,-0.19084193676450478
541,0.5309,59.8214,832.716,0.0132629,223.166,0.0223623,0.000678892,-0.169308,0.383106,-0.212087,0.318901,2.2737e-05,-1.5913e-05,0.421577,-0.15575116530357447,0.37561513226652066,2.2737258487559586e-05,0.466833506179674,-1.5912873388868043e-05,-0.1911056793007503
542,0.5319,59.8387,832.957,0.0132358,223.231,0.0223487,0.000713003,-0.169569,0.383694,-0.212414,0.31939,2.27867e-05,-1.59071e-05,0.422229,-0.1559714854963944,0.37628797256224367,2.2786959618770197e-05,0.46769625790545755,-1.5906973482748832e-05,-0.19137014450120216
543,0.5329,59.856,833.198,0.0132089,223.295,0.0223351,0.000747058,-0.16983,0.384281,-0.21274,0.31988,2.28363e-05,-1.59011e-05,0.422881,-0.15619174819314752,0.3769625189191601,2.283656075019458e-05,0.46855804851964766,-1.590097357817566e-05,-0.19163371486979042
544,0.5339,59.8732,833.438,0.013182,223.36,0.0223216,0.000781058,-0.17009,0.384867,-0.213066,0.320369,2.28858e-05,-1.58951e-05,0.423531,-0.15641110982037,0.3776360182480769,2.288606188183273e-05,0.46941887573382024,-1.5894973673602486e-05,-0.19189719932844262
545,0.5349,59.8905,833.677,0.0131552,223.424,0.022308,0.000815002,-0.17035,0.385454,-0.213391,0.320857,2.29353e-05,-1.58889e-05,0.424182,-0.15663041442098324,0.3783084686895446,2.2935563015913374e-05,0.4702816778215142,-1.588877377212139e-05,-0.19215979006535477
546,0.5359,59.9076,833.916,0.0131285,223.488,0.0222945,0.000848892,-0.17061,0.38604,-0.213717,0.321346,2.29847e-05,-1.58827e-05,0.424832,-0.1568496620098121,0.37898262634884783,2.2984964150207787e-05,0.4711435153784591,-1.5882573870640293e-05,-0.19242310305144472
547,0.5369,59.9248,834.155,0.0131019,223.552,0.0222811,0.000882727,-0.17087,0.386625,-0.214042,0.321834,2.3034e-05,-1.58764e-05,0.425482,-0.1570688526016778,0.37965573409543807,2.303426528471597e-05,0.4720043861150951,-1.5876273970594212e-05,-0.19268552289741814
548,0.5379,59.9419,834.393,0.0130753,223.616,0.0222677,0.000916506,-0.171129,0.38721,-0.214367,0.322321,2.30832e-05,-1.587e-05,0.426131,-0.15728714349896256,0.38032779007028994,2.308346641921588e-05,0.4728657606084463,-1.5869874072205192e-05,-0.19294785747079923
549,0.5389,59.959,834.63,0.0130488,223.68,0.0222543,0.000950231,-0.171389,0.387795,-0.214692,0.322809,2.31324e-05,-1.58636e-05,0.42678,-0.15750622036042672,0.3810015544169736,2.3132667555936237e-05,0.47372763915329696,-1.5863474173816172e-05,-0.19321010679929695
550,0.5399,59.976,834.868,0.0130224,223.743,0.0222409,0.000983901,-0.171648,0.388379,-0.215016,0.323296,2.31815e-05,-1.5857e-05,0.427428,-0.15772439799413018,0.38167426596594134,2.3181768693092408e-05,0.4745885474553184,-1.5856874278408206e-05,-0.1934714643824792
551,0.5409,59.993,835.104,0.012996,223.807,0.0222276,0.00101752,-0.171907,0.388963,-0.215341,0.323783,2.32306e-05,-1.58504e-05,0.428076,-0.15794251912714363,0.38234730520521953,2.3230869832469025e-05,0.47544995867462614,-1.5850274383111262e-05,-0.19373354356638073
552,0.5419,60.01,835.341,0.0129697,223.87,0.0222143,0.00105108,-0.172166,0.389547,-0.215665,0.324269,2.32795e-05,-1.58437e-05,0.428724,-0.15816058377409892,0.3830192892744515,2.327977096960865e-05,0.4763118731050089,-1.5843574489249335e-05,-0.19399473158352154
553,0.5429,60.027,835.577,0.0129435,223.934,0.022201,0.00108458,-0.172425,0.39013,-0.215989,0.324755,2.33284e-05,-1.58369e-05,0.429371,-0.158378591949624,0.38369160000731384,2.3328672109190762e-05,0.4771728138668758,-1.5836774596933445e-05,-0.19425583498945254
554,0.5439,60.0439,835.812,0.0129174,223.997,0.0221878,0.00111804,-0.172683,0.390713,-0.216313,0.325241,2.33772e-05,-1.58301e-05,0.430018,-0.15859570226446607,0.38436423756260374,2.3377473248764602e-05,0.4780342567035476,-1.5829974704617555e-05,-0.19451685381158346
555,0.5449,60.0608,836.047,0.0128913,224.06,0.0221746,0.00115143,-0.172942,0.391295,-0.216636,0.325727,2.3426e-05,-1.58232e-05,0.430664,-0.15881359775889503,0.3850372020991957,2.3426274390780932e-05,0.4788947230123566,-1.5823074813847704e-05,-0.19477698285470024
556,0.5459,60.0776,836.282,0.0128653,224.123,0.0221614,0.00118478,-0.1732,0.391878,-0.21696,0.326212,2.34747e-05,-1.58162e-05,0.43131,-0.15903059585671486,0.38570910806624004,2.3474975533011033e-05,0.4797571700147458,-1.581607492451287e-05,-0.19503783285227372
557,0.5469,60.0945,836.516,0.0128394,224.186,0.0221483,0.00121806,-0.173458,0.392459,-0.217283,0.326697,2.35233e-05,-1.58091e-05,0.431956,-0.15924753797624702,0.38638133998671575,2.3523576675010816e-05,0.48061715873305566,-1.5808975036835093e-05,-0.19529779364633415
558,0.5479,60.1113,836.75,0.0128135,224.248,0.0221352,0.0012513,-0.173716,0.393041,-0.217606,0.327181,2.35719e-05,-1.58019e-05,0.432601,-0.15946442413193207,0.38705251096554405,2.357217781945309e-05,0.48147912872837595,-1.5801775150592334e-05,-0.1955576704866172
559,0.5489,60.128,836.983,0.0127878,224.311,0.0221221,0.00128448,-0.173974,0.393622,-0.217929,0.327665,2.36203e-05,-1.57947e-05,0.433245,-0.15968125433820657,0.3877240068697516,2.3620578961436323e-05,0.4823401181953877,-1.5794575264349575e-05,-0.19581746340023587
560,0.5499,60.1448,837.216,0.012762,224.373,0.0221091,0.00131761,-0.174231,0.394202,-0.218251,0.328149,2.36687e-05,-1.57873e-05,0.43389,-0.15989718850711243,0.3883958278566406,2.3668980105862047e-05,0.48320012484175967,-1.5787175381198892e-05,-0.19607636849106436
561,0.5509,60.1615,837.448,0.0127364,224.436,0.0220961,0.00135068,-0.174489,0.394782,-0.218573,0.328633,2.37171e-05,-1.578e-05,0.434534,-0.1601139070745803,0.38906797408358895,2.3717381252730263e-05,0.48406063043666747,-1.577987549650217e-05,-0.19633519022787427
562,0.5519,60.1781,837.68,0.0127108,224.498,0.0220831,0.0013837,-0.174746,0.395362,-0.218896,0.329116,2.37654e-05,-1.57725e-05,0.435177,-0.1603297300660198,0.38973905596830005,2.376568239936816e-05,0.48492163526958554,-1.5772375614786505e-05,-0.19659473204317102
563,0.5529,60.1948,837.912,0.0126853,224.56,0.0220701,0.00141666,-0.175003,0.395942,-0.219217,0.329599,2.38136e-05,-1.57649e-05,0.43582,-0.16054549759807735,0.3904104620638522,2.3813883545997783e-05,0.4857831396301555,-1.5764775734616876e-05,-0.1968525837467726
564,0.5539,60.2114,838.143,0.0126599,224.622,0.0220572,0.00144958,-0.17526,0.396521,-0.219539,0.330082,2.38617e-05,-1.57573e-05,0.436463,-0.16076120968500418,0.39108219252687704,2.386198469261913e-05,0.4866436571637873,-1.5757175854447247e-05,-0.19711115558250647
565,0.5549,60.228,838.374,0.0126345,224.684,0.0220443,0.00148243,-0.175517,0.3971,-0.219861,0.330564,2.39098e-05,-1.57496e-05,0.437105,-0.1609768663410479,0.3917528557605301,2.3910085841460926e-05,0.48750467308133927,-1.5749475975712635e-05,-0.1973696441715127
566,0.5559,60.2445,838.604,0.0126093,224.746,0.0220315,0.00151524,-0.175773,0.397678,-0.220182,0.331046,2.39578e-05,-1.57418e-05,0.437747,-0.16119162877250048,0.3924238423317796,2.3958086990294447e-05,0.4883646993060158,-1.574167609852406e-05,-0.19762724716824065
567,0.5569,60.261,838.834,0.012584,224.808,0.0220187,0.00154799,-0.17603,0.398256,-0.220503,0.331528,2.40057e-05,-1.5734e-05,0.438388,-0.16140717482505174,0.3930951523965125,2.4005988139119694e-05,0.4892252227695384,-1.5733876221224463e-05,-0.19788476748767714
568,0.5579,60.2775,839.064,0.0125589,224.869,0.0220059,0.00158069,-0.176286,0.398833,-0.220824,0.33201,2.40536e-05,-1.57261e-05,0.439029,-0.16162182711163164,0.3937667861106897,2.4053889290165387e-05,0.4900847536738955,-1.5725976345581927e-05,-0.19814220515635717
569,0.5589,60.294,839.293,0.0125338,224.931,0.0219931,0.00161333,-0.176542,0.399411,-0.221144,0.332491,2.41014e-05,-1.57181e-05,0.439669,-0.16183642445425916,0.39443734919230145,2.410169044098076e-05,0.4909462716162194,-1.5717976471263384e-05,-0.19839875859996692
570,0.5599,60.3104,839.522,0.0125088,224.992,0.0219804,0.00164592,-0.176798,0.399988,-0.221465,0.332972,2.41491e-05,-1.571e-05,0.44031,-0.16205096686699838,0.39510823489233915,2.414939159178786e-05,0.4918067958523096,-1.5709876598601902e-05,-0.19865603130397824
571,0.5609,60.3268,839.75,0.0124838,225.053,0.0219677,0.00167846,-0.177054,0.400564,-0.221785,0.333452,2.41968e-05,-1.57018e-05,0.440949,-0.16226545436390938,0.39577804758727386,2.4197092744815407e-05,0.4926663240870879,-1.5701676727375435e-05,-0.19891242034952583
572,0.5619,60.3432,839.978,0.012459,225.114,0.021955,0.00171095,-0.17731,0.40114,-0.222105,0.333932,2.42444e-05,-1.56936e-05,0.441589,-0.16247988695904902,0.39644818186947695,2.424469389783468e-05,0.4935263475527423,-1.569347685614897e-05,-0.1991687273637045
573,0.5629,60.3595,840.205,0.0124341,225.175,0.0219423,0.00174338,-0.177565,0.401716,-0.222425,0.334412,2.4292e-05,-1.56853e-05,0.442228,-0.1626934273603161,0.3971186378933471,2.4292295053074398e-05,0.49438686653460784,-1.568517698635752e-05,-0.19942495237276026
574,0.5639,60.3759,840.432,0.0124094,225.236,0.0219297,0.00177576,-0.17782,0.402291,-0.222745,0.334892,2.43394e-05,-1.56769e-05,0.442866,-0.16290691331572316,0.3977894158133579,2.4339696205633032e-05,0.4952463860710503,-1.5676777118001084e-05,-0.19968109540293033
575,0.5649,60.3921,840.659,0.0123847,225.297,0.0219171,0.00180809,-0.178075,0.402866,-0.223064,0.335371,2.43868e-05,-1.56685e-05,0.443504,-0.16312034483915183,0.39845911732423955,2.4387097360412113e-05,0.4961063999733428,-1.566837724964465e-05,-0.19993635641720042
576,0.5659,60.4084,840.885,0.0123601,225.358,0.0219046,0.00184036,-0.17833,0.403441,-0.223383,0.33585,2.44342e-05,-1.566e-05,0.444142,-0.1633337219444807,0.3991291396989858,2.443449851741164e-05,0.4969669085258277,-1.5659877382834253e-05,-0.20019153601619333
577,0.5669,60.4246,841.111,0.0123356,225.418,0.0218921,0.00187258,-0.178585,0.404015,-0.223702,0.336329,2.44815e-05,-1.56514e-05,0.444779,-0.16354704464558456,0.39979948309132696,2.4481799674402893e-05,0.49782641418584705,-1.5651277517458873e-05,-0.2004466342258765
578,0.5679,60.4408,841.336,0.0123111,225.479,0.0218796,0.00190475,-0.17884,0.404589,-0.224021,0.336807,2.45287e-05,-1.56427e-05,0.445416,-0.16376031295633464,0.4004687471856201,2.4529000830941783e-05,0.4986864133437354,-1.564257765362953e-05,-0.20070165107220894
579,0.5689,60.457,841.561,0.0122867,225.539,0.0218671,0.00193687,-0.179094,0.405163,-0.22434,0.337285,2.45758e-05,-1.5634e-05,0.446053,-0.1639726908637077,0.4011383312646206,2.45761019874724e-05,0.4995469062828424,-1.5633877789689166e-05,-0.20095658658114135
580,0.5699,60.4731,841.786,0.0122623,225.599,0.0218547,0.00196893,-0.179349,0.405736,-0.224658,0.337763,2.46229e-05,-1.56252e-05,0.446689,-0.16418585064850988,0.4018082354813177,2.4623203146001416e-05,0.5004063928795361,-1.5625077927183817e-05,-0.20121064198965766
581,0.5709,60.4892,842.01,0.012238,225.659,0.0218422,0.00200094,-0.179603,0.406309,-0.224976,0.338241,2.46699e-05,-1.56163e-05,0.447324,-0.16439812048303493,0.40247845998877385,2.467020430452216e-05,0.501266372103174,-1.5616178066224506e-05,-0.20146461662139825
582,0.5719,60.5053,842.234,0.0122138,225.72,0.0218299,0.0020329,-0.179857,0.406881,-0.225295,0.338718,2.47169e-05,-1.56073e-05,0.44796,-0.16461033640786882,0.40314760179182096,2.4717205465041303e-05,0.5021253421100189,-1.5607178206700212e-05,-0.20171930878313638
583,0.5729,60.5214,842.457,0.0121897,225.779,0.0218175,0.00206481,-0.180111,0.407453,-0.225612,0.339195,2.47638e-05,-1.55983e-05,0.448594,-0.16482249843670282,0.4038170628516451,2.476410662533013e-05,0.5029848035882551,-1.5598178347175917e-05,-0.2019723236572758
584,0.5739,60.5374,842.68,0.0121656,225.839,0.0218052,0.00209666,-0.180364,0.408025,-0.22593,0.339671,2.48106e-05,-1.55892e-05,0.449229,-0.16503377161741406,0.40448543883442656,2.4810907785388636e-05,0.5038447568190849,-1.558907848908664e-05,-0.20222605611275413
585,0.5749,60.5534,842.903,0.0121416,225.899,0.0217929,0.00212846,-0.180618,0.408596,-0.226247,0.340148,2.48574e-05,-1.558e-05,0.449863,-0.16524582610736294,0.40515553819474226,2.485770894766759e-05,0.504703697379421,-1.5579878632432376e-05,-0.20247891037344867
586,0.5759,60.5694,843.125,0.0121176,225.959,0.0217806,0.00216021,-0.180871,0.409167,-0.226565,0.340624,2.49041e-05,-1.55708e-05,0.450497,-0.16545699219972076,0.4058245514434444,2.4904410109716224e-05,0.5055631285348687,-1.5570678775778113e-05,-0.2027324817599626
587,0.5769,60.5853,843.347,0.0120937,226.018,0.0217684,0.00219191,-0.181124,0.409738,-0.226882,0.341099,2.49507e-05,-1.55615e-05,0.45113,-0.1656681048738149,0.40649247672507594,2.4951011271312495e-05,0.5064230505656377,-1.5561378920447844e-05,-0.2029851755091694
588,0.5779,60.6012,843.568,0.0120699,226.078,0.0217562,0.00222356,-0.181377,0.410308,-0.227198,0.341575,2.49973e-05,-1.55521e-05,0.451763,-0.1658791641431584,0.40716212650800165,2.4997612435129213e-05,0.5072819564693878,-1.5551979066774635e-05,-0.20323699240454363
589,0.5789,60.6171,843.789,0.0120461,226.137,0.021744,0.00225516,-0.18163,0.410878,-0.227515,0.34205,2.50438e-05,-1.55426e-05,0.452395,-0.16609017002126103,0.4078306872887081,2.5044113598493567e-05,0.508141352089059,-1.554247921442542e-05,-0.20348952624922223
590,0.5799,60.633,844.01,0.0120224,226.196,0.0217318,0.0022867,-0.181883,0.411448,-0.227831,0.342524,2.50902e-05,-1.55331e-05,0.453027,-0.1663011225216291,0.4084981572123576,2.5090514761627603e-05,0.5090012377038684,-1.5532979362076205e-05,-0.2037411837949411
591,0.5809,60.6488,844.23,0.0119988,226.255,0.0217197,0.00231819,-0.182135,0.412017,-0.228148,0.342999,2.51366e-05,-1.55235e-05,0.453659,-0.16651118816937038,0.40916735275839344,2.5136915926982084e-05,0.5098601037323347,-1.5523379511050983e-05,-0.20399355783627915
592,0.5819,60.6646,844.45,0.0119752,226.314,0.0217076,0.00234963,-0.182388,0.412586,-0.228464,0.343473,2.51829e-05,-1.55139e-05,0.45429,-0.16672203416562037,0.40983545641165775,2.5183217091884202e-05,0.5107194585946313,-1.551377966002576e-05,-0.20424505613317923
593,0.5829,60.6804,844.67,0.0119517,226.373,0.0216955,0.00238102,-0.18264,0.413154,-0.228779,0.343947,2.52292e-05,-1.55041e-05,0.454921,-0.16693199375699097,0.4105038768211191,2.5229518259006767e-05,0.5115777909904369,-1.5503979812092616e-05,-0.20449567946525005
594,0.5839,60.6961,844.889,0.0119283,226.432,0.0216835,0.00241236,-0.182892,0.413723,-0.229095,0.34442,2.52754e-05,-1.54943e-05,0.455552,-0.1671419004452107,0.41117120296504694,2.5275719425676968e-05,0.5124381234948963,-1.5494179963937427e-05,-0.2047470191167826
595,0.5849,60.7118,845.107,0.0119049,226.49,0.0216714,0.00244364,-0.183144,0.41429,-0.22941,0.344894,2.53215e-05,-1.54845e-05,0.456182,-0.16735175424360937,0.41184025666845336,2.5321820591894806e-05,0.5132959190729831,-1.5484380115782237e-05,-0.20499748435541476
596,0.5859,60.7275,845.326,0.0118816,226.549,0.0216594,0.00247488,-0.183396,0.414858,-0.229726,0.345367,2.53676e-05,-1.54745e-05,0.456811,-0.16756155516551352,0.41250821506956603,2.536792176033309e-05,0.5141557153140333,-1.547438027049708e-05,-0.20524866546165355
597,0.5869,60.7432,845.544,0.0118583,226.608,0.0216475,0.00250606,-0.183647,0.415425,-0.230041,0.345839,2.54136e-05,-1.54645e-05,0.457441,-0.16777047099513354,0.4131750763139519,2.541392292831901e-05,0.5150144850428273,-1.546438042521192e-05,-0.20549897270657225
598,0.5879,60.7588,845.761,0.0118351,226.666,0.0216355,0.00253719,-0.183899,0.415991,-0.230355,0.346312,2.54596e-05,-1.54545e-05,0.458069,-0.16798016641371039,0.4138436662340994,2.5459924098303333e-05,0.5158722259591422,-1.545438057981574e-05,-0.20574840686593
599,0.5889,60.7744,845.979,0.011812,226.724,0.0216236,0.00256827,-0.18415,0.416558,-0.23067,0.346784,2.55055e-05,-1.54443e-05,0.458698,-0.1681889771850924,0.414511157960217,2.5505825268057336e-05,0.516731969225444,-1.5444180737400615e-05,-0.20599855671709721
600,0.5899,60.79,846.196,0.0117889,226.782,0.0216117,0.0025993,-0.184401,0.417124,-0.230984,0.347256,2.55513e-05,-1.54341e-05,0.459326,-0.16839773555154802,0.4151789648167943,2.5551626437136932e-05,0.5175906825129615,-1.5433980894874466e-05,-0.20624783403170144
601,0.5909,60.8056,846.412,0.0117659,226.84,0.0215999,0.00263028,-0.184652,0.417689,-0.231299,0.347727,2.55971e-05,-1.54238e-05,0.459954,-0.16860644152622906,0.41584567110622905,2.5597427608659018e-05,0.5184483635206498,-1.5423681053783334e-05,-0.2064978265880868
602,0.5919,60.8211,846.628,0.0117429,226.898,0.021588,0.00266121,-0.184903,0.418255,-0.231613,0.348198,2.56428e-05,-1.54135e-05,0.460581,-0.1688150951222842,0.41651269148828884,2.5643128779506696e-05,0.5193080485623187,-1.541338121258118e-05,-0.20674694715656194
603,0.5929,60.8366,846.844,0.01172,226.956,0.0215762,0.00269209,-0.185153,0.41882,-0.231927,0.348669,2.56884e-05,-1.54031e-05,0.461208,-0.16902286537613975,0.4171800261109466,2.5688729949679967e-05,0.5201667001559898,-1.540298137281404e-05,-0.20699598951345854
604,0.5939,60.8521,847.059,0.0116972,227.014,0.0215644,0.00272292,-0.185404,0.419384,-0.23224,0.34914,2.5734e-05,-1.53926e-05,0.461835,-0.169231414462925,0.4178476751222444,2.5734331122295728e-05,0.521024315999812,-1.539248153459294e-05,-0.20724416092788844
605,0.5949,60.8675,847.274,0.0116744,227.072,0.0215527,0.00275369,-0.185654,0.419948,-0.232554,0.34961,2.57795e-05,-1.5382e-05,0.462461,-0.16943908064995428,0.41851422015536466,2.577983229423708e-05,0.5218824156753981,-1.538188169769583e-05,-0.20749304718416983
606,0.5959,60.8829,847.489,0.0116517,227.129,0.021541,0.00278442,-0.185904,0.420512,-0.232867,0.35008,2.5825e-05,-1.53714e-05,0.463086,-0.16964669492692586,0.4191810785382819,2.5825333468176837e-05,0.5227409994557055,-1.5371281860687702e-05,-0.2077410630438944
607,0.5969,60.8983,847.703,0.0116291,227.187,0.0215293,0.0028151,-0.186154,0.421076,-0.23318,0.35055,2.58704e-05,-1.53607e-05,0.463712,-0.16985425730681558,0.4198482504183052,2.5870734641664228e-05,0.523600067613847,-1.5360582025003566e-05,-0.20798900128680242
608,0.5979,60.9137,847.917,0.0116065,227.244,0.0215176,0.00284572,-0.186404,0.421639,-0.233493,0.351019,2.59157e-05,-1.535e-05,0.464337,-0.1700617678025962,0.42051431542778706,2.5916035814699256e-05,0.5244580959642302,-1.534988218931943e-05,-0.20823686193718427
609,0.5989,60.9291,848.13,0.0115839,227.301,0.0215059,0.0028763,-0.186654,0.422202,-0.233805,0.351488,2.5961e-05,-1.53392e-05,0.464961,-0.17026922642723685,0.42118069289502413,2.5961336989732686e-05,0.5253166075205844,-1.533908235507031e-05,-0.20848385350357201
610,0.5999,60.9444,848.344,0.0115615,227.359,0.0214943,0.00290682,-0.186904,0.422764,-0.234118,0.351957,2.60063e-05,-1.53283e-05,0.465585,-0.17047663319370399,0.4218473829665932,2.6006638166764517e-05,0.5261740763801916,-1.5328182522256206e-05,-0.20873155928944753
611,0.6009,60.9597,848.556,0.011539,227.416,0.0214827,0.0029373,-0.187153,0.423326,-0.23443,0.352426,2.60514e-05,-1.53173e-05,0.466209,-0.1706831587985339,0.42251438578914025,2.6051739340671176e-05,0.5270320272727365,-1.5317182690766096e-05,-0.2089783965343367
612,0.6019,60.9749,848.769,0.0115167,227.473,0.0214711,0.00296772,-0.187402,0.423888,-0.234742,0.352894,2.60965e-05,-1.53063e-05,0.466833,-0.17088963298489013,0.4231802783283898,2.6096840516576236e-05,0.5278904604691979,-1.5306182859164963e-05,-0.20922515677801823
613,0.6029,60.9902,848.981,0.0114944,227.53,0.0214596,0.00299809,-0.187651,0.424449,-0.235054,0.353362,2.61416e-05,-1.52952e-05,0.467456,-0.17109605576557418,0.4238464825782824,2.6141941694701742e-05,0.5287478474920946,-1.5295083028998846e-05,-0.2094718400445129
614,0.6039,61.0054,849.193,0.0114722,227.586,0.021448,0.00302842,-0.1879,0.42501,-0.235366,0.353829,2.61866e-05,-1.52841e-05,0.468078,-0.1713024271533845,0.42451157417244634,2.6186942871930796e-05,0.529605715644055,-1.5283983198721707e-05,-0.20971844635783365
615,0.6049,61.0206,849.404,0.01145,227.643,0.0214365,0.00305869,-0.188149,0.425571,-0.235677,0.354297,2.62315e-05,-1.52729e-05,0.468701,-0.1715087471611163,0.4251784016146094,2.6231844048707487e-05,0.5304640651950687,-1.5272783369879583e-05,-0.20996418570656694
616,0.6059,61.0357,849.615,0.0114279,227.7,0.0214251,0.00308892,-0.188398,0.426131,-0.235988,0.354764,2.62764e-05,-1.52616e-05,0.469322,-0.17171501580156168,0.4258441153602244,2.6276745227704623e-05,0.5313213650931454,-1.5261483542361454e-05,-0.21020984864224557
617,0.6069,61.0509,849.826,0.0114058,227.756,0.0214136,0.00311909,-0.188646,0.426691,-0.236299,0.355231,2.63212e-05,-1.52503e-05,0.469944,-0.17192040500832861,0.42651014006676213,2.6321546405805307e-05,0.5321791452136146,-1.5250183714732302e-05,-0.21045543518863052
618,0.6079,61.066,850.036,0.0113838,227.813,0.0214022,0.00314921,-0.188894,0.427251,-0.23661,0.355697,2.63659e-05,-1.52389e-05,0.470565,-0.17212574328488783,0.42717504870371314,2.6366247583453628e-05,0.5330374058254763,-1.5238783888538165e-05,-0.2107009453694748
619,0.6089,61.0811,850.246,0.0113618,227.869,0.0213908,0.00317931,-0.189143,0.42781,-0.236921,0.356163,2.64106e-05,-1.52274e-05,0.471186,-0.17233185831242404,0.4278402672602948,2.6410948762878306e-05,0.5338946133025009,-1.5227284063779045e-05,-0.21094637920852477
620,0.6099,61.0961,850.456,0.0113399,227.925,0.0213794,0.00320933,-0.189391,0.428369,-0.237232,0.356629,2.64553e-05,-1.52159e-05,0.471806,-0.1725370945612158,0.42850579588096305,2.645564994452343e-05,0.5347523000924606,-1.521578423879788e-05,-0.21119173672951874
621,0.6109,61.1112,850.665,0.0113181,227.981,0.021368,0.00323929,-0.189638,0.428928,-0.237542,0.357095,2.64999e-05,-1.52043e-05,0.472426,-0.17274145265959506,0.42917163471024167,2.6500251125494145e-05,0.5356104664633661,-1.5204184415251731e-05,-0.21143622939281181
622,0.6119,61.1262,850.874,0.0112964,228.037,0.0213567,0.00326922,-0.189886,0.429486,-0.237852,0.35756,2.65444e-05,-1.51927e-05,0.473045,-0.17294658734158352,0.42983635405565224,2.6544752305790453e-05,0.5364675762150339,-1.5192584591483538e-05,-0.21168064627512595
623,0.6129,61.1412,851.082,0.0112746,228.093,0.0213454,0.0032991,-0.190134,0.430044,-0.238162,0.358025,2.65889e-05,-1.51809e-05,0.473665,-0.17315167115647856,0.4305013825674342,2.6589253487863118e-05,0.5373251643674046,-1.5180784770696398e-05,-0.21192498739994958
624,0.6139,61.1561,851.29,0.011253,228.149,0.0213341,0.00332893,-0.190381,0.430601,-0.238472,0.35849,2.66333e-05,-1.51692e-05,0.474283,-0.1733558774731846,0.431166720389383,2.663365466948342e-05,0.538181693005038,-1.5169084948252198e-05,-0.21216925279076382
625,0.6149,61.1711,851.498,0.0112314,228.205,0.0213229,0.00335871,-0.190628,0.431159,-0.238781,0.358955,2.66776e-05,-1.51573e-05,0.474902,-0.17356003335715908,0.4318323676653617,2.6677955850429314e-05,0.5390402379014845,-1.515718512867803e-05,-0.21241265488409133
626,0.6159,61.186,851.706,0.0112098,228.26,0.0213117,0.00338844,-0.190875,0.431716,-0.239091,0.359419,2.67219e-05,-1.51454e-05,0.47552,-0.1737641388208575,0.43249689204169117,2.6722257033151564e-05,0.5398977221011756,-1.514528530899284e-05,-0.2126567691214155
627,0.6169,61.2008,851.913,0.0111883,228.316,0.0213004,0.00341812,-0.191122,0.432272,-0.2394,0.359883,2.67662e-05,-1.51334e-05,0.476137,-0.1739681938767319,0.43316172482887727,2.6766558217872216e-05,0.5407541432976939,-1.5133285490631643e-05,-0.21290002059546886
628,0.6179,61.2157,852.12,0.0111669,228.372,0.0212893,0.00344775,-0.191369,0.432828,-0.239709,0.360346,2.68103e-05,-1.51214e-05,0.476755,-0.17417219853723154,0.43382543234390636,2.681065939924565e-05,0.5416110407967973,-1.5121285672159424e-05,-0.21314319691642836
629,0.6189,61.2305,852.326,0.0111455,228.427,0.0212781,0.00347733,-0.191616,0.433384,-0.240018,0.36081,2.68545e-05,-1.51093e-05,0.477372,-0.17437615281480268,0.43449088171682937,2.6854860585290297e-05,0.5424684148633838,-1.510918585512222e-05,-0.21338629810751286
630,0.6199,61.2454,852.532,0.0111242,228.482,0.021267,0.00350687,-0.191862,0.43394,-0.240326,0.361273,2.68985e-05,-1.50971e-05,0.477988,-0.1745792313015323,0.4351552047739844,2.6898861767987725e-05,0.5433262657624984,-1.509698603940901e-05,-0.21362853782086488
631,0.6209,61.2601,852.738,0.0111029,228.537,0.0212559,0.00353635,-0.192108,0.434495,-0.240635,0.361735,2.69426e-05,-1.50849e-05,0.478604,-0.17478225983709827,0.4358183996648135,2.694296295513432e-05,0.5441830495755122,-1.5084786223473756e-05,-0.21387148906477793
632,0.6219,61.2749,852.943,0.0110817,228.593,0.0212448,0.00356579,-0.192355,0.43505,-0.240943,0.362198,2.69865e-05,-1.50727e-05,0.47922,-0.1749860634481365,0.43648333750508983,2.6986864138933697e-05,0.545040309035522,-1.507258640742748e-05,-0.21411357936232633
633,0.6229,61.2896,853.148,0.0110605,228.648,0.0212337,0.00359518,-0.192601,0.435604,-0.241251,0.36266,2.70304e-05,-1.50603e-05,0.479835,-0.17518899191530335,0.4371471461350036,2.703076532450943e-05,0.5458964985093138,-1.5060186594251235e-05,-0.21435559510754476
634,0.6239,61.3044,853.353,0.0110394,228.702,0.0212227,0.00362452,-0.192846,0.436158,-0.241559,0.363122,2.70743e-05,-1.50479e-05,0.48045,-0.17539104585966525,0.4378112615153582,2.7074666512083567e-05,0.5467531624434874,-1.5047786780963968e-05,-0.21459753632339185
635,0.6249,61.319,853.558,0.0110184,228.757,0.0212116,0.00365381,-0.193092,0.436712,-0.241866,0.363584,2.71181e-05,-1.50354e-05,0.481065,-0.17559387471341192,0.43847568378790513,2.7118467698983295e-05,0.5476103011009665,-1.5035286968889672e-05,-0.21483861787182934
636,0.6259,61.3337,853.762,0.0109974,228.812,0.0212006,0.00368305,-0.193338,0.437265,-0.242174,0.364045,2.71618e-05,-1.50229e-05,0.481679,-0.17579665367739716,0.439138973954768,2.716216888498657e-05,0.5484663662776808,-1.5022787156815376e-05,-0.21508041033957337
637,0.6269,61.3484,853.966,0.0109764,228.867,0.0211897,0.00371225,-0.193583,0.437818,-0.242481,0.364506,2.72055e-05,-1.50103e-05,0.482293,-0.1759985587628633,0.4398025699688899,2.7205870072988247e-05,0.549322904989358,-1.5010187346065074e-05,-0.2153213436684408
638,0.6279,61.363,854.169,0.0109555,228.921,0.0211787,0.00374139,-0.193828,0.438371,-0.242788,0.364967,2.72491e-05,-1.49977e-05,0.482906,-0.17620041438764267,0.4404664719712994,2.7249471260093472e-05,0.5501799174979356,-1.4997587535092727e-05,-0.21556220304212903
639,0.6289,61.3776,854.372,0.0109347,228.976,0.0211678,0.00377049,-0.194073,0.438924,-0.243095,0.365427,2.72927e-05,-1.4985e-05,0.48352,-0.17640222056385169,0.44112923897312983,2.7293072449197098e-05,0.5510374040654955,-1.4984887725444374e-05,-0.21580298848333868
640,0.6299,61.3921,854.575,0.0109139,229.03,0.0211569,0.00379954,-0.194318,0.439476,-0.243402,0.365887,2.73362e-05,-1.49722e-05,0.484132,-0.17660397730360367,0.4417923109179127,2.733657363740427e-05,0.5518938130596762,-1.4972087917120014e-05,-0.2160437000147637
641,0.6309,61.4067,854.777,0.0108932,229.084,0.021146,0.00382854,-0.194563,0.440027,-0.243708,0.366347,2.73796e-05,-1.49594e-05,0.484745,-0.17680568461900925,0.4424556879459538,2.7379974824714992e-05,0.5527491421722028,-1.4959288108684632e-05,-0.21628355394303656
642,0.6319,61.4212,854.979,0.0108725,229.139,0.0211351,0.0038575,-0.194808,0.440579,-0.244015,0.366807,2.7423e-05,-1.49465e-05,0.485357,-0.17700734252217576,0.44311937019762393,2.742337601380207e-05,0.5536064963066529,-1.4946388301573243e-05,-0.21652411796350945
643,0.6329,61.4357,855.181,0.0108519,229.193,0.0211243,0.0038864,-0.195052,0.44113,-0.244321,0.367266,2.74664e-05,-1.49336e-05,0.485968,-0.17720812823374732,0.4437819140307222,2.7466777205109594e-05,0.5544627693676825,-1.4933488494350833e-05,-0.21676382490638002
644,0.6339,61.4502,855.383,0.0108313,229.247,0.0211135,0.00391526,-0.195297,0.441681,-0.244627,0.367725,2.75097e-05,-1.49206e-05,0.486579,-0.17740968755030562,0.4444447620412433,2.751007839529862e-05,0.555319514365175,-1.4920488688452416e-05,-0.21700345851014735
645,0.6349,61.4646,855.584,0.0108108,229.301,0.0211027,0.00394407,-0.195541,0.442231,-0.244932,0.368184,2.75529e-05,-1.49075e-05,0.48719,-0.17761037510166633,0.44510791436883657,2.7553279584591195e-05,0.5561751753832862,-1.490738888376697e-05,-0.21724223603987747
646,0.6359,61.4791,855.784,0.0107904,229.355,0.0210919,0.00397283,-0.195785,0.442781,-0.245238,0.368643,2.75961e-05,-1.48944e-05,0.487801,-0.1778110136912382,0.44577137115321563,2.759648077588217e-05,0.5570313071443995,-1.4894289078970502e-05,-0.21748172327223403
647,0.6369,61.4935,855.985,0.01077,229.408,0.0210812,0.00400155,-0.196029,0.443331,-0.245543,0.369101,2.76393e-05,-1.48812e-05,0.488411,-0.17801160333096633,0.4464336860997491,2.7639681968949503e-05,0.5578879099074954,-1.4881089275498027e-05,-0.21772035495345465
648,0.6379,61.5078,856.185,0.0107496,229.462,0.0210705,0.00403022,-0.196273,0.44388,-0.245849,0.369559,2.76823e-05,-1.4868e-05,0.489021,-0.17821214403279295,0.4470963044560037,2.7682683158447574e-05,0.5587434251874912,-1.4867889471803508e-05,-0.21795969590380593
649,0.6389,61.5222,856.385,0.0107293,229.516,0.0210598,0.00405884,-0.196516,0.444429,-0.246154,0.370017,2.77254e-05,-1.48547e-05,0.48963,-0.1784118142208826,0.44775922636097265,2.772578435239481e-05,0.559599410274326,-1.4854589669544005e-05,-0.21819818182560347
650,0.6399,61.5365,856.584,0.010709,229.569,0.0210491,0.00408741,-0.19676,0.444978,-0.246458,0.370474,2.77683e-05,-1.48413e-05,0.490239,-0.17861225728316465,0.44842100353198555,2.7768685542772786e-05,0.5604558654259941,-1.4841189868497473e-05,-0.21843581345649055
651,0.6409,61.5508,856.784,0.0106888,229.623,0.0210384,0.00411593,-0.197003,0.445526,-0.246763,0.370931,2.78113e-05,-1.48279e-05,0.490848,-0.1788118302555467,0.4490830832042818,2.7811686737821972e-05,0.5613112295886225,-1.4827790067228896e-05,-0.21867415418457758
652,0.6419,61.5651,856.982,0.0106687,229.676,0.0210278,0.00414441,-0.197246,0.446074,-0.247068,0.371388,2.78541e-05,-1.48144e-05,0.491456,-0.17901135473758822,0.44974546551613637,2.7854487929079852e-05,0.5621670626192701,-1.4814290267284314e-05,-0.21891242222982732
653,0.6429,61.5794,857.181,0.0106486,229.729,0.0210172,0.00417284,-0.197489,0.446622,-0.247372,0.371845,2.78969e-05,-1.48009e-05,0.492064,-0.17921083074107091,0.4504081506058868,2.789728912211409e-05,0.5630233647749467,-1.4800790467228708e-05,-0.21914983676463173
654,0.6439,61.5937,857.379,0.0106285,229.782,0.0210066,0.00420122,-0.197732,0.447169,-0.247676,0.372301,2.79397e-05,-1.47873e-05,0.492671,-0.1794102582777738,0.4510696875415212,2.7940090317146726e-05,0.5638785724334494,-1.4787190668386074e-05,-0.21938717913638695
655,0.6449,61.6079,857.577,0.0106085,229.836,0.020996,0.00422956,-0.197975,0.447716,-0.24798,0.372757,2.79824e-05,-1.47737e-05,0.493278,-0.17960963735947277,0.4517315262067876,2.7982791511060867e-05,0.5647342480185076,-1.4773590869432418e-05,-0.21962444936702719
656,0.6459,61.6221,857.775,0.0105886,229.889,0.0209854,0.00425785,-0.198217,0.448263,-0.248284,0.373213,2.80251e-05,-1.476e-05,0.493885,-0.1798081478064989,0.4523936667393056,2.8025492706751365e-05,0.5655903917861469,-1.4759891071691733e-05,-0.21986164747847992
657,0.6469,61.6362,857.972,0.0105687,229.941,0.0209749,0.00428609,-0.19846,0.44881,-0.248587,0.373668,2.80677e-05,-1.47462e-05,0.494492,-0.18000743021278898,0.45305465622137575,2.806809390154541e-05,0.5664470039925336,-1.4746091275275042e-05,-0.22009799359104965
658,0.6479,61.6504,858.169,0.0105489,229.994,0.0209644,0.00431429,-0.198702,0.449356,-0.248891,0.374123,2.81102e-05,-1.47324e-05,0.495098,-0.18020584440559184,0.45371594652209124,2.8110595095443003e-05,0.5673025175906723,-1.4732291478747328e-05,-0.22033504776693758
659,0.6489,61.6645,858.366,0.0105291,230.047,0.0209539,0.00434244,-0.198944,0.449901,-0.249194,0.374578,2.81527e-05,-1.47186e-05,0.495703,-0.18040421058796952,0.4543775377783559,2.8153096290894908e-05,0.5681569302690654,-1.4718491681886547e-05,-0.22057125046094894
660,0.6499,61.6786,858.562,0.0105093,230.1,0.0209434,0.00437054,-0.199186,0.450447,-0.249497,0.375033,2.81952e-05,-1.47046e-05,0.496309,-0.18060252877153915,0.4550394301271352,2.8195597488345214e-05,0.5690133777418758,-1.4704491887895799e-05,-0.2208073815963857
661,0.6509,61.6927,858.758,0.0104896,230.152,0.020933,0.00439859,-0.199428,0.450992,-0.249799,0.375487,2.82376e-05,-1.46906e-05,0.496914,-0.180800798967915,0.45570016800456203,2.8237998684677024e-05,0.5698687230931818,-1.4690492093683005e-05,-0.22104266223797842
662,0.6519,61.7068,858.954,0.01047,230.205,0.0209226,0.0044266,-0.19967,0.451536,-0.250102,0.375941,2.82799e-05,-1.46766e-05,0.497518,-0.1809990211887087,0.4563612059250899,2.828029988011238e-05,0.5707229640110074,-1.4676492299248167e-05,-0.22127865055728446
663,0.6529,61.7208,859.149,0.0104504,230.257,0.0209122,0.00445456,-0.199911,0.452081,-0.250405,0.376395,2.83222e-05,-1.46625e-05,0.498122,-0.1811963766423148,0.4570225440249691,2.8322601077324094e-05,0.5715792413407712,-1.46623925060263e-05,-0.2215145673829616
664,0.6539,61.7348,859.344,0.0104309,230.31,0.0209018,0.00448248,-0.200153,0.452625,-0.250707,0.376848,2.83644e-05,-1.46484e-05,0.498726,-0.1813945031448937,0.45768272475705873,2.836480227341731e-05,0.5724344130336714,-1.4648292712693411e-05,-0.22174963448669271
665,0.6549,61.7488,859.539,0.0104114,230.362,0.0208914,0.00451035,-0.200394,0.453169,-0.251009,0.377302,2.84066e-05,-1.46342e-05,0.49933,-0.18159176329883242,0.4583446629627015,2.8407003471286885e-05,0.5732900500665334,-1.4634092920573494e-05,-0.22198463061087692
666,0.6559,61.7628,859.733,0.0103919,230.414,0.0208811,0.00453817,-0.200635,0.453712,-0.251311,0.377755,2.84488e-05,-1.46199e-05,0.499933,-0.18178897591880216,0.4590054427503456,2.8449204670932815e-05,0.5741445785472057,-1.461979312977757e-05,-0.22221955577694685
667,0.6569,61.7768,859.928,0.0103725,230.466,0.0208708,0.00456595,-0.200876,0.454255,-0.251612,0.378207,2.84908e-05,-1.46056e-05,0.500536,-0.1819861410162572,0.45966506227325077,2.849120586678744e-05,0.5749995711628442,-1.4605493338759601e-05,-0.22245363246034988
668,0.6579,61.7907,860.121,0.0103532,230.518,0.0208605,0.00459368,-0.201117,0.454798,-0.251914,0.37866,2.85329e-05,-1.45912e-05,0.501138,-0.18218325860264906,0.460326440337282,2.853330706709123e-05,0.5758550281655426,-1.4591093548954603e-05,-0.2226884160092465
669,0.6589,61.8046,860.315,0.0103339,230.57,0.0208502,0.00462136,-0.201358,0.45534,-0.252215,0.379112,2.85749e-05,-1.45768e-05,0.50174,-0.18238032868942655,0.46098665708605924,2.8575308266276522e-05,0.5767093730973702,-1.4576693758927561e-05,-0.22292235158695706
670,0.6599,61.8185,860.508,0.0103146,230.622,0.0208399,0.004649,-0.201598,0.455882,-0.252517,0.379564,2.86168e-05,-1.45623e-05,0.502342,-0.1825765338649783,0.46164717232025954,2.8617209464565363e-05,0.5775641812096612,-1.4562193970224513e-05,-0.22315699360404984
671,0.6609,61.8324,860.701,0.0102991,230.674,0.0208318,0.00467803,-0.201839,0.456424,-0.252818,0.380015,2.86588e-05,-1.45479e-05,0.502943,-0.1827735091838375,0.46230652386757387,2.865921066730337e-05,0.578419452753528,-1.4547794179864404e-05,-0.223390788161129
672,0.6619,61.8462,860.894,0.0102695,230.725,0.0208171,0.00470252,-0.202079,0.456966,-0.253118,0.380467,2.87006e-05,-1.45334e-05,0.503544,-0.18296962000739325,0.46296763581640676,2.870101186625007e-05,0.5792751879802183,-1.4533294390606244e-05,-0.22362373598076057
673,0.6629,61.86,861.086,0.0102615,230.777,0.0208108,0.00473282,-0.202319,0.457507,-0.253419,0.380918,2.87425e-05,-1.45189e-05,0.504145,-0.18316568376999887,0.46362758302706975,2.8742913069645937e-05,0.580129807010519,-1.4518794601237062e-05,-0.22385739006952587
674,0.6639,61.8738,861.278,0.0102346,230.828,0.020798,0.00475875,-0.202559,0.458048,-0.253719,0.381369,2.87843e-05,-1.45043e-05,0.504745,-0.18336170048294753,0.46428782794105206,2.8784714271923306e-05,0.580984888514803,-1.4504194813191873e-05,-0.22409019792957996
675,0.6649,61.8876,861.47,0.0102217,230.88,0.0207899,0.00478763,-0.202799,0.458588,-0.25402,0.381819,2.88261e-05,-1.44896e-05,0.505345,-0.1835576701575301,0.4649469057450095,2.8826515475977033e-05,0.5818388509036947,-1.4489495026248633e-05,-0.22432371163442755
676,0.6659,61.9014,861.662,0.0101981,230.931,0.0207782,0.00481407,-0.203038,0.459128,-0.25432,0.382269,2.88677e-05,-1.4475e-05,0.505944,-0.18375277655821876,0.46560628020072037,2.8868116676017408e-05,0.5826932745568065,-1.4474895237648333e-05,-0.22455637961899455
677,0.6669,61.9151,861.853,0.0101828,230.983,0.0207693,0.00484228,-0.203278,0.459668,-0.25462,0.382719,2.89094e-05,-1.44602e-05,0.506543,-0.18394865238580527,0.4662659514417078,2.8909817880728994e-05,0.5835481597232886,-1.4460095451807042e-05,-0.22478897781363516
678,0.6679,61.9288,862.044,0.0101612,231.034,0.0207583,0.00486906,-0.203517,0.460207,-0.254919,0.383169,2.8951e-05,-1.44454e-05,0.507142,-0.18414366535290727,0.4669259196015556,2.8951419084322083e-05,0.5844019222497105,-1.4445295665743707e-05,-0.225020731260402
679,0.6689,61.9425,862.234,0.0101445,231.085,0.020749,0.00489685,-0.203757,0.460747,-0.255219,0.383619,2.89925e-05,-1.44305e-05,0.507741,-0.18433944737843977,0.4675861848139071,2.899292028657463e-05,0.5852577303351123,-1.443039588078232e-05,-0.22525319017044387
680,0.6699,61.9562,862.425,0.0101241,231.136,0.0207384,0.00492379,-0.203996,0.461286,-0.255518,0.384068,2.9034e-05,-1.44156e-05,0.508339,-0.1845343669566989,0.46824527896645307,2.9034421490603535e-05,0.5861124145684717,-1.4415496095709912e-05,-0.22548480483846456
681,0.6709,61.9698,862.615,0.0101066,231.187,0.0207288,0.0049513,-0.204235,0.461824,-0.255817,0.384517,2.90755e-05,-1.44006e-05,0.508936,-0.18472923995474533,0.4689046691187202,2.9075922696408796e-05,0.5869659726340413,-1.4400496311850475e-05,-0.22571635026405168
682,0.6719,61.9835,862.804,0.010087,231.238,0.0207185,0.00497829,-0.204473,0.462362,-0.256116,0.384965,2.91169e-05,-1.43856e-05,0.509534,-0.1849232513073693,0.46956288584002204,2.911732390109556e-05,0.5878199900374006,-1.4385496527768993e-05,-0.2259478264679058
683,0.6729,61.9971,862.994,0.0100691,231.289,0.0207087,0.00500559,-0.204712,0.4629,-0.256415,0.385414,2.91582e-05,-1.43706e-05,0.510131,-0.18511803137316185,0.47022286773061106,2.9158625104441782e-05,0.5886744670257404,-1.4370496743465466e-05,-0.2261792334707209
684,0.6739,62.0107,863.183,0.0100499,231.339,0.0206986,0.00503258,-0.204951,0.463438,-0.256714,0.385862,2.91995e-05,-1.43554e-05,0.510728,-0.18531276489208126,0.4708816751371945,2.919992630956436e-05,0.5895294038463836,-1.4355296961698905e-05,-0.2264105712931852
685,0.6749,62.0242,863.372,0.0100318,231.39,0.0206888,0.00505973,-0.205189,0.463975,-0.257012,0.38631,2.92408e-05,-1.43403e-05,0.511324,-0.18550663738229545,0.47154077775561887,2.9241227516463297e-05,0.5903832103627813,-1.4340197178386305e-05,-0.22664106659743377
686,0.6759,62.0378,863.56,0.010013,231.44,0.0206788,0.00508667,-0.205427,0.464512,-0.257311,0.386757,2.9282e-05,-1.4325e-05,0.51192,-0.1857004637363474,0.4721987035187287,2.928242872202169e-05,0.5912374754964058,-1.4324897397721692e-05,-0.2268722663524353
687,0.6769,62.0513,863.748,0.0099948,231.491,0.0206689,0.00511369,-0.205665,0.465048,-0.257609,0.387205,2.93232e-05,-1.43097e-05,0.512515,-0.18589424396521614,0.47285839629805415,2.9323629929134398e-05,0.5920906074021974,-1.4309597616724012e-05,-0.2271026240920544
688,0.6779,62.0648,863.936,0.00997622,231.541,0.020659,0.00514058,-0.205903,0.465585,-0.257907,0.387652,2.93643e-05,-1.42944e-05,0.513111,-0.1860879780798783,0.4735169111683082,2.9364731135350652e-05,0.5929457896542565,-1.4294297835504288e-05,-0.22733291319529436
689,0.6789,62.0783,864.124,0.00995801,231.592,0.0206492,0.00516748,-0.206141,0.466121,-0.258205,0.388098,2.94053e-05,-1.4279e-05,0.513705,-0.1862816660913077,0.47417424628552407,2.940573234000432e-05,0.5937998374618765,-1.4278898055608558e-05,-0.22756313368260583
690,0.6799,62.0918,864.311,0.0099396,231.642,0.0206393,0.00519429,-0.206379,0.466656,-0.258502,0.388545,2.94463e-05,-1.42636e-05,0.5143,-0.18647530801047552,0.47483334947220124,2.944673354665639e-05,0.5946527485082798,-1.426349827537976e-05,-0.22779251336733286
691,0.6809,62.1052,864.498,0.00992141,231.692,0.0206295,0.0052211,-0.206616,0.467192,-0.2588,0.388991,2.94873e-05,-1.42481e-05,0.514894,-0.18666809051684763,0.4754912718518507,2.9487734754640726e-05,0.5955077114910907,-1.4247998496252912e-05,-0.22802259691419813
692,0.6819,62.1186,864.685,0.00990313,231.742,0.0206197,0.00524782,-0.206854,0.467727,-0.259097,0.389437,2.95282e-05,-1.42325e-05,0.515488,-0.18686164047794562,0.4761494877303267,2.9528635961506566e-05,0.5963615364945614,-1.4232398718450057e-05,-0.22825184015860778
693,0.6829,62.132,864.872,0.00988501,231.792,0.0206099,0.00527453,-0.207091,0.468261,-0.259394,0.389883,2.95691e-05,-1.4217e-05,0.516081,-0.1870543314343721,0.47680799723855904,2.9569537170148763e-05,0.5972142212016038,-1.4216898938879119e-05,-0.22848101532788345
694,0.6839,62.1454,865.058,0.00986685,231.842,0.0206001,0.00530118,-0.207328,0.468796,-0.259691,0.390328,2.96099e-05,-1.42013e-05,0.516675,-0.18724697672845314,0.47746532304147427,2.9610338377450418e-05,0.5980689594320361,-1.420119916206719e-05,-0.22871012244224043
695,0.6849,62.1588,865.244,0.00984879,231.892,0.0205903,0.00532779,-0.207565,0.46933,-0.259987,0.390774,2.96506e-05,-1.41856e-05,0.517267,-0.18743957637100928,0.4781244195431451,2.965103958341153e-05,0.5989225561464115,-1.4185499384811173e-05,-0.2289383904606641
696,0.6859,62.1721,865.43,0.00983073,231.942,0.0205806,0.00535435,-0.207802,0.469864,-0.260284,0.391218,2.96914e-05,-1.41699e-05,0.51786,-0.18763213037285886,0.4787808525027555,2.9691840794043856e-05,0.5997766088031582,-1.4169799607444133e-05,-0.22916736175477703
697,0.6869,62.1854,865.615,0.00981275,231.992,0.0205709,0.00538087,-0.208039,0.470397,-0.26058,0.391663,2.9732e-05,-1.41541e-05,0.518452,-0.18782463874481736,0.4794390564216293,2.973244200021874e-05,0.6006295170154972,-1.4153999831179043e-05,-0.22939549445039298
698,0.6879,62.1987,865.8,0.00979479,232.041,0.0205612,0.00540734,-0.208275,0.47093,-0.260876,0.392107,2.97726e-05,-1.41382e-05,0.519044,-0.1880162895143932,0.480096073209614,2.977304320816998e-05,0.6014828799490857,-1.4138100056126923e-05,-0.22962355962872405
699,0.6889,62.212,865.985,0.0097769,232.091,0.0205515,0.00543377,-0.208511,0.471463,-0.261172,0.392552,2.98132e-05,-1.41223e-05,0.519635,-0.18820789505972413,0.4807548625319451,2.9813644417897578e-05,0.6023366978463547,-1.4122200280741737e-05,-0.22985155730975249
700,0.6899,62.2253,866.169,0.00975903,232.14,0.0205418,0.00546015,-0.208748,0.471995,-0.261468,0.392995,2.98538e-05,-1.41064e-05,0.520226,-0.1884002669916206,0.48141098225583545,2.9854245629179488e-05,0.6031893677596953,-1.4106300505245528e-05,-0.23007948751345442
701,0.6909,62.2385,866.354,0.00974122,232.19,0.0205322,0.00548649,-0.208984,0.472527,-0.261764,0.393439,2.98942e-05,-1.40904e-05,0.520817,-0.1885917819289591,0.48206887477328797,2.9894646836003957e-05,0.6040424914141143,-1.4090300730740246e-05,-0.23030735025980031
702,0.6919,62.2518,866.538,0.00972345,232.239,0.0205226,0.00551279,-0.20922,0.473059,-0.262059,0.393882,2.99347e-05,-1.40743e-05,0.521407,-0.18878325167410526,0.482725576733557,2.9935148047499638e-05,0.6048960690510663,-1.4074200957558958e-05,-0.23053437610351535
703,0.6929,62.265,866.721,0.00970572,232.288,0.020513,0.00553904,-0.209456,0.473591,-0.262355,0.394325,2.99751e-05,-1.40582e-05,0.521997,-0.18897467623772324,0.48338256967724247,2.997554925787682e-05,0.6057501009121338,-1.405810118393358e-05,-0.23076210422276433
704,0.6939,62.2781,866.905,0.00968803,232.338,0.0205034,0.00556525,-0.209691,0.474122,-0.26265,0.394768,3.00154e-05,-1.40421e-05,0.522587,-0.18916524479612473,0.4840398537332786,3.001585046669142e-05,0.6066029806352446,-1.404200141019718e-05,-0.2309889959338458
705,0.6949,62.2913,867.088,0.0096704,232.387,0.0204938,0.00559141,-0.209927,0.474653,-0.262945,0.395211,3.00557e-05,-1.40259e-05,0.523176,-0.18935657922000282,0.4846974290306567,3.0056151677060328e-05,0.6074563133577493,-1.402580163756273e-05,-0.23121582072174418
706,0.6959,62.3044,867.271,0.0096528,232.436,0.0204842,0.00561753,-0.210162,0.475184,-0.26324,0.395653,3.00959e-05,-1.40096e-05,0.523765,-0.18954705804174798,0.48535381034387237,3.0096352886088695e-05,0.6083100993202541,-1.4009501866030227e-05,-0.23144257860619877
707,0.6969,62.3176,867.454,0.00963524,232.485,0.0204747,0.0056436,-0.210398,0.475714,-0.263534,0.396095,3.01361e-05,-1.39934e-05,0.524353,-0.1897383023683319,0.48601048184175455,3.013655409689342e-05,0.6091627295999593,-1.3993302092840665e-05,-0.23166850127582883
708,0.6979,62.3307,867.636,0.00961773,232.534,0.0204652,0.00566963,-0.210633,0.476244,-0.263829,0.396537,3.01763e-05,-1.3977e-05,0.524942,-0.1899286914956767,0.4866674436525933,3.0176755309030412e-05,0.610015811893486,-1.3976902322188067e-05,-0.23189512563921533
709,0.6989,62.3438,867.818,0.00960026,232.583,0.0204557,0.00569562,-0.210868,0.476773,-0.264123,0.396978,3.02164e-05,-1.39606e-05,0.525529,-0.19011903588683332,0.48732320858078304,3.0216856520048907e-05,0.6108677355719236,-1.3960502551313425e-05,-0.2321209152795739
710,0.6999,62.3568,868.0,0.00958284,232.631,0.0204462,0.00572157,-0.211103,0.477303,-0.264417,0.39742,3.02564e-05,-1.39442e-05,0.526117,-0.19030933555231344,0.48798075074508906,3.0256857729504816e-05,0.6117217217581257,-1.3944102780105716e-05,-0.23234663854753546
711,0.7009,62.3699,868.181,0.00956546,232.68,0.0204367,0.00574747,-0.211337,0.477832,-0.264711,0.397861,3.02965e-05,-1.39277e-05,0.526704,-0.19049878100181217,0.48863709496943186,3.0296958943631935e-05,0.6125745481016156,-1.3927603009999956e-05,-0.2325722954626106
712,0.7019,62.3829,868.363,0.00954812,232.729,0.0204273,0.00577332,-0.211572,0.47836,-0.265005,0.398302,3.03364e-05,-1.39111e-05,0.527291,-0.19068899143767515,0.4892937287054102,3.0336860153301615e-05,0.6134262122825711,-1.3911003241107167e-05,-0.23279788604430407
713,0.7029,62.3959,868.544,0.00953082,232.777,0.0204178,0.00579914,-0.211807,0.478889,-0.265298,0.398742,3.03763e-05,-1.38946e-05,0.527878,-0.19087915717933746,0.48994916213081985,3.0376761364525606e-05,0.6142799405400836,-1.3894503470446296e-05,-0.2330226433351421
714,0.7039,62.4089,868.724,0.00951356,232.826,0.0204084,0.00582491,-0.212041,0.479417,-0.265592,0.399182,3.04162e-05,-1.38779e-05,0.528464,-0.19106846930617483,0.49060488401039204,3.041666257730391e-05,0.6151325054060066,-1.3877803702433411e-05,-0.2332481015340223
715,0.7049,62.4218,868.905,0.00949635,232.874,0.020399,0.00585063,-0.212275,0.479945,-0.265885,0.399622,3.0456e-05,-1.38612e-05,0.52905,-0.19125773713915706,0.49126089447107435,3.0456463788741672e-05,0.6159855205450404,-1.3861103933976437e-05,-0.23347272693104526
716,0.7059,62.4348,869.085,0.00947918,232.923,0.0203896,0.00587632,-0.212509,0.480472,-0.266178,0.400062,3.04958e-05,-1.38445e-05,0.529635,-0.19144696068864786,0.4919171936398703,3.0496265001733747e-05,0.6168373693568143,-1.384440416529742e-05,-0.2336972865224678
717,0.7069,62.4477,869.265,0.00946205,232.971,0.0203803,0.00590196,-0.212743,0.480999,-0.266471,0.400501,3.05356e-05,-1.38277e-05,0.53022,-0.19163613996500817,0.4925722890708044,3.053606621628013e-05,0.6176896672112244,-1.3827604397831372e-05,-0.23392178032756816
718,0.7079,62.4606,869.445,0.00944496,233.019,0.0203709,0.00592756,-0.212977,0.481526,-0.266763,0.400941,3.05753e-05,-1.38109e-05,0.530805,-0.1918252749785967,0.49322916538018613,3.0575767429263934e-05,0.6185424143449785,-1.3810804629921236e-05,-0.23414544251144453
719,0.7089,62.4735,869.624,0.00942792,233.067,0.0203616,0.00595311,-0.21321,0.482053,-0.267056,0.401379,3.06149e-05,-1.3794e-05,0.531389,-0.19201355775373163,0.493883343009065,3.061536864090719e-05,0.619395610994909,-1.3793904863224071e-05,-0.23436980502607518
720,0.7099,62.4864,869.803,0.00941091,233.115,0.0203523,0.00597862,-0.213444,0.482579,-0.267348,0.401818,3.06545e-05,-1.37771e-05,0.531974,-0.19220260446188975,0.49453930176905914,3.065496985388272e-05,0.6202476371495265,-1.377700509619384e-05,-0.2345933364058378
721,0.7109,62.4992,869.982,0.00939395,233.163,0.020343,0.00600409,-0.213677,0.483105,-0.26764,0.402257,3.06941e-05,-1.37602e-05,0.532557,-0.19239079932949665,0.4951955485581665,3.06945710686346e-05,0.6211001115877894,-1.376010532883054e-05,-0.2348168025239663
722,0.7119,62.5121,870.161,0.00937703,233.211,0.0203337,0.00602952,-0.213911,0.483631,-0.267933,0.402695,3.07336e-05,-1.37432e-05,0.533141,-0.19257975777345337,0.49585058765152445,3.07340722818239e-05,0.6219530345455571,-1.3743105562680213e-05,-0.23504096835892818
723,0.7129,62.5249,870.339,0.00936015,233.259,0.0203244,0.0060549,-0.214144,0.484156,-0.268224,0.403133,3.0773e-05,-1.37261e-05,0.533724,-0.19276786477457553,0.49650591371484687,3.0773473493672654e-05,0.6228047834532182,-1.3726005797520813e-05,-0.2352635390515294
724,0.7139,62.5377,870.517,0.00934331,233.307,0.0203152,0.00608024,-0.214377,0.484681,-0.268516,0.40357,3.08125e-05,-1.3709e-05,0.534307,-0.1929559279518721,0.49716002971307627,3.0812974709970575e-05,0.6236569796464579,-1.3708906032139367e-05,-0.23548680949905454
725,0.7149,62.5505,870.695,0.00932651,233.354,0.020306,0.00610554,-0.214609,0.485206,-0.268808,0.404008,3.08518e-05,-1.36918e-05,0.534889,-0.19314314045909664,0.4978159294376443,3.085227592158901e-05,0.6245096233601632,-1.3691706267748849e-05,-0.23571001476112663
726,0.7159,62.5632,870.873,0.00930975,233.402,0.0202968,0.00613079,-0.214842,0.48573,-0.269099,0.404445,3.08912e-05,-1.36746e-05,0.535471,-0.19333111620734467,0.4984706180378491,3.0891677138100704e-05,0.6253610894674413,-1.3674506503136286e-05,-0.23593239078954975
727,0.7169,62.576,871.05,0.00929303,233.45,0.0202876,0.00615601,-0.215075,0.486254,-0.26939,0.404882,3.09305e-05,-1.36574e-05,0.536053,-0.19351904816234533,0.49912559279949376,3.0930978352827765e-05,0.6262130018598762,-1.3657306738190655e-05,-0.23615470211596323
728,0.7179,62.5887,871.227,0.00927636,233.497,0.0202784,0.00618118,-0.215307,0.486778,-0.269681,0.405318,3.09697e-05,-1.36401e-05,0.536634,-0.1937061300408346,0.49977935406755414,3.0970179566214284e-05,0.6270653607713823,-1.3640006974235952e-05,-0.23637694875919257
729,0.7189,62.6014,871.404,0.00925972,233.544,0.0202692,0.00620631,-0.215539,0.487301,-0.269972,0.405755,3.10089e-05,-1.36228e-05,0.537215,-0.1938931685213625,0.5004349008718261,3.100938078093307e-05,0.6279165385186449,-1.3622707210059204e-05,-0.23659913073805783
730,0.7199,62.6141,871.58,0.00924313,233.592,0.0202601,0.00623139,-0.215772,0.487825,-0.270263,0.406191,3.10481e-05,-1.36054e-05,0.537796,-0.19408096953342946,0.5010892331226713,3.104858199720617e-05,0.6287697903172764,-1.3605307446984405e-05,-0.2368212480713736
731,0.7209,62.6268,871.757,0.00922657,233.639,0.0202509,0.00625644,-0.216004,0.488347,-0.270553,0.406627,3.10872e-05,-1.3588e-05,0.538377,-0.194267921061282,0.5017438507245799,3.1087683211916683e-05,0.6296202300932925,-1.3587907683576539e-05,-0.23704253782086837
732,0.7219,62.6394,871.933,0.00921005,233.686,0.0202418,0.00628144,-0.216235,0.48887,-0.270843,0.407062,3.11262e-05,-1.35705e-05,0.538957,-0.1944540236758373,0.5023972514039896,3.1126684425286655e-05,0.6304727443866869,-1.35704079211596e-05,-0.23726376340564015
733,0.7229,62.652,872.109,0.00919358,233.734,0.0202327,0.0063064,-0.216467,0.489392,-0.271134,0.407498,3.11652e-05,-1.3553e-05,0.539536,-0.1946408886651676,0.5030524394262117,3.1165685639988894e-05,0.6313240733367815,-1.3552908158520616e-05,-0.23748568735898778
734,0.7239,62.6646,872.284,0.00917714,233.781,0.0202237,0.00633132,-0.216699,0.489914,-0.271424,0.407933,3.12042e-05,-1.35354e-05,0.540116,-0.19482771030684887,0.5037064094655332,3.12046868560234e-05,0.6321758467965952,-1.3535308396872558e-05,-0.23770678444902615
735,0.7249,62.6772,872.459,0.00916074,233.828,0.0202146,0.0063562,-0.21693,0.490436,-0.271713,0.408368,3.12432e-05,-1.35178e-05,0.540695,-0.1950136836250228,0.5043606640437048,3.1243688073834264e-05,0.6330280649982223,-1.3517708635002457e-05,-0.23792705535764092
736,0.7259,62.6898,872.634,0.00914439,233.875,0.0202055,0.00638103,-0.217162,0.490957,-0.272003,0.408802,3.12821e-05,-1.35002e-05,0.541273,-0.19520041878830519,0.5050136982700766,3.128258929008254e-05,0.6338790942939676,-1.3500108872688266e-05,-0.23814802446951733
737,0.7269,62.7024,872.809,0.00912807,233.921,0.0201965,0.00640582,-0.217393,0.491478,-0.272293,0.409237,3.13209e-05,-1.34825e-05,0.541852,-0.19538630602076323,0.5056685216425818,3.132139050454619e-05,0.6347305670914982,-1.3482409111476024e-05,-0.23836892950964228
738,0.7279,62.7149,872.984,0.00911179,233.968,0.0201875,0.00643058,-0.217624,0.491999,-0.272582,0.409671,3.13597e-05,-1.34647e-05,0.54243,-0.1955721503182296,0.5063221236023407,3.1360191720564146e-05,0.6355824836219386,-1.346460935136573e-05,-0.23858900908598335
739,0.7289,62.7274,873.158,0.00909555,234.015,0.0201785,0.00645529,-0.217855,0.492519,-0.272871,0.410105,3.13985e-05,-1.3447e-05,0.543008,-0.19575795169062138,0.5069760092869142,3.1398992938136416e-05,0.6364332076825079,-1.3446909589487355e-05,-0.23880902506851676
740,0.7299,62.7399,873.332,0.00907935,234.062,0.0201695,0.00647996,-0.218086,0.49304,-0.27316,0.410538,3.14372e-05,-1.34291e-05,0.543585,-0.19594371014785306,0.5076286711900402,3.1437694153924056e-05,0.6372860115198198,-1.3429009830034921e-05,-0.23902897747561824
741,0.7309,62.7524,873.506,0.00906319,234.108,0.0201605,0.00650459,-0.218316,0.49356,-0.273449,0.410972,3.14759e-05,-1.34113e-05,0.544162,-0.1961286218288606,0.5082831240393324,3.147639537126601e-05,0.638137621645253,-1.3411210068925428e-05,-0.23924886632565845
742,0.7319,62.7649,873.679,0.00904707,234.155,0.0201516,0.00652917,-0.218547,0.494079,-0.273737,0.411405,3.15145e-05,-1.33933e-05,0.544739,-0.1963142946711791,0.5089363520456989,3.1514996587045374e-05,0.6389880357342539,-1.3393210310130854e-05,-0.23946793110531428
743,0.7329,62.7773,873.853,0.00903098,234.201,0.0201426,0.00655372,-0.218777,0.494598,-0.274026,0.411838,3.15531e-05,-1.33754e-05,0.545315,-0.19649912112754753,0.5095898629610371,3.155359780437905e-05,0.6398388913027211,-1.3375310549790242e-05,-0.23968769311608473
744,0.7339,62.7898,874.026,0.00901494,234.248,0.0201337,0.00657822,-0.219008,0.495117,-0.274314,0.41227,3.15916e-05,-1.33574e-05,0.545891,-0.19668470839441243,0.5102421466649723,3.15920990199281e-05,0.6406901885798417,-1.3357310790329535e-05,-0.23990663153182212
745,0.7349,62.8022,874.198,0.00899893,234.294,0.0201248,0.00660269,-0.219238,0.495636,-0.274602,0.412703,3.16301e-05,-1.33393e-05,0.546467,-0.1968694496654212,0.5108962231118095,3.1630600236809414e-05,0.6415419277949224,-1.3339211031970777e-05,-0.24012550690237477
746,0.7359,62.8146,874.371,0.00898296,234.34,0.0201159,0.00662711,-0.219468,0.496154,-0.27489,0.413135,3.16686e-05,-1.33212e-05,0.547042,-0.19705414845082359,0.5115490712852462,3.1669101455467086e-05,0.6423924667840999,-1.332111127316793e-05,-0.24034431924589694
747,0.7369,62.827,874.543,0.00896703,234.387,0.0201071,0.00665149,-0.219698,0.496672,-0.275178,0.413567,3.1707e-05,-1.33031e-05,0.547617,-0.19723880476039035,0.5122022015500212,3.1707502672340127e-05,0.6432434464666037,-1.3303011514143037e-05,-0.2405630685805379
748,0.7379,62.8393,874.715,0.00895114,234.433,0.0200982,0.00667583,-0.219927,0.49719,-0.275466,0.413998,3.17454e-05,-1.32849e-05,0.548192,-0.19742261602690692,0.5128541011731664,3.1745903890545435e-05,0.6440948670707718,-1.3284811756109072e-05,-0.24078175492444165
749,0.7389,62.8517,874.887,0.00893528,234.479,0.0200893,0.00670013,-0.220157,0.497708,-0.275753,0.41443,3.17837e-05,-1.32667e-05,0.548766,-0.19760718759867624,0.5135077953326455,3.178420510718816e-05,0.6449467288250608,-1.326661199774204e-05,-0.24099961929574565
750,0.7399,62.864,875.059,0.00891947,234.525,0.0200805,0.00672439,-0.220386,0.498225,-0.276041,0.414861,3.1822e-05,-1.32485e-05,0.549341,-0.19779091451518138,0.5141602577879927,3.182250632516315e-05,0.6457973861598367,-1.324841223904194e-05,-0.24121817993114625
751,0.7409,62.8763,875.23,0.00890369,234.571,0.0200717,0.00674861,-0.220616,0.498742,-0.276328,0.415292,3.18602e-05,-1.32302e-05,0.549914,-0.19797540138803926,0.5148130015152681,3.186070754157555e-05,0.6466484833981603,-1.3230112481332768e-05,-0.24143591906644557
752,0.7419,62.8886,875.401,0.00888795,234.617,0.0200629,0.00677279,-0.220845,0.499258,-0.276615,0.415722,3.18984e-05,-1.32118e-05,0.550488,-0.19815904399324047,0.5154645111704568,3.189890875932022e-05,0.6474983732683228,-1.32117127245035e-05,-0.24165359571957956
753,0.7429,62.9009,875.572,0.00887224,234.662,0.0200541,0.00679693,-0.221074,0.499774,-0.276902,0.416153,3.19366e-05,-1.31934e-05,0.551061,-0.1983426445491001,0.5161178171520973,3.1937109978619205e-05,0.648348701794822,-1.3193312967452187e-05,-0.2418712099084782
754,0.7439,62.9131,875.742,0.00885658,234.708,0.0200454,0.00682103,-0.221303,0.50029,-0.277188,0.416583,3.19747e-05,-1.3175e-05,0.551634,-0.19852620306524604,0.5167698879986573,3.197521119613356e-05,0.6491994692040628,-1.3174913210067807e-05,-0.24208800373944883
755,0.7449,62.9254,875.913,0.00884095,234.754,0.0200366,0.00684509,-0.221532,0.500806,-0.277475,0.417013,3.20128e-05,-1.31565e-05,0.552206,-0.19870971955130445,0.517422239295974,3.201331241520222e-05,0.6500506757225673,-1.3156413453674354e-05,-0.24230549327113493
756,0.7459,62.9376,876.083,0.00882536,234.8,0.0200279,0.0068691,-0.221761,0.501321,-0.277761,0.417442,3.20509e-05,-1.3138e-05,0.552778,-0.1988931940168991,0.5180733530905548,3.2051413635603154e-05,0.6509006706754783,-1.3137913696836812e-05,-0.24252216291482342
757,0.7469,62.9498,876.253,0.0088098,234.845,0.0200191,0.00689308,-0.221989,0.501837,-0.278047,0.417872,3.20888e-05,-1.31195e-05,0.55335,-0.19907582554787762,0.5187262649983837,3.208931485110256e-05,0.6517527552404585,-1.3119413939777225e-05,-0.24273877059985438
758,0.7479,62.962,876.422,0.00879428,234.891,0.0200104,0.00691702,-0.222218,0.502351,-0.278333,0.418301,3.21268e-05,-1.31009e-05,0.553921,-0.1992592161847978,0.5193779383400052,3.212731607127317e-05,0.6526019743872762,-1.3100814183597542e-05,-0.2429553163439454
759,0.7489,62.9742,876.592,0.0087788,234.936,0.0200017,0.00694092,-0.222446,0.502866,-0.278619,0.41873,3.21647e-05,-1.30822e-05,0.554492,-0.1994417642722348,0.5200298913094663,3.216521728943711e-05,0.6534532835973914,-1.3082114428408786e-05,-0.243171800164809
760,0.7499,62.9863,876.761,0.00876336,234.981,0.0199931,0.00696478,-0.222674,0.50338,-0.278905,0.419158,3.22026e-05,-1.30635e-05,0.555063,-0.19962427074345246,0.520680603345389,3.2203118509377404e-05,0.6543033770404596,-1.3063414672886964e-05,-0.24338822208015276
761,0.7509,62.9985,876.93,0.00874795,235.027,0.0199844,0.0069886,-0.222902,0.503894,-0.27919,0.419587,3.22404e-05,-1.30448e-05,0.555634,-0.19980673560793794,0.5213331152780263,3.2240919727311024e-05,0.6551539075438719,-1.3044714916921052e-05,-0.243603825711883
762,0.7519,63.0106,877.099,0.00873258,235.072,0.0199758,0.00701238,-0.22313,0.504408,-0.279476,0.420015,3.22782e-05,-1.30261e-05,0.556204,-0.19998915887517665,0.5219843852131896,3.2278720946798956e-05,0.656004875332336,-1.3026015160733095e-05,-0.24382012408558762
763,0.7529,63.0227,877.267,0.00871724,235.117,0.0199671,0.00703612,-0.223358,0.504921,-0.279761,0.420443,3.2316e-05,-1.30073e-05,0.556774,-0.20017154055465158,0.5226359339515447,3.2316522167619155e-05,0.6568546237752215,-1.3007215405425043e-05,-0.2440356046427853
764,0.7539,63.0348,877.435,0.00870194,235.162,0.0199585,0.00705982,-0.223585,0.505434,-0.280046,0.42087,3.23537e-05,-1.29884e-05,0.557343,-0.20035308100932447,0.5232862383254451,3.2354223386654724e-05,0.6577048082508912,-1.2988315651107918e-05,-0.24425102379677455
765,0.7549,63.0468,877.603,0.00868668,235.207,0.0199499,0.00708348,-0.223813,0.505947,-0.280331,0.421298,3.23913e-05,-1.29695e-05,0.557912,-0.20053537972401114,0.5239383443761887,3.239182460390566e-05,0.6585554289830868,-1.2969415896346703e-05,-0.24446638156505274
766,0.7559,63.0589,877.771,0.00867146,235.252,0.0199413,0.0071071,-0.22404,0.506459,-0.280616,0.421725,3.2429e-05,-1.29506e-05,0.558481,-0.2007168375965661,0.5245892049980909,3.2429525825605765e-05,0.6594048267900092,-1.2950516141363444e-05,-0.24468167796511242
767,0.7569,63.0709,877.939,0.00865627,235.297,0.0199327,0.00713068,-0.224268,0.506971,-0.2809,0.422152,3.24665e-05,-1.29316e-05,0.55905,-0.20089905338420488,0.5252403435968225,3.246702704240434e-05,0.6602546595999601,-1.2931516387260089e-05,-0.2448961579109764
768,0.7579,63.0829,878.106,0.00864111,235.342,0.0199242,0.00715422,-0.224495,0.507483,-0.281185,0.422579,3.25041e-05,-1.29126e-05,0.559618,-0.2010804287122081,0.5258917602911048,3.2504628263874125e-05,0.6611049276357182,-1.2912516632712645e-05,-0.24511133184223022
769,0.7589,63.0949,878.273,0.00862599,235.387,0.0199156,0.00717773,-0.224722,0.507995,-0.281469,0.423005,3.25416e-05,-1.28936e-05,0.560186,-0.2012617628726846,0.5265419286570183,3.254212948355928e-05,0.6619556311201757,-1.2893516877943156e-05,-0.2453256897837185
770,0.7599,63.1069,878.44,0.00861091,235.432,0.0199071,0.00720119,-0.224949,0.508506,-0.281753,0.423431,3.25791e-05,-1.28745e-05,0.560753,-0.20144305587497824,0.5271923740536588,3.25796307045767e-05,0.6628051074704011,-1.287441712394255e-05,-0.24553998685619527
771,0.7609,63.1189,878.606,0.00859586,235.476,0.0198986,0.00722462,-0.225175,0.509017,-0.282037,0.423857,3.26165e-05,-1.28554e-05,0.561321,-0.20162350935233941,0.527843096599067,3.261703192380949e-05,0.6636550180139682,-1.2855317369719899e-05,-0.24575422307694483
772,0.7619,63.1309,878.773,0.00858085,235.521,0.0198901,0.00724801,-0.225402,0.509528,-0.282321,0.424283,3.26539e-05,-1.28362e-05,0.561888,-0.20180472024750173,0.5284940964113332,3.265443314437455e-05,0.6645053629728066,-1.2836117616377152e-05,-0.24596839846324658
773,0.7629,63.1428,878.939,0.00856587,235.566,0.0198816,0.00727136,-0.225628,0.510038,-0.282604,0.424709,3.26912e-05,-1.2817e-05,0.562454,-0.20198509199795034,0.5291453736085983,3.269173436315498e-05,0.6653544772136497,-1.2816917862590316e-05,-0.24618175921451124
774,0.7639,63.1547,879.105,0.00855093,235.61,0.0198731,0.00729467,-0.225855,0.510548,-0.282888,0.425134,3.27285e-05,-1.27978e-05,0.56302,-0.20216622082316738,0.5297953985128898,3.2729035583267674e-05,0.6662040246132017,-1.2797718108470413e-05,-0.24639581319778991
775,0.7649,63.1666,879.27,0.00853602,235.654,0.0198647,0.00731794,-0.226081,0.511058,-0.283171,0.425559,3.27658e-05,-1.27785e-05,0.563586,-0.20234651088371702,0.5304456997364795,3.276633680471264e-05,0.6670540053924296,-1.2778418355341437e-05,-0.24660905300779867
776,0.7659,63.1785,879.436,0.00852115,235.699,0.0198562,0.00734117,-0.226307,0.511568,-0.283454,0.425984,3.2803e-05,-1.27592e-05,0.564152,-0.20252676020331706,0.5310962773968275,3.280353802437297e-05,0.667904419772414,-1.2759118601768371e-05,-0.24682223247947943
777,0.7669,63.1904,879.601,0.00850631,235.743,0.0198478,0.00736436,-0.226533,0.512077,-0.283737,0.426408,3.28402e-05,-1.27398e-05,0.564717,-0.20270696879117367,0.5317455998650795,3.284073924536557e-05,0.6687535992199138,-1.273971884907521e-05,-0.24703535162990553
778,0.7679,63.2022,879.766,0.00849151,235.787,0.0198394,0.00738752,-0.226759,0.512586,-0.28402,0.426832,3.28773e-05,-1.27204e-05,0.565282,-0.20288713665649116,0.5323951977044323,3.287784046435149e-05,0.669603211009774,-1.2720319096048982e-05,-0.24724841047614554
779,0.7689,63.2141,879.931,0.00847674,235.832,0.019831,0.00741064,-0.226985,0.513094,-0.284302,0.427256,3.29144e-05,-1.2701e-05,0.565847,-0.20306726380847195,0.5330450710316685,3.291494168489173e-05,0.670451584909693,-1.2700919342689687e-05,-0.2474606564962959
780,0.7699,63.2259,880.095,0.00846201,235.876,0.0198226,0.00743372,-0.22721,0.513603,-0.284585,0.42768,3.29515e-05,-1.26815e-05,0.566411,-0.20324655350326803,0.5336952199636193,3.295204290654219e-05,0.6713020611942646,-1.2681419590099274e-05,-0.24767359499828823
781,0.7709,63.2377,880.26,0.00844731,235.92,0.0198142,0.00745676,-0.227436,0.514111,-0.284867,0.428104,3.29885e-05,-1.2662e-05,0.566975,-0.20342659943621955,0.5343456446171662,3.298904412663006e-05,0.6721512983293205,-1.2661919837175795e-05,-0.24788572113330798
782,0.7719,63.2495,880.424,0.00843265,235.964,0.0198059,0.00747976,-0.227661,0.514619,-0.285149,0.428527,3.30255e-05,-1.26424e-05,0.567539,-0.2036058082895943,0.5349948101136623,3.302604534782816e-05,0.6730009669864383,-1.2642320085243242e-05,-0.24809778745719135
783,0.7729,63.2613,880.588,0.00841802,236.008,0.0197975,0.00750273,-0.227886,0.515126,-0.285431,0.42895,3.30624e-05,-1.26228e-05,0.568102,-0.203784976825513,0.5356442502652488,3.3062946567241625e-05,0.6738493935346563,-1.2622720332755577e-05,-0.24830979398680275
784,0.7739,63.273,880.751,0.00840342,236.052,0.0197892,0.00752566,-0.228111,0.515634,-0.285713,0.429373,3.30994e-05,-1.26032e-05,0.568666,-0.20396410505304596,0.5362939651881293,3.3099947791104256e-05,0.6746999250432844,-1.2603120580045868e-05,-0.2485217407390018
785,0.7749,63.2848,880.915,0.00838886,236.095,0.0197809,0.00754855,-0.228336,0.516141,-0.285995,0.429796,3.31362e-05,-1.25835e-05,0.569228,-0.2041431929812616,0.5369439549985571,3.3136749009843314e-05,0.6755492131816319,-1.258342082810504e-05,-0.24873362773064345
786,0.7759,63.2965,881.078,0.00837433,236.139,0.0197726,0.0075714,-0.228561,0.516647,-0.286276,0.430218,3.3173e-05,-1.25638e-05,0.569791,-0.20432224061922621,0.5375926822193826,3.3173550230136684e-05,0.6763972556201445,-1.2563721075831147e-05,-0.24894470392365708
787,0.7769,63.3082,881.241,0.00835984,236.183,0.0197643,0.00759422,-0.228786,0.517154,-0.286557,0.43064,3.32098e-05,-1.25441e-05,0.570353,-0.204501247976004,0.5382416832608676,3.3210351451540276e-05,0.6772474045232801,-1.2544021323113164e-05,-0.24915572081259318
788,0.7779,63.3199,881.404,0.00834538,236.227,0.019756,0.007617,-0.22901,0.51766,-0.286839,0.431062,3.32466e-05,-1.25243e-05,0.570915,-0.20467941974047477,0.5388909582385886,3.324715267427614e-05,0.6780963064640475,-1.2524221571275085e-05,-0.24936742904706
789,0.7789,63.3316,881.566,0.00833095,236.27,0.0197477,0.00763974,-0.229235,0.518166,-0.28712,0.431484,3.32833e-05,-1.25045e-05,0.571476,-0.2048583467409908,0.5395405072681709,3.3283853895227367e-05,0.67894563805789,-1.2504421819103939e-05,-0.24957832716692419
790,0.7799,63.3432,881.729,0.00831656,236.314,0.0197395,0.00766244,-0.229459,0.518671,-0.287401,0.431905,3.332e-05,-1.24846e-05,0.572037,-0.20503643852429643,0.5401887902757287,3.332055511728882e-05,0.6797937197277073,-1.2484522067701675e-05,-0.24978916603274226
791,0.7809,63.3549,881.891,0.0083022,236.357,0.0197312,0.0076851,-0.229683,0.519176,-0.287681,0.432326,3.33566e-05,-1.24647e-05,0.572598,-0.20521449041951023,0.5408373462678919,3.335715633756564e-05,0.680642229786927,-1.2464622315966345e-05,-0.24999919566073303
792,0.7819,63.3665,882.052,0.00828788,236.401,0.019723,0.00770773,-0.229907,0.519681,-0.287962,0.432747,3.33932e-05,-1.24448e-05,0.573159,-0.20539250243556606,0.5414861753596114,3.339375755917473e-05,0.6814911684519407,-1.2444722563786925e-05,-0.2502099162791189
793,0.7829,63.3781,882.214,0.00827358,236.444,0.0197148,0.00773032,-0.230131,0.520186,-0.288242,0.433168,3.34298e-05,-1.24248e-05,0.573719,-0.205570474581396,0.5421352776658859,3.343035878189404e-05,0.6823405359392487,-1.242472281248741e-05,-0.25041982811353247
794,0.7839,63.3897,882.376,0.00825932,236.487,0.0197066,0.00775288,-0.230355,0.52069,-0.288522,0.433589,3.34663e-05,-1.24048e-05,0.574279,-0.20574840686593,0.5427846533017633,3.3466860002828724e-05,0.68318864927597,-1.2404723060743805e-05,-0.25062968118086026
795,0.7849,63.4013,882.537,0.0082451,236.531,0.0196984,0.0077754,-0.230579,0.521195,-0.288803,0.434009,3.35028e-05,-1.23848e-05,0.574839,-0.2059262992980958,0.5434327589488086,3.3503361225095674e-05,0.6840388742075805,-1.2384723308667134e-05,-0.2508402246577045
796,0.7859,63.4129,882.698,0.00823091,236.574,0.0196903,0.00779788,-0.230803,0.521698,-0.289082,0.434429,3.35392e-05,-1.23647e-05,0.575398,-0.2061041518868194,0.544081136857397,3.353976244535595e-05,0.6848861588355266,-1.2364623557359344e-05,-0.2510492110800635
797,0.7869,63.4244,882.859,0.00821674,236.617,0.0196821,0.00782032,-0.231026,0.522202,-0.289362,0.434849,3.35756e-05,-1.23446e-05,0.575957,-0.20628117092259257,0.5447297871419015,3.3576163666726444e-05,0.6857355554895566,-1.2344523805718488e-05,-0.2512588879448301
798,0.7879,63.436,883.019,0.00820262,236.66,0.019674,0.00784273,-0.231249,0.522705,-0.289642,0.435268,3.3612e-05,-1.23244e-05,0.576516,-0.20645815048752192,0.5453771645388075,3.361256488965125e-05,0.6865836937628613,-1.2324324054846514e-05,-0.2514685061082932
799,0.7889,63.4475,883.18,0.00818852,236.703,0.0196658,0.0078651,-0.231473,0.523208,-0.289921,0.435688,3.36483e-05,-1.23042e-05,0.577074,-0.20663588395492116,0.546026359269264,3.364886611034734e-05,0.687432258757029,-1.2304124303641473e-05,-0.2516773172645781
800,0.7899,63.459,883.34,0.00817446,236.746,0.0196577,0.00788744,-0.231696,0.523711,-0.290201,0.436107,3.36846e-05,-1.2284e-05,0.577632,-0.2068127844276635,0.546674280043721,3.368516733259774e-05,0.6882812506867539,-1.2283924551992342e-05,-0.25188681828423254
801,0.7909,63.4705,883.5,0.00816043,236.789,0.0196496,0.00790973,-0.231919,0.524213,-0.29048,0.436525,3.37208e-05,-1.22637e-05,0.57819,-0.20698964545599852,0.5473209250321664,3.3721368552619424e-05,0.6891289806370136,-1.2263624801112094e-05,-0.2520955127476998
802,0.7919,63.482,883.659,0.00814643,236.832,0.0196415,0.007932,-0.232141,0.524715,-0.290759,0.436944,3.37571e-05,-1.22434e-05,0.578747,-0.20716567421479204,0.5479693883433316,3.3757669777312316e-05,0.6899771362545417,-1.2243325049898779e-05,-0.2523041489935336
803,0.7929,63.4934,883.819,0.00813247,236.874,0.0196335,0.00795422,-0.232364,0.525217,-0.291038,0.437362,3.37932e-05,-1.22231e-05,0.579304,-0.2073424565574784,0.5486165748002052,3.379377099665959e-05,0.6908257177530772,-1.2223025298241375e-05,-0.2525127270379742
804,0.7939,63.5049,883.978,0.00811853,236.917,0.0196254,0.00797641,-0.232587,0.525719,-0.291316,0.437781,3.38294e-05,-1.22027e-05,0.579861,-0.20751919948209752,0.5492655811023719,3.382997222067807e-05,0.6916747253464657,-1.2202625547352852e-05,-0.2527204996181309
805,0.7949,63.5163,884.137,0.00810463,236.96,0.0196174,0.00799856,-0.232809,0.52622,-0.291595,0.438199,3.38655e-05,-1.21823e-05,0.580418,-0.20769511069294555,0.5499133094810726,3.386607344246784e-05,0.6925224667253476,-1.2182225796131263e-05,-0.2529289615169503
806,0.7959,63.5277,884.296,0.00809076,237.002,0.0196093,0.00802068,-0.233031,0.526721,-0.291873,0.438616,3.39015e-05,-1.21619e-05,0.580974,-0.20787098285583938,0.5505597581062971,3.3902074662250925e-05,0.6933706329290701,-1.2161826044354562e-05,-0.25313661840000445
807,0.7969,63.5391,884.455,0.00807693,237.045,0.0196013,0.00804276,-0.233254,0.527222,-0.292151,0.439034,3.39376e-05,-1.21414e-05,0.58153,-0.20804760793223454,0.5512080275640632,3.393817588692727e-05,0.6942192241705238,-1.2141326293457766e-05,-0.2533442175624686
808,0.7979,63.5505,884.613,0.00806312,237.087,0.0195933,0.00806481,-0.233476,0.527722,-0.292429,0.439451,3.39736e-05,-1.21209e-05,0.582085,-0.20822340184942678,0.5518550161993125,3.397417710937489e-05,0.6950665455953129,-1.2120826542227903e-05,-0.25355175902038696
809,0.7989,63.5619,884.772,0.00804935,237.13,0.0195853,0.00808682,-0.233698,0.528223,-0.292707,0.439868,3.40095e-05,-1.21003e-05,0.582641,-0.208399156744701,0.5525022746850827,3.4010078329593796e-05,0.6959159867018856,-1.21002267916559e-05,-0.2537592427897991
810,0.7999,63.5732,884.93,0.0080356,237.172,0.0195773,0.00810879,-0.23392,0.528723,-0.292985,0.440285,3.40454e-05,-1.20798e-05,0.583196,-0.20857487262671914,0.5531498031339248,3.404597955114497e-05,0.6967641567200711,-1.2079727039537858e-05,-0.25396666888674013
811,0.8009,63.5846,885.087,0.00802189,237.215,0.0195693,0.00813073,-0.234141,0.529222,-0.293263,0.440701,3.40813e-05,-1.20591e-05,0.58375,-0.20874975825429498,0.5537960478616122,3.4081880774028406e-05,0.697611053317402,-1.2059027289290647e-05,-0.25417403732724086
812,0.8019,63.5959,885.245,0.00800822,237.257,0.0195614,0.00815264,-0.234363,0.529722,-0.29354,0.441117,3.41172e-05,-1.20385e-05,0.584305,-0.20892539631141682,0.5544425614830322,3.411778199824411e-05,0.6984600710808138,-1.2038427537497398e-05,-0.25438060250830297
813,0.8029,63.6072,885.403,0.00799457,237.299,0.0195534,0.0081745,-0.234584,0.530221,-0.293817,0.441533,3.4153e-05,-1.20178e-05,0.584859,-0.20910020448181776,0.5550893441100682,3.415358322045314e-05,0.6993078141505884,-1.2017727786584054e-05,-0.2545871104787337
814,0.8039,63.6185,885.56,0.00798095,237.341,0.0195455,0.00819634,-0.234806,0.530719,-0.294095,0.441949,3.41887e-05,-1.19971e-05,0.585412,-0.20927576474851217,0.5557363958546493,3.418928444021141e-05,0.7001542801945864,-1.1997028035115598e-05,-0.25479430646044476
815,0.8049,63.6298,885.717,0.00796737,237.383,0.0195376,0.00821814,-0.235027,0.531218,-0.294372,0.442365,3.42245e-05,-1.19763e-05,0.585966,-0.209450495496044,0.5563837168287524,3.422508566486293e-05,0.7010028688856735,-1.1976228284416024e-05,-0.255000699850751
816,0.8059,63.641,885.873,0.00795381,237.425,0.0195297,0.0082399,-0.235248,0.531716,-0.294648,0.44278,3.42601e-05,-1.19555e-05,0.586519,-0.20962518763234728,0.557029750113871,3.426068688394679e-05,0.7018501792771548,-1.1955428533272361e-05,-0.2552062912846692
817,0.8069,63.6523,886.03,0.00794029,237.467,0.0195218,0.00826163,-0.235469,0.532214,-0.294925,0.443195,3.42958e-05,-1.19347e-05,0.587072,-0.20979984116595418,0.5576760515584422,3.429638810770186e-05,0.7026979117342964,-1.1934628781795631e-05,-0.2554125705709832
818,0.8079,63.6635,886.186,0.0079268,237.509,0.0195139,0.00828332,-0.23569,0.532712,-0.295202,0.44361,3.43314e-05,-1.19139e-05,0.587624,-0.209974456105395,0.5583226212737753,3.433198932922821e-05,0.7035460664673399,-1.191382902976379e-05,-0.2556187927258481
819,0.8089,63.6747,886.343,0.00791334,237.551,0.0195061,0.00830498,-0.235911,0.533209,-0.295478,0.444025,3.4367e-05,-1.1893e-05,0.588177,-0.21014903245919803,0.5589694593712258,3.4367590552086824e-05,0.7043929392928392,-1.189292927850083e-05,-0.25582421358967256
820,0.8099,63.6859,886.499,0.00789991,237.593,0.0194982,0.0083266,-0.236131,0.533706,-0.295754,0.444439,3.44026e-05,-1.1872e-05,0.588728,-0.21032278055906528,0.5596150063464089,3.440319177627771e-05,0.7052402331187428,-1.1871929528117775e-05,-0.2560295777651619
821,0.8109,63.6971,886.654,0.00788651,237.635,0.0194904,0.00834819,-0.236352,0.534203,-0.29603,0.444854,3.44381e-05,-1.18511e-05,0.58928,-0.21049727994166978,0.5602623808949703,3.443869299823987e-05,0.7060879481543396,-1.1851029775966637e-05,-0.25623488526796
822,0.8119,63.7083,886.81,0.00787314,237.677,0.0194825,0.00836974,-0.236572,0.5347,-0.296306,0.445268,3.44736e-05,-1.18301e-05,0.589831,-0.21067095143551773,0.5609084632504804,3.447419422131226e-05,0.7069360846090231,-1.1830030024695404e-05,-0.2564401361137064
823,0.8129,63.7195,886.965,0.0078598,237.718,0.0194747,0.00839126,-0.236792,0.535196,-0.296582,0.445681,3.4509e-05,-1.18091e-05,0.590382,-0.21084458472583967,0.5615532515854289,3.450959544237797e-05,0.7077829349085021,-1.1809030272869059e-05,-0.25664533031803627
824,0.8139,63.7306,887.12,0.00784649,237.76,0.0194669,0.00841275,-0.237012,0.535692,-0.296858,0.446095,3.45444e-05,-1.1788e-05,0.590933,-0.21101817982103932,0.5621998684720453,3.4544996664553906e-05,0.7086302053499158,-1.1787930521811596e-05,-0.2568504678965804
825,0.8149,63.7417,887.275,0.00783321,237.801,0.0194591,0.0084342,-0.237232,0.536188,-0.297133,0.446508,3.45798e-05,-1.17669e-05,0.591483,-0.21119173672951874,0.5628451902675022,3.4580397888284153e-05,0.709477896141707,-1.1766830770310044e-05,-0.25705480592014285
826,0.8159,63.7529,887.43,0.00781996,237.843,0.0194513,0.00845562,-0.237452,0.536684,-0.297408,0.446921,3.46151e-05,-1.17458e-05,0.592034,-0.2113652554596781,0.5634907786359045,3.4615699109563636e-05,0.7103260074924209,-1.1745731018364403e-05,-0.2572590877584746
827,0.8169,63.764,887.585,0.00780675,237.884,0.0194436,0.008477,-0.237672,0.537179,-0.297684,0.447334,3.46504e-05,-1.17246e-05,0.592583,-0.21153873601991569,0.564136633687369,3.465100033195334e-05,0.7111728284370225,-1.1724531267187643e-05,-0.2574640559633399
828,0.8179,63.7751,887.739,0.00779356,237.926,0.0194358,0.00849835,-0.237892,0.537674,-0.297959,0.447747,3.46857e-05,-1.17034e-05,0.593133,-0.21171217841862788,0.5647827555320586,3.468630155589736e-05,0.7120200686617548,-1.1703331515455773e-05,-0.2576682252733832
829,0.8189,63.7861,887.893,0.0077804,237.967,0.0194281,0.00851966,-0.238111,0.538169,-0.298233,0.448159,3.47209e-05,-1.16822e-05,0.593682,-0.2118847945493979,0.5654275788518204,3.472150277739061e-05,0.7128677283742131,-1.1682131763390835e-05,-0.257871596316553
830,0.8199,63.7972,888.047,0.00776727,238.008,0.0194204,0.00854094,-0.238331,0.538663,-0.298508,0.448571,3.47561e-05,-1.16609e-05,0.594231,-0.21205816082360762,0.5660726678935251,3.475670400021613e-05,0.713714094067144,-1.1660832011983757e-05,-0.2580756535684078
831,0.8209,63.8082,888.201,0.00775417,238.05,0.0194126,0.00856219,-0.23855,0.539157,-0.298783,0.448983,3.47912e-05,-1.16396e-05,0.594779,-0.2122307011925273,0.5667180227666724,3.479180522081293e-05,0.7145608779680164,-1.163953226013259e-05,-0.2582796547122336
832,0.8219,63.8193,888.355,0.00774111,238.091,0.0194049,0.0085834,-0.238769,0.539651,-0.299057,0.449395,3.48263e-05,-1.16183e-05,0.595328,-0.2124032037792435,0.5673636435808074,3.4826906442519956e-05,0.7154080802834755,-1.1618232507837334e-05,-0.25848285824668693
833,0.8229,63.8303,888.508,0.00772807,238.132,0.0193972,0.00860458,-0.238988,0.540145,-0.299331,0.449807,3.48614e-05,-1.15969e-05,0.595876,-0.21257566859202948,0.5680095304455206,3.486200766555925e-05,0.7162557012202693,-1.1596832756199937e-05,-0.258686006110999
834,0.8239,63.8413,888.661,0.00771506,238.173,0.0193896,0.00862573,-0.239207,0.540638,-0.299605,0.450218,3.48965e-05,-1.15756e-05,0.596423,-0.2127480956391571,0.568654114815548,3.4897108889930806e-05,0.7171020238823655,-1.1575533003016503e-05,-0.2588890983204213
835,0.8249,63.8523,888.814,0.00770208,238.214,0.0193819,0.00864684,-0.239426,0.541131,-0.299879,0.450629,3.49315e-05,-1.15541e-05,0.596971,-0.21292048492889581,0.569298964164201,3.49321101118516e-05,0.7179487638844002,-1.1554033251592877e-05,-0.2590921348902011
836,0.8259,63.8633,888.967,0.00768913,238.255,0.0193742,0.00866792,-0.239644,0.541624,-0.300153,0.45104,3.49665e-05,-1.15327e-05,0.597518,-0.21309204956195693,0.569944078600408,3.496711133510466e-05,0.7187959214321724,-1.1532633498623213e-05,-0.25929511583558174
837,0.8269,63.8742,889.119,0.00767621,238.296,0.0193666,0.00868897,-0.239863,0.542116,-0.300427,0.45145,3.50014e-05,-1.15112e-05,0.598065,-0.21326436353403422,0.5705878876444694,3.5002012556129e-05,0.719641777088946,-1.151113374642243e-05,-0.2594980411718022
838,0.8279,63.8852,889.272,0.00766331,238.337,0.019359,0.00870998,-0.240081,0.542609,-0.3007,0.451861,3.50363e-05,-1.14897e-05,0.598611,-0.2134358532097299,0.5712335319371049,3.503691377826357e-05,0.7204897694980044,-1.1489633993666537e-05,-0.259700170614638
839,0.8289,63.8961,889.424,0.00765045,238.378,0.0193513,0.00873096,-0.2403,0.543101,-0.300974,0.452271,3.50712e-05,-1.14681e-05,0.599157,-0.21360809189705243,0.5718778697654279,3.50718150017304e-05,0.7213364587330697,-1.1468034241568503e-05,-0.25990298498105247
840,0.8299,63.907,889.576,0.00763762,238.418,0.0193437,0.00875191,-0.240518,0.543592,-0.301247,0.452681,3.5106e-05,-1.14465e-05,0.599703,-0.21377950664813206,0.5725224718264244,3.510661622274647e-05,0.7221818424590285,-1.144643448902638e-05,-0.260105003889317
841,0.8309,63.9179,889.728,0.00762481,238.459,0.0193361,0.00877282,-0.240736,0.544084,-0.30152,0.45309,3.51408e-05,-1.14249e-05,0.600249,-0.21395088403486895,0.5731657650619004,3.51414174450948e-05,0.7230293643988195,-1.1424834736040168e-05,-0.260306967653947
842,0.8319,63.9288,889.879,0.00761203,238.5,0.0193286,0.00879371,-0.240954,0.544575,-0.301793,0.4535,3.51756e-05,-1.14033e-05,0.600794,-0.21412222406540748,0.573810895268231,3.5176218668775405e-05,0.7238755795455574,-1.1403234982609867e-05,-0.26050887628999464
843,0.8329,63.9397,890.031,0.00759929,238.54,0.019321,0.00881455,-0.241172,0.545066,-0.302066,0.453909,3.52103e-05,-1.13816e-05,0.601339,-0.21429352674789037,0.5744547155766737,3.52109198897832e-05,0.7247222102859521,-1.1381535229837425e-05,-0.260710729812508
844,0.8339,63.9506,890.182,0.00758657,238.581,0.0193134,0.00883537,-0.24139,0.545556,-0.302338,0.454318,3.5245e-05,-1.13599e-05,0.601884,-0.21446479209045877,0.5750987992614796,3.5245621112345304e-05,0.7255675312557164,-1.1359835476620894e-05,-0.2609117891486896
845,0.8349,63.9614,890.333,0.00757388,238.621,0.0193059,0.00885615,-0.241607,0.546047,-0.302611,0.454727,3.52797e-05,-1.13381e-05,0.602428,-0.21463523473687907,0.5757431464303913,3.528032233601763e-05,0.7264149929483827,-1.1338035723951201e-05,-0.26111353269100557
846,0.8359,63.9722,890.484,0.00756122,238.662,0.0192984,0.00887691,-0.241825,0.546537,-0.302883,0.455135,3.53143e-05,-1.13164e-05,0.602972,-0.214806425595225,0.576386180804227,3.53149235572392e-05,0.7272611435849035,-1.131633596973547e-05,-0.26131448247970346
847,0.8369,63.9831,890.634,0.00754858,238.702,0.0192908,0.00889763,-0.242042,0.547027,-0.303155,0.455544,3.53489e-05,-1.12946e-05,0.603516,-0.21497679411521786,0.5770310546198816,3.534952477979303e-05,0.7281077089368329,-1.129453621628862e-05,-0.26151537761749166
848,0.8379,63.9939,890.785,0.00753598,238.743,0.0192833,0.00891831,-0.242259,0.547516,-0.303427,0.455952,3.53835e-05,-1.12727e-05,0.604059,-0.21514712566925287,0.5776746145674685,3.5384126003457084e-05,0.7289529602536067,-1.1272636463388608e-05,-0.2617162181192332
849,0.8389,64.0047,890.935,0.0075234,238.783,0.0192758,0.00893897,-0.242476,0.548006,-0.303699,0.45636,3.5418e-05,-1.12509e-05,0.604603,-0.2153174202653506,0.5783184371410859,3.5418627224670374e-05,0.7298003547988396,-1.1250836708831535e-05,-0.2619170039997871
850,0.8399,64.0154,891.085,0.00751085,238.823,0.0192683,0.00895959,-0.242693,0.548495,-0.303971,0.456768,3.54525e-05,-1.1229e-05,0.605146,-0.21548767791153034,0.5789625224479074,3.545312844721593e-05,0.7306464340218466,-1.1228936955043345e-05,-0.2621177352740083
851,0.8409,64.0262,891.235,0.00749833,238.863,0.0192609,0.00898018,-0.24291,0.548983,-0.304242,0.457175,3.5487e-05,-1.1207e-05,0.605688,-0.2156578986158092,0.5796052909890688,3.548762967109376e-05,0.7314911955867065,-1.1206937201801992e-05,-0.2623176742747908
852,0.8419,64.037,891.385,0.00748584,238.904,0.0192534,0.00900074,-0.243127,0.549472,-0.304514,0.457582,3.55214e-05,-1.11851e-05,0.606231,-0.21582808238620266,0.5802483211902709,3.552203089229877e-05,0.7323381018330495,-1.11850374470146e-05,-0.2625182965815174
853,0.8429,64.0477,891.534,0.00747337,238.944,0.0192459,0.00902127,-0.243344,0.54996,-0.304785,0.457989,3.55558e-05,-1.11631e-05,0.606773,-0.21599822923072454,0.5808916131580306,3.55564321150581e-05,0.7331836891332644,-1.116303769288507e-05,-0.26271812704489306
854,0.8439,64.0584,891.684,0.00746094,238.984,0.0192385,0.00904177,-0.24356,0.550448,-0.305056,0.458396,3.55901e-05,-1.11411e-05,0.607314,-0.21616755532533416,0.5815351669989091,3.559073333514462e-05,0.734029689180784,-1.1141037938200427e-05,-0.2629179033615503
855,0.8449,64.0691,891.833,0.00744853,239.024,0.0192311,0.00906223,-0.243777,0.550936,-0.305327,0.458803,3.56244e-05,-1.1119e-05,0.607856,-0.21633762851222038,0.5821789828195099,3.5625034556563406e-05,0.7348761021770778,-1.1118938184173643e-05,-0.263117625546161
856,0.8459,64.0798,891.982,0.00743615,239.064,0.0192237,0.00908266,-0.243993,0.551423,-0.305598,0.459209,3.56587e-05,-1.1097e-05,0.608397,-0.21650688130450213,0.5828214779042111,3.5659335779092416e-05,0.735721192601654,-1.10969384284898e-05,-0.26331729361339284
857,0.8469,64.0905,892.13,0.00742379,239.104,0.0192163,0.00910306,-0.244209,0.551911,-0.305869,0.459615,3.5693e-05,-1.10748e-05,0.608938,-0.2166760975421288,0.5834642338948772,3.569363700273165e-05,0.7365684312530609,-1.1074738674676787e-05,-0.2635169075779098
858,0.8479,64.1012,892.279,0.00741147,239.143,0.0192089,0.00912344,-0.244425,0.552397,-0.306139,0.460021,3.57272e-05,-1.10527e-05,0.609478,-0.2168452772329953,0.5841072508974574,3.5727838223920116e-05,0.7374126086291364,-1.1052638919095692e-05,-0.263715731170471
859,0.8489,64.1119,892.427,0.00739917,239.183,0.0192015,0.00914377,-0.244641,0.552884,-0.30641,0.460427,3.57614e-05,-1.10305e-05,0.610019,-0.21701442038499497,0.584750529017944,3.576203944644085e-05,0.738258934633194,-1.1030439164283479e-05,-0.26391523717303944
860,0.8499,64.1225,892.576,0.0073869,239.223,0.0191941,0.00916408,-0.244857,0.553371,-0.30668,0.460832,3.57956e-05,-1.10083e-05,0.610559,-0.21718352700601917,0.5853924829690966,3.579624067007181e-05,0.7391056728983927,-1.1008239408916154e-05,-0.26411395323112763
861,0.8509,64.1331,892.724,0.00737466,239.263,0.0191868,0.00918436,-0.245073,0.553857,-0.30695,0.461238,3.58297e-05,-1.09861e-05,0.611098,-0.21735259710395805,0.5860362829997448,3.583034189147405e-05,0.7399510836735996,-1.0986039652993718e-05,-0.2643126156431227
862,0.8519,64.1438,892.871,0.00736244,239.302,0.0191794,0.00920461,-0.245288,0.554343,-0.30722,0.461643,3.58638e-05,-1.09638e-05,0.611638,-0.21752084820793882,0.5866787577867223,3.5864443113764466e-05,0.7407969054183006,-1.0963739897729141e-05,-0.26451122442350716
863,0.8529,64.1544,893.019,0.00735025,239.342,0.0191721,0.00922482,-0.245504,0.554828,-0.30749,0.462047,3.58978e-05,-1.09416e-05,0.612177,-0.21768984545236647,0.5873199055079874,3.589844433382616e-05,0.741641396690008,-1.0941540140918526e-05,-0.26470977958675956
864,0.8539,64.165,893.166,0.00733809,239.381,0.0191648,0.00924501,-0.245719,0.555314,-0.307759,0.462452,3.59318e-05,-1.09192e-05,0.612716,-0.2178580240557465,0.5879629002673679,3.593244555477604e-05,0.74248804012649,-1.0919140385756698e-05,-0.26490754605526823
865,0.8549,64.1755,893.314,0.00732595,239.421,0.0191574,0.00926516,-0.245935,0.555799,-0.308029,0.462857,3.59658e-05,-1.08969e-05,0.613254,-0.21802694847805604,0.5886061554923667,3.596644677705818e-05,0.7433333517974618,-1.0896840629048832e-05,-0.2651059942261247
866,0.8559,64.1861,893.461,0.00731384,239.46,0.0191501,0.00928528,-0.24615,0.556283,-0.308298,0.463261,3.59998e-05,-1.08745e-05,0.613792,-0.21819505461207633,0.5892480820396171,3.600044800067259e-05,0.7441773293658276,-1.0874440872887803e-05,-0.2653036541272292
867,0.8569,64.1967,893.608,0.00730176,239.5,0.0191428,0.00930538,-0.246365,0.556768,-0.308567,0.463665,3.60337e-05,-1.08521e-05,0.61433,-0.2183631246071629,0.5898902679775861,3.603434922161419e-05,0.7450234605407942,-1.0852041116171662e-05,-0.26550126086497117
868,0.8579,64.2072,893.754,0.00728971,239.539,0.0191356,0.00932544,-0.24658,0.557252,-0.308837,0.464068,3.60676e-05,-1.08297e-05,0.614868,-0.21853115847108462,0.5905311228791703,3.606825044366602e-05,0.7458682563197827,-1.0829641359011433e-05,-0.2656995487544679
869,0.8589,64.2177,893.901,0.00727768,239.578,0.0191283,0.00934547,-0.246794,0.557736,-0.309106,0.464472,3.61014e-05,-1.08072e-05,0.615405,-0.2186983749103747,0.5911738272703588,3.610205166348912e-05,0.7467134610788937,-1.080714160239804e-05,-0.2658970490108775
870,0.8599,64.2282,894.047,0.00726568,239.618,0.0191211,0.00936547,-0.247009,0.55822,-0.309374,0.464875,3.61353e-05,-1.07847e-05,0.615943,-0.2188663367032292,0.5918151995505829,3.613595288776139e-05,0.7475590750161214,-1.0784641845340559e-05,-0.26609376224099235
871,0.8609,64.2387,894.193,0.00725371,239.657,0.0191138,0.00938545,-0.247224,0.558704,-0.309643,0.465278,3.61691e-05,-1.07622e-05,0.616479,-0.21903426238818002,0.5924568303559252,3.616975410980494e-05,0.7484050983295554,-1.0762142087727966e-05,-0.26629115646823576
872,0.8619,64.2492,894.339,0.00724176,239.696,0.0191066,0.00940539,-0.247438,0.559187,-0.309911,0.465681,3.62028e-05,-1.07396e-05,0.617016,-0.21920137117475103,0.5930987197905924,3.620345532917568e-05,0.7492497819667256,-1.073954233066221e-05,-0.26648776409170394
873,0.8629,64.2597,894.485,0.00722984,239.735,0.0190994,0.0094253,-0.247653,0.55967,-0.31018,0.466084,3.62365e-05,-1.07171e-05,0.617552,-0.2193692248350334,0.593740867958833,3.623715654987869e-05,0.7500948736846362,-1.0717042572050417e-05,-0.26668505234670326
874,0.8639,64.2702,894.631,0.00721794,239.774,0.0190922,0.00944518,-0.247867,0.560153,-0.310448,0.466486,3.62702e-05,-1.06945e-05,0.618088,-0.21953626194731024,0.59438168058246,3.627085777169192e-05,0.7509403736804376,-1.069444281398546e-05,-0.26688155442022043
875,0.8649,64.2806,894.776,0.00720607,239.813,0.019085,0.00946504,-0.248081,0.560635,-0.310716,0.466889,3.63039e-05,-1.06718e-05,0.618624,-0.2197032633174696,0.5950243458880959,3.630455899461538e-05,0.7517845303659698,-1.0671743056578364e-05,-0.267078003838238
876,0.8659,64.291,894.922,0.00719423,239.852,0.0190778,0.00948486,-0.248295,0.561117,-0.310984,0.467291,3.63375e-05,-1.06492e-05,0.619159,-0.21987022895315944,0.595665674573572,3.633816021486602e-05,0.7526290940330989,-1.0649143297514208e-05,-0.26727440061486574
877,0.8669,64.3015,895.067,0.00718241,239.891,0.0190706,0.00950466,-0.248509,0.561599,-0.311252,0.467692,3.63711e-05,-1.06265e-05,0.619694,-0.22003715886202613,0.5963056648185441,3.6371761436448935e-05,0.7534740648780376,-1.0626443538996888e-05,-0.26747074476420973
878,0.8679,64.3119,895.212,0.00717062,239.93,0.0190634,0.00952442,-0.248722,0.562081,-0.31152,0.468094,3.64047e-05,-1.06037e-05,0.620229,-0.22020327325537759,0.5969475086977771,3.640536265914207e-05,0.7543194430970928,-1.0603643781026406e-05,-0.26766703630037225
879,0.8689,64.3223,895.356,0.00715886,239.969,0.0190563,0.00954416,-0.248936,0.562562,-0.311787,0.468495,3.64382e-05,-1.0581e-05,0.620763,-0.22037013190038912,0.5975880130613069,3.64388638791624e-05,0.755163473722315,-1.0580944021398864e-05,-0.26786254310036073
880,0.8699,64.3326,895.501,0.00714712,240.007,0.0190491,0.00956386,-0.24915,0.563044,-0.312054,0.468896,3.64717e-05,-1.05582e-05,0.621298,-0.22053695484147107,0.5982287743185903,3.647236510051499e-05,0.7560096664327096,-1.0558144262429181e-05,-0.2680579977070019
881,0.8709,64.343,895.645,0.0071354,240.046,0.019042,0.00958354,-0.249363,0.563525,-0.312322,0.469297,3.65052e-05,-1.05354e-05,0.621832,-0.22070296278961576,0.5988697925726625,3.650586632297781e-05,0.7568545102509134,-1.0535344502904387e-05,-0.2682541318804632
882,0.8719,64.3534,895.789,0.00712372,240.085,0.0190349,0.00960319,-0.249576,0.564005,-0.312589,0.469698,3.65386e-05,-1.05126e-05,0.622365,-0.22086893538183294,0.5995110679265994,3.653926754276782e-05,0.7576980028378597,-1.0512544742824481e-05,-0.2684494819468567
883,0.8729,64.3637,895.933,0.00711206,240.123,0.0190278,0.00962281,-0.24979,0.564486,-0.312856,0.470099,3.6572e-05,-1.04897e-05,0.622899,-0.22103565159039074,0.6001526004835189,3.657266876366805e-05,0.7585436589412133,-1.0489644983291413e-05,-0.26864477986174506
884,0.8739,64.3741,896.077,0.00710042,240.162,0.0190207,0.0096424,-0.250003,0.564966,-0.313122,0.470499,3.66054e-05,-1.04668e-05,0.623432,-0.22120155332743974,0.6007927895529905,3.660606998590055e-05,0.7593879625141517,-1.0466745223203233e-05,-0.2688392944787109
885,0.8749,64.3844,896.221,0.00708881,240.201,0.0190136,0.00966196,-0.250216,0.565446,-0.313389,0.470899,3.66387e-05,-1.04439e-05,0.623965,-0.2213674197311819,0.6014332347493117,3.6639371205460236e-05,0.7602326714500849,-1.0443845462670964e-05,-0.2690344883275466
886,0.8759,64.3947,896.364,0.00707722,240.239,0.0190065,0.00968149,-0.250428,0.565925,-0.313656,0.471299,3.6672e-05,-1.0421e-05,0.624497,-0.2215324723420039,0.6020739361749539,3.6672672425908104e-05,0.7610760248667279,-1.0420945701583584e-05,-0.26922963006658174
887,0.8769,64.405,896.508,0.00706567,240.277,0.0189995,0.009701,-0.250641,0.566405,-0.313922,0.471698,3.67053e-05,-1.0398e-05,0.625029,-0.22169826826750227,0.6027132912183366,3.670597364768824e-05,0.7619215442670859,-1.0397945940932019e-05,-0.26942398913408205
888,0.8779,64.4153,896.651,0.00705413,240.316,0.0189924,0.00972048,-0.250854,0.566884,-0.314188,0.472098,3.67386e-05,-1.0375e-05,0.625561,-0.22186402888222911,0.6033545047689846,3.67392748705786e-05,0.7627657068475875,-1.0374946179836364e-05,-0.26961829650894586
889,0.8789,64.4255,896.794,0.00704262,240.354,0.0189854,0.00973992,-0.251066,0.567363,-0.314454,0.472497,3.67718e-05,-1.0352e-05,0.626093,-0.22202897622307016,0.6039943708611839,3.677247609101819e-05,0.7636102738788231,-1.0351946418185598e-05,-0.2698125522049215
890,0.8799,64.4358,896.937,0.00703114,240.392,0.0189783,0.00975934,-0.251279,0.567842,-0.31472,0.472896,3.68049e-05,-1.03289e-05,0.626624,-0.2221946664045038,0.6046344923108944,3.680557730856293e-05,0.7644552455545714,-1.032884665708167e-05,-0.27000675623575376
891,0.8809,64.446,897.079,0.00701968,240.431,0.0189713,0.00977874,-0.251491,0.56832,-0.314986,0.473295,3.68381e-05,-1.03059e-05,0.627155,-0.22235954365761978,0.605274869220024,3.683877853122297e-05,0.7652988567689643,-1.0305846894431703e-05,-0.27020090861518375
892,0.8819,64.4563,897.222,0.00700825,240.469,0.0189643,0.0097981,-0.251703,0.568798,-0.315252,0.473694,3.68712e-05,-1.02827e-05,0.627686,-0.22252438596046287,0.6059155016905216,3.687187975098816e-05,0.7661428713259086,-1.0282647133208478e-05,-0.27039500935694905
893,0.8829,64.4665,897.364,0.00699684,240.507,0.0189573,0.00981744,-0.251915,0.569276,-0.315517,0.474092,3.69043e-05,-1.02596e-05,0.628217,-0.2226891933204418,0.6065547832687899,3.690498097208561e-05,0.7669872894182483,-1.0259547370439215e-05,-0.27058832906347696
894,0.8839,64.4767,897.506,0.00698545,240.545,0.0189503,0.00983674,-0.252127,0.569754,-0.315782,0.47449,3.69373e-05,-1.02365e-05,0.628747,-0.22285396574496374,0.6071943193317653,3.6937982190510255e-05,0.7678321112389197,-1.0236447607225863e-05,-0.2707815975470701
895,0.8849,64.4869,897.648,0.0069741,240.583,0.0189434,0.00985603,-0.252339,0.570231,-0.316048,0.474888,3.69704e-05,-1.02133e-05,0.629277,-0.22301870324143414,0.6078341099807529,3.697108341360611e-05,0.7686755683044983,-1.0213247844448325e-05,-0.2709755438461212
896,0.8859,64.4971,897.79,0.00696276,240.621,0.0189364,0.00987528,-0.252551,0.570708,-0.316313,0.475286,3.70034e-05,-1.01901e-05,0.629807,-0.22318340581725715,0.6084741553170985,3.70040846342512e-05,0.7695194277950679,-1.0190048081115677e-05,-0.27116870973139173
897,0.8869,64.5073,897.931,0.00695145,240.659,0.0189294,0.0098945,-0.252762,0.571185,-0.316578,0.475683,3.70363e-05,-1.01668e-05,0.630336,-0.22334729682752008,0.6091128463285365,3.703698585222348e-05,0.7703636899026309,-1.0166748318218843e-05,-0.27136182443448464
898,0.8879,64.5174,898.073,0.00694017,240.697,0.0189225,0.0099137,-0.252974,0.571661,-0.316843,0.476081,3.70693e-05,-1.01435e-05,0.630865,-0.22351192974888634,0.6097534007032401,3.706998707508902e-05,0.7712065836118123,-1.014344855487792e-05,-0.2715548879689613
899,0.8889,64.5276,898.214,0.00692891,240.735,0.0189156,0.00993287,-0.253185,0.572138,-0.317107,0.476478,3.71022e-05,-1.01203e-05,0.631394,-0.2236757514479123,0.6103925996759203,3.71028882950597e-05,0.7720516506846691,-1.012024878999096e-05,-0.27174717209591603
900,0.8899,64.5377,898.355,0.00691767,240.773,0.0189086,0.00995202,-0.253397,0.572614,-0.317372,0.476875,3.7135e-05,-1.00969e-05,0.631923,-0.22384031474427957,0.6110320524609707,3.713568951257962e-05,0.7728953480544387,-1.0096849026530741e-05,-0.2719401335267918
901,0.8909,64.5478,898.496,0.00690646,240.811,0.0189017,0.00997113,-0.253608,0.57309,-0.317636,0.477271,3.71679e-05,-1.00736e-05,0.632451,-0.224004067161381,0.611670147488222,3.716859073499279e-05,0.7737394471197525,-1.0073549261413461e-05,-0.272132315962343
902,0.8919,64.5579,898.637,0.00689527,240.848,0.0188948,0.00999022,-0.253819,0.573565,-0.3179,0.477668,3.72007e-05,-1.00502e-05,0.632979,-0.22416778503036738,0.612310107560444,3.720139195451111e-05,0.7745821734888021,-1.0050149496954042e-05,-0.2723244476684279
903,0.8929,64.568,898.777,0.00688411,240.886,0.018888,0.0100093,-0.25403,0.574041,-0.318165,0.478064,3.72334e-05,-1.00268e-05,0.633507,-0.22433146835852757,0.6129487087977377,3.7234093171578664e-05,0.7754270756741499,-1.0026749731828488e-05,-0.27251725614154465
904,0.8939,64.5781,898.918,0.00687297,240.924,0.0188811,0.0100283,-0.254241,0.574516,-0.318429,0.47846,3.72662e-05,-1.00034e-05,0.634034,-0.22449511715314885,0.6135875629711993,3.7266894393539474e-05,0.7762706038571787,-1.0003349966147823e-05,-0.27270928623683544
905,0.8949,64.5882,899.058,0.00686186,240.961,0.0188742,0.0100473,-0.254451,0.574991,-0.318692,0.478856,3.72989e-05,-9.97995e-06,0.634561,-0.22465795607986094,0.6142266701810117,3.729959561260543e-05,0.7771145328112699,-9.979900200463021e-06,-0.2729005385437744
906,0.8959,64.5982,899.198,0.00685077,240.999,0.0188674,0.0100663,-0.254662,0.575465,-0.318956,0.479252,3.73316e-05,-9.95647e-06,0.635088,-0.2248215359928405,0.6148660305273967,3.733229683278161e-05,0.777957084768861,-9.956420434553692e-06,-0.27309246746586646
907,0.8969,64.6083,899.338,0.0068397,241.036,0.0188605,0.0100853,-0.254872,0.57594,-0.31922,0.479647,3.73642e-05,-9.93297e-06,0.635615,-0.2249843063787932,0.6155040286057802,3.736489805050702e-05,0.7788018149916716,-9.93292066819862e-06,-0.2732843457254107
908,0.8979,64.6183,899.478,0.00682866,241.074,0.0188537,0.0101042,-0.255083,0.576414,-0.319483,0.480042,3.73969e-05,-9.90945e-06,0.636141,-0.22514781743912382,0.6161422787431832,3.73975992726816e-05,0.7796451669105922,-9.909400901508825e-06,-0.27347544681159064
909,0.8989,64.6284,899.617,0.00681764,241.111,0.0188469,0.0101231,-0.255293,0.576887,-0.319746,0.480437,3.74295e-05,-9.8859e-06,0.636667,-0.22531051931316692,0.6167807810391883,3.743020049240542e-05,0.7804871381850498,-9.885851134705526e-06,-0.27366649764479334
910,0.8999,64.6384,899.757,0.00680665,241.149,0.01884,0.010142,-0.255503,0.577361,-0.320009,0.480832,3.7462e-05,-9.86232e-06,0.637193,-0.2254731870234037,0.617419535593418,3.7462701709456425e-05,0.7813312891365198,-9.862271367455655e-06,-0.2738574982382338
911,0.9009,64.6484,899.896,0.00679568,241.186,0.0188332,0.0101608,-0.255713,0.577834,-0.320272,0.481227,3.74945e-05,-9.83872e-06,0.637719,-0.22563582057700804,0.6180585425055343,3.7495202927617655e-05,0.7821740581354368,-9.838671599982085e-06,-0.27404844860512323
912,0.9019,64.6584,900.035,0.00678473,241.223,0.0188265,0.0101797,-0.255923,0.578308,-0.320535,0.481621,3.7527e-05,-9.81509e-06,0.638244,-0.2257984199811519,0.6186961831782452,3.752770414666706e-05,0.7830190088764988,-9.815041832172966e-06,-0.2742393487586695
913,0.9029,64.6683,900.174,0.00677381,241.261,0.0188197,0.0101985,-0.256133,0.57878,-0.320798,0.482015,3.75595e-05,-9.79143e-06,0.638769,-0.2259609852430059,0.61933407513088,3.756020536682669e-05,0.7838607924939942,-9.79138206413932e-06,-0.2744301987120771
914,0.9039,64.6783,900.313,0.00676291,241.298,0.0188129,0.0102172,-0.256343,0.579253,-0.321061,0.48241,3.7592e-05,-9.76775e-06,0.639294,-0.22612351636973926,0.6199738384354911,3.759270658809655e-05,0.7847047582310058,-9.76770229565993e-06,-0.2746209984785467
915,0.9049,64.6883,900.451,0.00675203,241.335,0.0188061,0.010236,-0.256552,0.579725,-0.321323,0.482803,3.76244e-05,-9.74405e-06,0.639818,-0.22628523965414604,0.6206106132720559,3.762510780669359e-05,0.7855473377100051,-9.744002526845819e-06,-0.27481102288266135
916,0.9059,64.6982,900.59,0.00674118,241.372,0.0187994,0.0102547,-0.256762,0.580197,-0.321585,0.483197,3.76568e-05,-9.72032e-06,0.640342,-0.22644770269460235,0.6212492596587615,3.7657509026178815e-05,0.7863903149803897,-9.72027275780718e-06,-0.27500099750690365
917,0.9069,64.7081,900.728,0.00673035,241.409,0.0187927,0.0102734,-0.256971,0.580669,-0.321848,0.48359,3.76891e-05,-9.69657e-06,0.640866,-0.22660935823114725,0.6218865358343737,3.768981024299123e-05,0.7872336902299619,-9.69652298843382e-06,-0.27519164717302935
918,0.9079,64.718,900.866,0.00671955,241.446,0.0187859,0.0102921,-0.257181,0.581141,-0.32211,0.483983,3.77214e-05,-9.67279e-06,0.64139,-0.22677175321384868,0.6225240625087427,3.7722111460913865e-05,0.7880774636466119,-9.67274321872491e-06,-0.27538152208677014
919,0.9089,64.728,901.004,0.00670876,241.483,0.0187792,0.0103107,-0.25739,0.581612,-0.322372,0.484376,3.77537e-05,-9.64898e-06,0.641913,-0.2269333410309119,0.6231618397803338,3.7754412679946725e-05,0.788919846497578,-9.648933448791475e-06,-0.2755713472597998
920,0.9099,64.7378,901.142,0.00669801,241.52,0.0187725,0.0103293,-0.257599,0.582083,-0.322633,0.484769,3.7786e-05,-9.62516e-06,0.642436,-0.2270948950796503,0.6237998677476511,3.778671389986776e-05,0.7897626262043189,-9.6251136783021e-06,-0.2757603984659095
921,0.9109,64.7477,901.279,0.00668727,241.557,0.0187658,0.0103479,-0.257808,0.582554,-0.322895,0.485162,3.78182e-05,-9.6013e-06,0.642959,-0.2272564153671207,0.6244381465092375,3.781891511711599e-05,0.7906058029537981,-9.601253907698393e-06,-0.2759501243863305
922,0.9119,64.7576,901.417,0.00667656,241.594,0.0187591,0.0103665,-0.258017,0.583025,-0.323156,0.485554,3.78504e-05,-9.57742e-06,0.643481,-0.22741790190037836,0.6250750510878107,3.7851116335474444e-05,0.7914493769330666,-9.577374136648942e-06,-0.2761390767445103
923,0.9129,64.7675,901.554,0.00666587,241.631,0.0187525,0.0103851,-0.258225,0.583495,-0.323418,0.485946,3.78826e-05,-9.55352e-06,0.644004,-0.2275785822654458,0.6257122053819197,3.7883317554721074e-05,0.7922915560368113,-9.553474365264769e-06,-0.27632870346421823
924,0.9139,64.7773,901.691,0.0066552,241.667,0.0187458,0.0104036,-0.258434,0.583965,-0.323679,0.486338,3.79147e-05,-9.52959e-06,0.644526,-0.22774000147285756,0.6263496094894725,3.7915418771294895e-05,0.793134131057768,-9.52954459365607e-06,-0.2765175570261521
925,0.9149,64.7871,901.828,0.00664455,241.704,0.0187392,0.0104221,-0.258642,0.584435,-0.32394,0.48673,3.79468e-05,-9.50564e-06,0.645047,-0.22790061484818114,0.6269872635084146,3.794751998897894e-05,0.7939771021820619,-9.505594821601626e-06,-0.27670636130373827
926,0.9159,64.797,901.965,0.00663393,241.741,0.0187325,0.0104406,-0.258851,0.584905,-0.324201,0.487121,3.79789e-05,-9.48167e-06,0.645569,-0.22806196675781598,0.6276235399123773,3.797962120755116e-05,0.7948204695959047,-9.481625049101439e-06,-0.2768951163098382
927,0.9169,64.8068,902.102,0.00662333,241.777,0.0187259,0.010459,-0.259059,0.585374,-0.324462,0.487513,3.8011e-05,-9.45767e-06,0.64609,-0.22822251317132458,0.6282616934099365,3.801172242723361e-05,0.7956624378222608,-9.457625276376724e-06,-0.2770838220573101
928,0.9179,64.8166,902.238,0.00661276,241.814,0.0187193,0.0104774,-0.259267,0.585843,-0.324722,0.487904,3.8043e-05,-9.43365e-06,0.646611,-0.22838302619465178,0.6288984682134215,3.80437236440212e-05,0.7965048010243299,-9.433605503317288e-06,-0.27727175583112584
929,0.9189,64.8264,902.374,0.00660221,241.851,0.0187126,0.0104958,-0.259475,0.586312,-0.324983,0.488295,3.8075e-05,-9.4096e-06,0.647131,-0.22854350583474214,0.6295354920445362,3.8075724861919014e-05,0.7973475593873987,-9.409555729811281e-06,-0.2774603632885101
930,0.9199,64.8362,902.511,0.00659167,241.887,0.018706,0.0105142,-0.259683,0.586781,-0.325243,0.488685,3.8107e-05,-9.38553e-06,0.647652,-0.22870395209853867,0.6301711348287196,3.810772608092705e-05,0.7981907130968409,-9.385485956081574e-06,-0.2776481991743318
931,0.9209,64.8459,902.647,0.00658117,241.924,0.0186995,0.0105326,-0.259891,0.587249,-0.325504,0.489076,3.81389e-05,-9.36143e-06,0.648172,-0.22886436499298268,0.6308086563697768,3.8139627297040235e-05,0.7990324633047554,-9.361386181905296e-06,-0.27783670839282415
932,0.9219,64.8557,902.782,0.00657068,241.96,0.0186929,0.0105509,-0.260099,0.587718,-0.325764,0.489466,3.81708e-05,-9.33731e-06,0.648691,-0.22902474452501465,0.6314447957848839,3.817152851426364e-05,0.7998764074194704,-9.337266407505318e-06,-0.27802444644163804
933,0.9229,64.8654,902.918,0.00656022,241.996,0.0186863,0.0105692,-0.260307,0.588185,-0.326024,0.489856,3.82027e-05,-9.31317e-06,0.649211,-0.229185090701573,0.6320811833427478,3.820342973237523e-05,0.800717145998914,-9.313126632548574e-06,-0.2782121356849043
934,0.9239,64.8752,903.054,0.00654978,242.033,0.0186798,0.0105875,-0.260514,0.588653,-0.326284,0.490246,3.82345e-05,-9.289e-06,0.64973,-0.22934463287461315,0.6327178191401626,3.8235230947814e-05,0.8015600788541444,-9.288956857367303e-06,-0.27839977613531064
935,0.9249,64.8849,903.189,0.00653936,242.069,0.0186732,0.0106057,-0.260722,0.589121,-0.326543,0.490636,3.82664e-05,-9.26481e-06,0.650249,-0.2295049125213141,0.6333547032739608,3.826713216792399e-05,0.8024034062942769,-9.264767081740288e-06,-0.2785866463925487
936,0.9259,64.8946,903.324,0.00652896,242.105,0.0186667,0.010624,-0.260929,0.589588,-0.326803,0.491025,3.82982e-05,-9.24059e-06,0.650768,-0.22966438849808923,0.6339902018499937,3.829893338536117e-05,0.8032453252577931,-9.240547305888747e-06,-0.2787741894828284
937,0.9269,64.9043,903.459,0.00651859,242.141,0.0186602,0.0106422,-0.261136,0.590055,-0.327062,0.491415,3.83299e-05,-9.21635e-06,0.651286,-0.22982383146675345,0.634627582309826,3.833063459990349e-05,0.8040876374892862,-9.216307529591461e-06,-0.2789609627795664
938,0.9279,64.914,903.594,0.00650823,242.178,0.0186536,0.0106604,-0.261343,0.590521,-0.327322,0.491804,3.83617e-05,-9.19209e-06,0.651805,-0.22998324143413906,0.635263576132123,3.836243581933907e-05,0.8049285382430147,-9.192047752848431e-06,-0.27914840856023615
939,0.9289,64.9237,903.729,0.0064979,242.214,0.0186471,0.0106785,-0.26155,0.590988,-0.327581,0.492193,3.83934e-05,-9.16781e-06,0.652322,-0.2301426184070764,0.6358998174041428,3.839413703610184e-05,0.8057716367185457,-9.16776797577068e-06,-0.2793350849467835
940,0.9299,64.9333,903.863,0.0064876,242.25,0.0186406,0.0106967,-0.261757,0.591454,-0.32784,0.492581,3.8425e-05,-9.1435e-06,0.65284,-0.23030196239239464,0.6365346696866738,3.842573824974771e-05,0.8066133223987888,-9.14345819835738e-06,-0.2795217129904074
941,0.9309,64.943,903.998,0.00647731,242.286,0.0186342,0.0107148,-0.261964,0.59192,-0.328099,0.49297,3.84567e-05,-9.11917e-06,0.653357,-0.23046127339692157,0.6371714055102704,3.8457439468286836e-05,0.8074554003959613,-9.119128420498335e-06,-0.27970829270362696
942,0.9319,64.9526,904.132,0.00646704,242.322,0.0186277,0.0107329,-0.262171,0.592386,-0.328358,0.493358,3.84883e-05,-9.09481e-06,0.653875,-0.2306205514274835,0.6378067512647143,3.848904068415315e-05,0.8082978708929258,-9.094768642303741e-06,-0.2798948240989583
943,0.9329,64.9623,904.266,0.0064568,242.358,0.0186212,0.010751,-0.262377,0.592851,-0.328616,0.493746,3.85199e-05,-9.07044e-06,0.654391,-0.2307790272703173,0.6384423435811406,3.852064190090765e-05,0.8091389249328007,-9.07039886366423e-06,-0.2800805872698613
944,0.9339,64.9719,904.4,0.00644658,242.394,0.0186148,0.010769,-0.262584,0.593317,-0.328875,0.494134,3.85515e-05,-9.04604e-06,0.654908,-0.2309382395326346,0.6390781825552343,3.855224311855032e-05,0.8099821801350215,-9.045999084689171e-06,-0.28026702225338584
945,0.9349,64.9815,904.534,0.00643638,242.43,0.0186083,0.010787,-0.26279,0.593782,-0.329133,0.494522,3.8583e-05,-9.02161e-06,0.655424,-0.2310966499384589,0.6397142682827168,3.858374433352019e-05,0.8108240175608172,-9.021569305378563e-06,-0.2804526894095515
946,0.9359,64.9911,904.668,0.0064262,242.466,0.0186019,0.010805,-0.262996,0.594246,-0.329392,0.494909,3.86145e-05,-8.99716e-06,0.65594,-0.23125502771510054,0.6403489605095667,3.861524554937823e-05,0.8116644348667021,-8.99711952562221e-06,-0.2806390280311013
947,0.9369,65.0007,904.801,0.00641605,242.501,0.0185955,0.010823,-0.263203,0.594711,-0.32965,0.495296,3.8646e-05,-8.9727e-06,0.656456,-0.2314141414555232,0.6409838984098433,3.8646746766346496e-05,0.8125070547228486,-8.972659745420941e-06,-0.2808245992221562
948,0.9379,65.0103,904.934,0.00640591,242.537,0.0185891,0.010841,-0.263409,0.595175,-0.329908,0.495683,3.86774e-05,-8.9482e-06,0.656972,-0.2315724538356484,0.64161908207864,3.867814798019786e-05,0.8133482531391805,-8.948159964994318e-06,-0.2810101225420195
949,0.9389,65.0198,905.068,0.0063958,242.573,0.0185827,0.0108589,-0.263615,0.595639,-0.330165,0.49607,3.87089e-05,-8.92369e-06,0.657487,-0.2317307336067821,0.6422545116110885,3.870964919916453e-05,0.8141898419621447,-8.923650184011755e-06,-0.281194879198279
950,0.9399,65.0294,905.201,0.00638571,242.608,0.0185763,0.0108768,-0.26382,0.596103,-0.330423,0.496457,3.87403e-05,-8.89915e-06,0.658002,-0.23188821266423776,0.6428901871023558,3.87410504150143e-05,0.8150318213729324,-8.899110402693644e-06,-0.28138030699823113
951,0.9409,65.0389,905.334,0.00637564,242.644,0.0185699,0.0108947,-0.264026,0.596567,-0.330681,0.496844,3.87716e-05,-8.87459e-06,0.658517,-0.2320464273957521,0.6435261086476467,3.877235162819126e-05,0.8158741915528176,-8.874550620929789e-06,-0.28156568696398165
952,0.9419,65.0485,905.466,0.00636559,242.68,0.0185635,0.0109126,-0.264232,0.59703,-0.330938,0.49723,3.8803e-05,-8.85001e-06,0.659031,-0.2322046095383885,0.644160632180748,3.880375284603943e-05,0.8167151359671159,-8.849970838831211e-06,-0.28175030085853037
953,0.9429,65.058,905.599,0.00635556,242.715,0.0185572,0.0109305,-0.264437,0.597493,-0.331196,0.497616,3.88343e-05,-8.8254e-06,0.659545,-0.23236199146123482,0.6447954006872101,3.883505406121479e-05,0.8175564698288282,-8.825361056286063e-06,-0.281935585378178
954,0.9439,65.0675,905.731,0.00634555,242.751,0.0185508,0.0109483,-0.264643,0.597956,-0.331453,0.498002,3.88656e-05,-8.80077e-06,0.660059,-0.232520108604369,0.6454304142616107,3.886635527727833e-05,0.81839819331831,-8.80073127329517e-06,-0.28212010422104894
955,0.9449,65.077,905.864,0.00633557,242.786,0.0185445,0.0109661,-0.264848,0.598419,-0.33171,0.498387,3.88968e-05,-8.77612e-06,0.660573,-0.23267742585653572,0.6460640269337143,3.889755649022497e-05,0.8192403066160012,-8.776081489969556e-06,-0.2823045756486703
956,0.9459,65.0865,905.996,0.0063256,242.822,0.0185381,0.0109839,-0.265053,0.598881,-0.331967,0.498773,3.8928e-05,-8.75145e-06,0.661086,-0.23283471086197127,0.6466995302923684,3.892875770450388e-05,0.8200809898205248,-8.751411706198198e-06,-0.2824889996732264
957,0.9469,65.096,906.128,0.00631566,242.857,0.0185318,0.0110017,-0.265258,0.599343,-0.332223,0.499158,3.89592e-05,-8.72676e-06,0.661599,-0.23299196362728547,0.6473336316682132,3.895995891944892e-05,0.820922061510422,-8.726721921981095e-06,-0.2826726589799158
958,0.9479,65.1054,906.26,0.00630574,242.892,0.0185255,0.0110194,-0.265463,0.599805,-0.33248,0.499543,3.89904e-05,-8.70204e-06,0.662112,-0.2331491841590867,0.6479679772200888,3.899116013550419e-05,0.8217635218652148,-8.702002137317422e-06,-0.28285698841921036
959,0.9489,65.1149,906.391,0.00629584,242.928,0.0185192,0.0110371,-0.265668,0.600267,-0.332737,0.499928,3.90216e-05,-8.6773e-06,0.662625,-0.23330637246398245,0.6486025670420206,3.902236135244763e-05,0.8226053710645076,-8.677262352319026e-06,-0.28304127049192596
960,0.9499,65.1243,906.523,0.00628595,242.963,0.0185129,0.0110548,-0.265873,0.600728,-0.332993,0.500313,3.90527e-05,-8.65254e-06,0.663137,-0.23346352854857821,0.6492374012280713,3.905346256671827e-05,0.8234457858412907,-8.652502566874887e-06,-0.283224788435381
961,0.9509,65.1338,906.654,0.00627609,242.998,0.0185067,0.0110725,-0.266078,0.601189,-0.333249,0.500697,3.90838e-05,-8.62776e-06,0.663649,-0.2336206524194787,0.6498708300006835,3.9084563781655035e-05,0.8242865881386023,-8.627722780985003e-06,-0.2834082594042556
962,0.9519,65.1432,906.785,0.00626625,243.033,0.0185004,0.0110902,-0.266282,0.60165,-0.333505,0.501082,3.91148e-05,-8.60295e-06,0.664161,-0.233776977860648,0.6505061525619793,3.911556499369695e-05,0.8251277781351309,-8.60291299475957e-06,-0.2835916834105735
963,0.9529,65.1526,906.916,0.00625644,243.069,0.0184941,0.0111078,-0.266487,0.602111,-0.333761,0.501466,3.91459e-05,-8.57813e-06,0.664672,-0.23393403748102548,0.6511400686286584,3.914666621063212e-05,0.8259693560096466,-8.578093207978199e-06,-0.2837750604663558
964,0.9539,65.162,907.047,0.00624664,243.104,0.0184879,0.0111254,-0.266691,0.602572,-0.334017,0.50185,3.91769e-05,-8.55328e-06,0.665184,-0.2340902989981627,0.6517742281658503,3.9177667424672435e-05,0.8268113219410032,-8.553243420750256e-06,-0.28395839058362016
965,0.9549,65.1714,907.178,0.00623686,243.139,0.0184817,0.011143,-0.266895,0.603032,-0.334273,0.502233,3.92079e-05,-8.52841e-06,0.665695,-0.23424652864120166,0.6524069788592608,3.9208668639822974e-05,0.827651848455373,-8.528373633187591e-06,-0.2841416737743814
966,0.9559,65.1808,907.309,0.0062271,243.174,0.0184754,0.0111606,-0.267099,0.603492,-0.334529,0.502617,3.92388e-05,-8.50352e-06,0.666206,-0.23440272641664406,0.6530416249834001,3.9239569851856615e-05,0.8284927617008808,-8.503483845179183e-06,-0.2843249100506511
967,0.9569,65.1902,907.439,0.00621737,243.209,0.0184692,0.0111782,-0.267303,0.603952,-0.334784,0.503,3.92697e-05,-8.4786e-06,0.666716,-0.23455889233099025,0.6536748611827601,3.9270471064778434e-05,0.8293340618554639,-8.478564056724203e-06,-0.28450738393217956
968,0.9579,65.1995,907.57,0.00620765,243.244,0.018463,0.0111957,-0.267507,0.604411,-0.335039,0.503383,3.93006e-05,-8.45367e-06,0.667226,-0.23471502639073916,0.654308339958035,3.930137227858843e-05,0.8301739189223072,-8.453634267824306e-06,-0.2846898112888002
969,0.9589,65.2089,907.7,0.00619795,243.279,0.0184568,0.0112132,-0.267711,0.604871,-0.335295,0.503766,3.93315e-05,-8.42871e-06,0.667736,-0.23487112860238846,0.6549420614021488,3.933227349350865e-05,0.8310159925871059,-8.428674478477838e-06,-0.28487290725982617
970,0.9599,65.2182,907.83,0.00618828,243.313,0.0184506,0.0112307,-0.267915,0.60533,-0.33555,0.504149,3.93623e-05,-8.40373e-06,0.668246,-0.23502719897243463,0.6555760256080616,3.936307470553402e-05,0.8318566218373575,-8.403694688796648e-06,-0.2850552414198815
971,0.9609,65.2275,907.96,0.00617862,243.348,0.0184445,0.0112482,-0.268119,0.605789,-0.335805,0.504532,3.93932e-05,-8.37873e-06,0.668755,-0.23518323750737247,0.6562102326687689,3.9393975922230595e-05,0.832697637025001,-8.378694898558692e-06,-0.2852375290906536
972,0.9619,65.2369,908.089,0.00616899,243.383,0.0184383,0.0112657,-0.268322,0.606247,-0.33606,0.504914,3.9424e-05,-8.35371e-06,0.669265,-0.23533847955255782,0.6568430258334479,3.942477713603232e-05,0.8335372047891003,-8.353675107874992e-06,-0.2854197702839958
973,0.9629,65.2462,908.219,0.00615937,243.418,0.0184322,0.0112831,-0.268526,0.606706,-0.336314,0.505296,3.94547e-05,-8.32867e-06,0.669774,-0.2354944545927341,0.6574760607712915,3.945547834693919e-05,0.8343789915413793,-8.328635316745547e-06,-0.28560125061336616
974,0.9639,65.2555,908.349,0.00614978,243.453,0.018426,0.0113006,-0.268729,0.607164,-0.336569,0.505678,3.94855e-05,-8.30361e-06,0.670282,-0.2356496334672631,0.6581093375746747,3.948627956251727e-05,0.8352193295422181,-8.303575525170359e-06,-0.28578339906954453
975,0.9649,65.2647,908.478,0.0061402,243.487,0.0184199,0.011318,-0.268932,0.607622,-0.336823,0.50606,3.95162e-05,-8.27853e-06,0.670791,-0.23580478084367773,0.6587428563360078,3.951698077542254e-05,0.8360600525060109,-8.278495733038405e-06,-0.28596478704893225
976,0.9659,65.274,908.607,0.00613065,243.522,0.0184138,0.0113354,-0.269135,0.608079,-0.337078,0.506441,3.95469e-05,-8.25342e-06,0.671299,-0.23595989672837148,0.6593749577719492,3.9547681988993943e-05,0.8368993237088693,-8.253385940570901e-06,-0.28614684281513814
977,0.9669,65.2833,908.736,0.00612111,243.556,0.0184076,0.0113527,-0.269338,0.608537,-0.337332,0.506823,3.95775e-05,-8.22829e-06,0.671807,-0.23611498112773655,0.6600089600925516,3.9578283199670494e-05,0.8377408162862185,-8.228256147768676e-06,-0.2863281384915375
978,0.9679,65.2925,908.865,0.0061116,243.591,0.0184015,0.0113701,-0.269541,0.608994,-0.337586,0.507204,3.96081e-05,-8.20315e-06,0.672314,-0.2362700340481637,0.6606415440059301,3.9608884411235223e-05,0.8385808557736643,-8.203116354299489e-06,-0.28650938812468274
979,0.9689,65.3018,908.994,0.0061021,243.626,0.0183955,0.0113874,-0.269744,0.609451,-0.33784,0.507585,3.96387e-05,-8.17798e-06,0.672822,-0.23642505549604265,0.6612743689796987,3.963948562368813e-05,0.8394212792468896,-8.177946560383731e-06,-0.28669059172626743
980,0.9699,65.311,909.122,0.00609263,243.66,0.0183894,0.0114047,-0.269947,0.609908,-0.338094,0.507966,3.96693e-05,-8.15279e-06,0.673329,-0.23658004547776146,0.661907435105719,3.967008683702922e-05,0.8402620868814163,-8.152756766133251e-06,-0.2868717493079821
981,0.9709,65.3203,909.251,0.00608317,243.694,0.0183833,0.011422,-0.270149,0.610364,-0.338347,0.508346,3.96999e-05,-8.12758e-06,0.673836,-0.2367342407343298,0.662539079935976,3.9700688051480526e-05,0.8411014377504882,-8.127546971326005e-06,-0.2870521479340188
982,0.9719,65.3295,909.379,0.00607373,243.729,0.0183772,0.0114393,-0.270352,0.610821,-0.338601,0.508727,3.97304e-05,-8.10235e-06,0.674343,-0.23688916795781545,0.6631726280086756,3.9731189262814937e-05,0.8419430133929275,-8.102317176073015e-06,-0.28723321369211874
983,0.9729,65.3387,909.507,0.00606432,243.763,0.0183712,0.0114565,-0.270554,0.611277,-0.338854,0.509107,3.97609e-05,-8.0771e-06,0.674849,-0.2370433007779491,0.6638047537035943,3.9761690475037526e-05,0.8427831309392777,-8.077067380263259e-06,-0.28741352087923366
984,0.9739,65.3479,909.635,0.00605492,243.798,0.0183651,0.0114738,-0.270756,0.611733,-0.339107,0.509487,3.97914e-05,-8.05183e-06,0.675355,-0.23719740246639742,0.6644371196519225,3.979219168814829e-05,0.8436236316665877,-8.05179758411878e-06,-0.2875937824544005
985,0.9749,65.3571,909.763,0.00604554,243.832,0.0183591,0.011491,-0.270959,0.612188,-0.339361,0.509867,3.98218e-05,-8.02654e-06,0.675861,-0.23735223567759411,0.6650697259449734,3.9822592898364206e-05,0.8444626712860341,-8.026507787417536e-06,-0.28777471065480287
986,0.9759,65.3662,909.891,0.00603618,243.866,0.0183531,0.0115082,-0.271161,0.612644,-0.339614,0.510246,3.98522e-05,-8.00122e-06,0.676367,-0.2375062749674951,0.6657009069723561,3.98529941094683e-05,0.8453039380583873,-8.00118799026972e-06,-0.28795488086051513
987,0.9769,65.3754,910.019,0.00602684,243.9,0.0183471,0.0115254,-0.271363,0.613099,-0.339867,0.510626,3.98826e-05,-7.97589e-06,0.676872,-0.2376602831446022,0.6663339935958459,3.988339532146057e-05,0.846143742391201,-7.975858192676988e-06,-0.2881350054889311
988,0.9779,65.3845,910.146,0.00601752,243.934,0.0183411,0.0115426,-0.271565,0.613554,-0.340119,0.511005,3.9913e-05,-7.95054e-06,0.677377,-0.23781426021519925,0.6669656538714801,3.991379653434102e-05,0.8469839289219301,-7.950508394527489e-06,-0.2883143728663091
989,0.9789,65.3937,910.273,0.00600822,243.969,0.0183351,0.0115597,-0.271766,0.614008,-0.340372,0.511384,3.99433e-05,-7.92516e-06,0.677882,-0.23796744415339444,0.6675975535917302,3.994409774432661e-05,0.8478226500009394,-7.925128596042441e-06,-0.2884944065547521
990,0.9799,65.4028,910.401,0.00599894,244.003,0.0183291,0.0115768,-0.271968,0.614463,-0.340624,0.511763,3.99736e-05,-7.89977e-06,0.678386,-0.238121359183734,0.6682296928473637,3.997439895497834e-05,0.8486636006084447,-7.899738796890432e-06,-0.2886736833744723
991,0.9809,65.4119,910.528,0.00598968,244.037,0.0183232,0.0115939,-0.27217,0.614917,-0.340877,0.512142,4.00039e-05,-7.87435e-06,0.678891,-0.2382752431263775,0.6688620717291813,4.000470016674029e-05,0.8495030844315297,-7.874318997402874e-06,-0.28885362616885524
992,0.9819,65.4211,910.654,0.00598044,244.071,0.0183172,0.011611,-0.272371,0.615371,-0.341129,0.51252,4.00342e-05,-7.84892e-06,0.679395,-0.23842833441631894,0.6694930208341632,4.003500137916838e-05,0.8503429494667987,-7.848889197359377e-06,-0.2890328124766376
993,0.9829,65.4302,910.781,0.00597121,244.105,0.0183113,0.0116281,-0.272572,0.615825,-0.341381,0.512898,4.00644e-05,-7.82346e-06,0.679899,-0.23858139493800357,0.6701242084829884,4.006520258870161e-05,0.8511831958873617,-7.823429396869308e-06,-0.2892119536351595
994,0.9839,65.4393,910.908,0.00596201,244.139,0.0183053,0.0116452,-0.272774,0.616278,-0.341633,0.513277,4.00946e-05,-7.79799e-06,0.680402,-0.23873518596280963,0.6707573055223144,4.009540379912302e-05,0.8520219718435091,-7.797959595712278e-06,-0.2893910496557971
995,0.9849,65.4483,911.034,0.00595282,244.173,0.0182994,0.0116622,-0.272975,0.616732,-0.341885,0.513654,4.01248e-05,-7.77249e-06,0.680905,-0.23888818481353158,0.6713872997729509,4.012560501065465e-05,0.8528629807132939,-7.772459794330722e-06,-0.2895701005499236
996,0.9859,65.4574,911.161,0.00594366,244.206,0.0182935,0.0116793,-0.273176,0.617185,-0.342137,0.514032,4.0155e-05,-7.74698e-06,0.681409,-0.23904115291457484,0.6720192035945631,4.015580622285242e-05,0.8537025177843471,-7.746949992282204e-06,-0.2897491063289096
997,0.9869,65.4665,911.287,0.00593451,244.24,0.0182876,0.0116963,-0.273377,0.617637,-0.342388,0.51441,4.01851e-05,-7.72144e-06,0.681911,-0.23919409027211969,0.6726513463209702,4.018590743193329e-05,0.8545405807103386,-7.721410189787115e-06,-0.2899273569318346
998,0.9879,65.4755,911.413,0.00592538,244.274,0.0182817,0.0117133,-0.273578,0.61809,-0.34264,0.514787,4.02152e-05,-7.69589e-06,0.682414,-0.23934699689234484,0.6732820547596037,4.0216008641902334e-05,0.8553808779063456,-7.695860386736086e-06,-0.29010627269355493
999,0.9889,65.4846,911.539,0.00591627,244.308,0.0182758,0.0117303,-0.273778,0.618542,-0.342891,0.515164,4.02453e-05,-7.67031e-06,0.682916,-0.23949911228092047,0.6739130010201453,4.0246109852981604e-05,0.8562196996225859,-7.670280583238487e-06,-0.2902844336589723
