,Time,S11,S22,S33,S12,S13,S23,LE11,LE22,LE33,LE12,LE13,LE23,SDV_EPBAR,E11,E12,E13,E22,E23,E33
0,1e-05,-1.66533e-16,2.08407,-2.22045e-16,-1.69736e-17,0.0,-3.59433e-39,-2.99999e-06,9.99995e-06,-2.99999e-06,0.0,0.0,0.0,0.0,-2.999985500018454e-06,0.0,0.0,9.999999999621423e-06,0.0,-2.999985500018454e-06
1,2e-05,3.33067e-16,4.16811,4.44089e-16,2.20659e-22,0.0,-3.59433e-39,-5.99994e-06,1.99998e-05,-5.99994e-06,0.0,0.0,0.0,0.0,-5.999922000343716e-06,0.0,0.0,1.9999999997244444e-05,0.0,-5.999922000343716e-06
2,3.5e-05,-1.11022e-16,7.29414,-2.22045e-16,2.20659e-22,1.37033e-38,-3.59433e-39,-1.04998e-05,3.49994e-05,-1.04998e-05,0.0,0.0,0.0,0.0,-1.0499744877323636e-05,0.0,0.0,3.5000012486241516e-05,0.0,-1.0499744877323636e-05
3,5.75e-05,-4.21885e-15,11.9831,-4.44089e-15,-1.69731e-17,3.39477e-17,-1.0783e-38,-1.72495e-05,5.74983e-05,-1.72495e-05,0.0,0.0,0.0,0.0,-1.7249351228265652e-05,0.0,0.0,5.749995305892597e-05,0.0,-1.7249351228265652e-05
4,9.125e-05,-2.88658e-14,19.0163,-2.93099e-14,-1.69724e-17,0.0,-3.39462e-17,-2.73738e-05,9.12458e-05,-2.73738e-05,0.0,0.0,0.0,0.0,-2.737342534098186e-05,0.0,0.0,9.124996302456445e-05,0.0,-2.737342534098186e-05
5,0.00014188,-1.57208e-13,29.5657,-1.57208e-13,1.69742e-17,1.35791e-16,1.48934e-21,-4.25595e-05,0.000141865,-4.25595e-05,0.0,0.0,0.0,0.0,-4.255859435731146e-05,0.0,0.0,0.00014187506331508892,0.0,-4.255859435731146e-05
6,0.00021781,-8.01581e-13,45.3888,-8.01137e-13,8.48612e-17,6.78954e-17,-6.78872e-17,-6.53366e-05,0.000217789,-6.53366e-05,0.0,0.0,0.0,0.0,-6.533446561085565e-05,0.0,0.0,0.0002178127177461242,0.0,-6.533446561085565e-05
7,0.00033172,-4.04787e-12,69.1212,-4.05009e-12,-1.86693e-16,4.75268e-16,-6.78772e-17,-9.94991e-05,0.000331664,-9.94991e-05,0.0,0.0,0.0,0.0,-9.949415012866503e-05,0.0,0.0,0.0003317190065854625,0.0,-9.949415012866503e-05
8,0.00050258,-2.05174e-11,104.715,-2.05169e-11,-1.86651e-16,3.39477e-16,2.03659e-16,-0.000150736,0.000502452,-0.000150736,0.0,0.0,0.0,0.0,-0.00015072463989995732,0.0,0.0,0.0005025782501502096,0.0,-0.00015072463989995732
9,0.00075887,-1.03756e-10,158.094,-1.03753e-10,-1.86589e-16,6.78954e-17,2.03591e-16,-0.000227574,0.000758579,-0.000227574,0.0,0.0,0.0,0.0,-0.0002275481070015406,0.0,0.0,0.0007588667938165372,0.0,-0.0002275481070015406
10,0.0011433,-5.24726e-10,238.136,-5.24729e-10,3.56396e-16,6.11059e-16,2.0349e-16,-0.000342794,0.00114265,-0.000342794,0.0,0.0,0.0,0.0,-0.00034273525284966855,0.0,0.0,0.0011433030732321825,0.0,-0.00034273525284966855
11,0.00172,-0.000742622,357.031,-0.000996044,0.000148785,-0.000224819,-0.000207721,-0.000516627,0.00171847,-0.000516595,1.86347e-09,-2.81471e-09,-2.60171e-09,5.3292e-06,-0.000516493571250054,1.8634700449382535e-09,-2.8147100206155073e-09,0.001719947415747436,-2.6017099585828873e-09,-0.0005164615877772949
12,0.0025849,-0.163074,371.494,-0.26689,0.0346949,-0.0155131,-0.0850266,-0.000938921,0.00258159,-0.000931262,7.35887e-07,-4.10425e-06,1.85346e-06,0.000800662,-0.0009384803516000462,7.358872706753061e-07,-4.104241577596035e-06,0.0025849251728629064,1.8534617176602097e-06,-0.0009308285101183866
13,0.0032337,0.0823668,381.423,0.0860109,-0.0375697,0.0287967,-0.00628497,-0.00125551,0.00322844,-0.00124157,-3.05962e-07,-4.60903e-06,3.85576e-06,0.00140124,-0.0012547221770610184,-3.0596195321752617e-07,-4.609019378487567e-06,0.003233657025190295,3.855767433558199e-06,-0.0012407995708477726
14,0.0038824,-0.174369,389.872,-0.262785,0.0323294,-0.0259092,-0.0951804,-0.00157369,0.00387487,-0.00155499,7.44311e-07,-6.36449e-06,3.14184e-06,0.00200659,-0.0015724523991771377,7.443112770566529e-07,-6.364469746666934e-06,0.003882387014774169,3.141844935550253e-06,-0.0015537816294658446
15,0.0048555,-0.165336,401.659,-0.280782,0.0268471,-0.00216227,-0.106521,-0.00205155,0.00484374,-0.00202388,9.04627e-07,-8.53382e-06,4.51693e-06,0.00291998,-0.0020494470096744655,9.046274092039397e-07,-8.533783587116872e-06,0.004855489872042096,4.516940201426678e-06,-0.002021833335839829
16,0.0058555,0.0547921,412.752,0.10589,-0.0439438,0.0362222,-0.0195957,-0.00254334,0.00583841,-0.00250471,-2.37612e-07,-9.82583e-06,7.31321e-06,0.00386307,-0.002540108451045353,-2.3761197176508375e-07,-9.825781726702232e-06,0.0058554867331450655,7.313236741524065e-06,-0.0025015758311820457
17,0.0068555,0.147312,422.601,0.23423,-0.06579,0.0622667,0.00186111,-0.00303574,0.0068321,-0.00298699,-9.15821e-07,-1.06662e-05,9.03595e-06,0.00481028,-0.0030311368005432326,-9.158205805936959e-07,-1.0666143116289106e-05,0.00685549203710667,9.035990824246554e-06,-0.0029825333837636414
18,0.0078555,-0.155254,431.102,-0.248828,0.0167219,0.00423497,-0.110536,-0.00352886,0.00782479,-0.00347202,2.49392e-07,-1.26347e-05,8.06215e-06,0.00576129,-0.003522640891155726,2.493920310264741e-07,-1.2634620182527811e-05,0.007855483674227282,8.0621824991578e-06,-0.0034659995083311523
19,0.0088555,-0.196967,439.237,-0.299602,0.0271486,-0.000657425,-0.121805,-0.00402161,0.00881651,-0.00395576,5.7541e-07,-1.37414e-05,8.0777e-06,0.00671391,-0.004013534156095955,5.754101655153221e-07,-1.3741305587400277e-05,0.008855489895622126,8.077732624789391e-06,-0.003947946287863324
20,0.0098555,0.175754,447.279,0.25077,-0.0720757,0.0780228,0.0011869,-0.00451381,0.00980724,-0.00443726,-1.09997e-06,-1.31325e-05,1.04079e-05,0.00766733,-0.004503638070116667,-1.0999693950131118e-06,-1.3132413769101348e-05,0.009855488577678262,1.0407954162294786e-05,-0.004427429906780689
21,0.010855,0.185388,454.382,0.285723,-0.0782973,0.0781665,0.00664158,-0.00500678,0.010797,-0.00492047,-1.64926e-06,-1.33782e-05,1.11851e-05,0.00862292,-0.004994266969057137,-1.6492586399907694e-06,-1.3378110512274333e-05,0.010855497949054271,1.1185162553495331e-05,-0.0049083843180267595
22,0.011855,-0.0840269,460.675,-0.15484,0.0021585,0.0261103,-0.0946496,-0.00549985,0.0117858,-0.00540559,-6.17522e-07,-1.44989e-05,9.90343e-06,0.00958025,-0.005484753513805174,-6.17521809354038e-07,-1.4498794891459887e-05,0.011855526197913191,9.903479039063967e-06,-0.005391006088424688
23,0.012855,-0.165773,466.846,-0.253173,0.020358,0.00730962,-0.11527,-0.00599245,0.0127736,-0.0058894,-2.54519e-07,-1.5236e-05,9.43204e-06,0.0105379,-0.005974531082105328,-2.5451896756845116e-07,-1.523588393270714e-05,0.01285553090770497,9.432084481897363e-06,-0.005872091479423469
24,0.013855,0.197298,473.209,0.275709,-0.0756506,0.0878245,0.00504878,-0.00648415,0.0137604,-0.0063707,-1.89555e-06,-1.41809e-05,1.13958e-05,0.0114951,-0.006463173262647226,-1.8955482034010984e-06,-1.4180799451479764e-05,0.013855510054169295,1.1395864932373101e-05,-0.006350450115554351
25,0.014855,0.161144,478.801,0.249827,-0.0714673,0.0755447,-0.0019313,-0.00697652,0.0147462,-0.00685365,-2.25715e-06,-1.43068e-05,1.16777e-05,0.0124537,-0.006952240579110369,-2.2571474526111857e-06,-1.4306697658228451e-05,0.01485546161112361,1.1677768184670256e-05,-0.006830217304563901
26,0.015855,-0.0243679,483.904,-0.0701625,-0.0109493,0.0408615,-0.0760496,-0.00746862,0.0157311,-0.00733768,-1.55694e-06,-1.48743e-05,1.06382e-05,0.0134129,-0.007440799161822831,-1.5569387880054464e-06,-1.487418937817786e-05,0.015855485136011538,1.063825658587092e-05,-0.007310824950839234
27,0.016855,0.188045,489.294,0.279558,-0.0729322,0.0876288,0.0094897,-0.00795996,0.016715,-0.00781889,-2.74598e-06,-1.41154e-05,1.20632e-05,0.0143713,-0.007928363409845152,-2.745976229845404e-06,-1.4115300378203521e-05,0.0168554772132683,1.206327276070951e-05,-0.007788401992124827
28,0.017855,-0.172734,493.727,-0.285383,0.0299669,0.0079464,-0.124096,-0.00845178,0.017698,-0.00830334,-1.28147e-06,-1.53657e-05,9.94333e-06,0.0153312,-0.008416164117248215,-1.2814691788820554e-06,-1.5365581948256768e-05,0.017855537596518367,9.943379435162214e-06,-0.008268962487615106
29,0.018855,-0.218653,498.372,-0.334502,0.0391187,-0.00500719,-0.134591,-0.00894272,0.0186799,-0.0087857,-9.37918e-07,-1.58284e-05,9.28046e-06,0.0162903,-0.008902852808388206,-9.379175601731404e-07,-1.582827473156634e-05,0.018855460780834,9.280503063591183e-06,-0.00874721851580762
30,0.019855,0.215948,503.413,0.306758,-0.0798541,0.0937826,0.0137687,-0.0094326,0.0196609,-0.00926515,-2.86754e-06,-1.43123e-05,1.1433e-05,0.0172482,-0.00938825257532827,-2.8675358886287583e-06,-1.4312197579524621e-05,0.019855448401592257,1.1433065356891703e-05,-0.009222360749316483
31,0.020855,0.168503,507.709,0.264059,-0.0727308,0.0779702,0.0032073,-0.0099232,0.020641,-0.00974657,-3.17967e-06,-1.42977e-05,1.15216e-05,0.0182069,-0.009874127503749497,-3.179664944896743e-06,-1.4297597788370808e-05,0.02085549872117598,1.1521666373859318e-05,-0.009699226124929905
32,0.021855,-0.0108439,511.65,-0.0524886,-0.011334,0.0441628,-0.0707807,-0.0104134,0.0216201,-0.0102289,-2.47058e-06,-1.46806e-05,1.03849e-05,0.0191659,-0.010359368264220015,-2.4705769481325746e-06,-1.4680492240515264e-05,0.0218555078145386,1.038495392324812e-05,-0.01017676272282153
33,0.022855,0.178642,515.944,0.267545,-0.0688672,0.0867319,0.00934309,-0.0109028,0.0225982,-0.0107084,-3.56288e-06,-1.38607e-05,1.16072e-05,0.0201236,-0.01084357989314133,-3.5628736529957905e-06,-1.3860603940929472e-05,0.022855473640298385,1.1607267363711316e-05,-0.010651269193078128
34,0.023855,-0.141332,519.443,-0.241949,0.0253352,0.0143268,-0.112969,-0.0113925,0.0235754,-0.0111908,-2.24349e-06,-1.4861e-05,9.61123e-06,0.0210822,-0.011327851208558504,-2.243487483344353e-06,-1.4860889575918357e-05,0.023855496540750476,9.611276188037365e-06,-0.011128415923774893
35,0.024855,-0.183559,523.187,-0.282668,0.032668,0.000880858,-0.121971,-0.0118814,0.0245516,-0.0116712,-1.9708e-06,-1.5186e-05,8.97397e-06,0.0220398,-0.011811094883560691,-1.970798057970846e-06,-1.518588469329174e-05,0.024855472285222335,8.97401026622724e-06,-0.011603355743086463
36,0.025855,0.191108,527.315,0.268501,-0.0709392,0.0886772,0.00699375,-0.0123692,0.0255269,-0.012149,-3.642e-06,-1.37626e-05,1.07565e-05,0.022996,-0.012293015881389091,-3.64199336788662e-06,-1.376250529583345e-05,0.025855501412276105,1.0756557851321347e-05,-0.012075498855740552
37,0.026855,-0.227372,530.361,-0.353068,0.0480515,-0.00797354,-0.136884,-0.012858,0.0265012,-0.0126307,-1.89528e-06,-1.51513e-05,8.3431e-06,0.0239537,-0.012775689080286257,-1.89527820393387e-06,-1.5151185219663965e-05,0.026855479487518208,8.343134803689978e-06,-0.01255126748986668
38,0.027855,-0.226092,533.825,-0.345397,0.0460116,-0.00927388,-0.134841,-0.0133456,0.0274746,-0.0131099,-1.67343e-06,-1.53472e-05,7.76029e-06,0.0249098,-0.013256942315217013,-1.6734285998021292e-06,-1.5347082232275433e-05,0.027855507245800215,7.760320111183105e-06,-0.01302433956536353
39,0.028855,0.192447,537.705,0.276089,-0.0720032,0.0889641,0.0112887,-0.0138321,0.028447,-0.0135863,-3.52313e-06,-1.37735e-05,9.75394e-06,0.0258645,-0.013736876059431413,-3.5231237938138094e-06,-1.3773405145744988e-05,0.02885548004902816,9.753987569860456e-06,-0.013494422787280413
40,0.029855,-0.246246,540.434,-0.384494,0.0548774,-0.0128886,-0.143259,-0.0143198,0.0294185,-0.014067,-1.64766e-06,-1.52263e-05,7.16477e-06,0.0268207,-0.014217759312064482,-1.6476586426339423e-06,-1.5226184080452398e-05,0.029855498828365468,7.1647956669806945e-06,-0.013968522059357169
41,0.030855,-0.231592,543.645,-0.355976,0.0489548,-0.0109652,-0.136063,-0.0148061,0.030389,-0.014545,-1.46433e-06,-1.53665e-05,6.63313e-06,0.0277753,-0.01469702867192113,-1.4643289278915006e-06,-1.5366381935888462e-05,0.03085545874204043,6.633151999224651e-06,-0.014439732477550926
42,0.031855,0.186578,547.272,0.268575,-0.070327,0.0877756,0.0115927,-0.0152915,0.0313586,-0.0150203,-3.3147e-06,-1.37805e-05,8.62755e-06,0.0287284,-0.015175178677809154,-3.3146945064288502e-06,-1.3780405049290678e-05,0.03185546091754765,8.627587217313604e-06,-0.01490805796633532
43,0.032855,-0.238691,549.775,-0.374905,0.0539409,-0.0115865,-0.139709,-0.0157778,0.0323273,-0.0154999,-1.48227e-06,-1.51749e-05,6.09394e-06,0.0296829,-0.01565398255781869,-1.4822689013982426e-06,-1.5174784861793356e-05,0.03285550359500755,6.093958567987556e-06,-0.015380394786311369
44,0.033855,-0.219368,552.764,-0.338256,0.0463728,-0.0087277,-0.130616,-0.016263,0.033295,-0.0159766,-1.33771e-06,-1.52733e-05,5.61135e-06,0.0306358,-0.01613147139732174,-1.3377091052646506e-06,-1.527318336369543e-05,0.03385548162717211,5.611365743618535e-06,-0.015849651095989126
45,0.034855,0.175353,556.145,0.251701,-0.0668305,0.0853193,0.00945279,-0.0167471,0.0342618,-0.0164509,-3.08862e-06,-1.37504e-05,7.48476e-06,0.0315871,-0.016607646884442162,-3.088615230240066e-06,-1.3750305463688939e-05,0.03485549643607477,7.484788010936327e-06,-0.016316322926501092
46,0.035855,-0.217197,558.482,-0.34323,0.0487484,-0.00696325,-0.130816,-0.0172322,0.0352276,-0.0169291,-1.39592e-06,-1.50172e-05,5.13356e-06,0.0325397,-0.01708457482671355,-1.3959190257040177e-06,-1.501708724238604e-05,0.03585544267084306,5.13357317677432e-06,-0.016786608006753134
47,0.036855,-0.198654,561.275,-0.306788,0.041043,-0.00455963,-0.121956,-0.0177161,0.0361926,-0.0174047,-1.28416e-06,-1.50859e-05,4.69132e-06,0.0334907,-0.017560092540165217,-1.284159175440891e-06,-1.5085786208346441e-05,0.03685552563544214,4.691331004336163e-06,-0.017254113114458236
48,0.037855,0.162485,564.429,0.231727,-0.0626832,0.0824099,0.00635284,-0.0181991,0.0371566,-0.0178779,-2.89091e-06,-1.36605e-05,6.39037e-06,0.0344402,-0.018034496437704273,-2.890905821284484e-06,-1.3660406695814586e-05,0.03785553628984806,6.390390418387071e-06,-0.017719038458120617
49,0.038855,-0.190673,566.637,-0.303298,0.0418988,-0.00109465,-0.119949,-0.0186829,0.0381196,-0.0183547,-1.37375e-06,-1.47763e-05,4.26862e-06,0.0353908,-0.01850945644623747,-1.3737490563991983e-06,-1.4776190831011782e-05,0.03885547256333499,4.268629110626421e-06,-0.01818727838331491
50,0.039855,-0.175933,569.256,-0.271813,0.0349518,0.000105218,-0.112516,-0.0191655,0.0390817,-0.0188291,-1.28612e-06,-1.48258e-05,3.85603e-06,0.0363398,-0.018983009505012416,-1.2861191729385268e-06,-1.4825690098363431e-05,0.0398554363689434,3.856037434468718e-06,-0.01865293987481076
51,0.040855,0.150318,572.203,0.212595,-0.0586475,0.0795835,0.00325476,-0.0196473,0.040043,-0.0193013,-2.74213e-06,-1.35043e-05,5.37384e-06,0.0372874,-0.019455549646971715,-2.742126240407039e-06,-1.3504208817405328e-05,0.04085553001792186,5.373854438994741e-06,-0.019116222566950003
52,0.041855,-0.164771,574.304,-0.263939,0.0350771,0.00467392,-0.109268,-0.0201297,0.0410032,-0.0197766,-1.39725e-06,-1.44751e-05,3.47797e-06,0.0382358,-0.019928450217033822,-1.397249023815661e-06,-1.4474995236213317e-05,0.04185543947755166,3.477976048049669e-06,-0.019582325848144344
53,0.042855,0.301377,577.334,0.44307,-0.102341,0.117409,0.0606789,-0.0206105,0.0419626,-0.0202472,-3.61064e-06,-1.25529e-05,5.95074e-06,0.0391817,-0.02039955535541882,-3.610633481643255e-06,-1.2552821212707954e-05,0.04285547522662836,5.950757705708298e-06,-0.02004360185884191
54,0.043855,-0.308822,578.97,-0.488232,0.0795094,-0.0296438,-0.162829,-0.0210926,0.0429211,-0.0207234,-9.50164e-07,-1.45857e-05,2.40444e-06,0.0401294,-0.020871706908505372,-9.501635486186544e-07,-1.4585593629212745e-05,0.04385553139998977,2.4044428905689585e-06,-0.020510146002659657
55,0.044855,-0.262609,581.389,-0.410754,0.0636381,-0.0205517,-0.144263,-0.021573,0.0438786,-0.0211956,-8.40482e-07,-1.46231e-05,1.97779e-06,0.0410749,-0.021341967174946408,-8.404816468354781e-07,-1.4622993082968883e-05,0.04485550173070285,1.9777919557650847e-06,-0.02097255192908598
56,0.045855,0.177345,584.257,0.260011,-0.0674575,0.0853903,0.0171125,-0.0220524,0.0448352,-0.0216652,-2.80123e-06,-1.29405e-05,4.12187e-06,0.0420187,-0.021811023394123663,-2.801226076543095e-06,-1.2940416272089195e-05,0.04585548872117995,4.121878494967035e-06,-0.02143219528599305
57,0.046855,-0.230126,586.017,-0.368342,0.0562466,-0.0120469,-0.133541,-0.0225329,0.0457909,-0.022139,-9.84248e-07,-1.42612e-05,1.63339e-06,0.0429638,-0.02228093029320921,-9.84247515600778e-07,-1.4261098309598097e-05,0.04685549058652838,1.6333913339661166e-06,-0.02189573089161012
58,0.047855,-0.188618,588.31,-0.295024,0.0412747,-0.0040005,-0.115527,-0.0230121,0.0467457,-0.02261,-9.73963e-07,-1.42253e-05,1.34238e-06,0.0439071,-0.02274934103123638,-9.739625257410012e-07,-1.4225198820883023e-05,0.04785550554010798,1.342380900881679e-06,-0.022356309527576834
59,0.048855,0.139361,590.917,0.198619,-0.0551715,0.076555,0.00365225,-0.0234904,0.0476996,-0.023079,-2.43955e-06,-1.2901e-05,2.88852e-06,0.044849,-0.023216648255989458,-2.4395470242799533e-06,-1.2900916782410121e-05,0.04885553179353508,2.888524171851259e-06,-0.022814716913473698
60,0.049855,-0.155726,592.708,-0.252758,0.0344338,0.00565941,-0.104054,-0.0239694,0.0486525,-0.0235509,-1.15531e-06,-1.38006e-05,1.08146e-06,0.0457917,-0.02368441544228994,-1.1553093326455155e-06,-1.3800504772176758e-05,0.049855462571137155,1.0814605848619152e-06,-0.02327574186117043
61,0.050855,0.278673,595.382,0.41243,-0.0960549,0.111925,0.057388,-0.0244468,0.0496046,-0.0240184,-3.23616e-06,-1.19894e-05,3.40835e-06,0.0467318,-0.024150397263646872,-3.23615476360839e-06,-1.1989328127404164e-05,0.050855505952158264,3.4083558084763155e-06,-0.023732253733885544
62,0.051855,-0.274359,596.776,-0.439253,0.0717851,-0.0228267,-0.148853,-0.0249254,0.0505557,-0.024491,-7.99844e-07,-1.38164e-05,1.57519e-07,0.0476736,-0.024617327138284684,-7.998436801770481e-07,-1.3816304553992964e-05,0.05185545007191705,1.5751901250027345e-07,-0.024193528862872515
63,0.052855,-0.225603,598.903,-0.355156,0.0543618,-0.0133565,-0.128678,-0.0254024,0.051506,-0.0249599,-7.63795e-07,-1.37978e-05,-1.63689e-07,0.0486132,-0.02508247372695882,-7.637947082583807e-07,-1.3797704810802891e-05,0.052855503406202375,-1.6368898658747355e-07,-0.024650977260030515
64,0.053855,0.151864,601.406,0.220713,-0.0590791,0.0791034,0.0109473,-0.0258785,0.0524553,-0.0254265,-2.45521e-06,-1.23133e-05,1.66582e-06,0.0495513,-0.025546521485882878,-2.4552069859407055e-06,-1.231322419159575e-05,0.05385545368689293,1.6658213874976013e-06,-0.0251059689562233
65,0.054855,-0.182544,602.981,-0.296315,0.0438408,-0.00170627,-0.113561,-0.0263554,0.0534038,-0.0258966,-9.64065e-07,-1.3364e-05,-3.92581e-07,0.0504903,-0.02601112755566326,-9.640645353137245e-07,-1.3363910702168802e-05,0.05485550978634479,-3.925809229921029e-07,-0.02556415893422459
66,0.055855,0.305296,605.567,0.456799,-0.104565,0.118312,0.0703612,-0.0268306,0.0543513,-0.0263617,-3.29973e-06,-1.13559e-05,2.26502e-06,0.0514266,-0.026473857114598043,-3.299724555927419e-06,-1.1355835522031121e-05,0.05585545903301381,2.2650225650622247e-06,-0.026017263666230916
67,0.056855,-0.307637,606.729,-0.493473,0.0835208,-0.0318041,-0.161077,-0.0273071,0.055298,-0.0268326,-5.62332e-07,-1.34072e-05,-1.35049e-06,0.0523647,-0.026937631818584662,-5.623318418690459e-07,-1.3407110123875299e-05,0.05685551069584438,-1.350489088114415e-06,-0.026475804164936778
68,0.057855,-0.239245,608.732,-0.378953,0.0600967,-0.0172936,-0.133253,-0.0277819,0.0562437,-0.0272994,-5.80468e-07,-1.33363e-05,-1.5904e-06,0.0533005,-0.027399532167177054,-5.804678315790568e-07,-1.333621107191263e-05,0.05785545169988837,-1.590398735262788e-06,-0.026930139209503157
69,0.058855,0.146775,611.105,0.214895,-0.0575532,0.0775076,0.0114641,-0.0282559,0.0571886,-0.0277638,-2.31301e-06,-1.18313e-05,2.99753e-07,0.0542347,-0.027860435546199436,-2.3130073250055005e-06,-1.1831230010472815e-05,0.058855491710696706,2.997530448300978e-07,-0.027381927939391426
70,0.059855,-0.18169,612.546,-0.296752,0.0447188,-0.0022552,-0.112499,-0.0287307,0.0581326,-0.0282319,-8.29527e-07,-1.28658e-05,-1.74218e-06,0.0551699,-0.02832189785158168,-8.295266559210646e-07,-1.2865717235910346e-05,0.05985552323548782,-1.7421784823667963e-06,-0.027837103916674155
71,0.060855,0.297183,614.987,0.446884,-0.102453,0.116216,0.0700654,-0.0292037,0.0590756,-0.0286949,-3.13203e-06,-1.08918e-05,8.87191e-07,0.0561024,-0.02878139291474857,-3.1320250951649697e-06,-1.0891740684582096e-05,0.06085543837979146,8.87191393461606e-07,-0.028287111152846545
72,0.061855,-0.295466,616.042,-0.476903,0.0811999,-0.0296925,-0.156004,-0.029678,0.0600178,-0.0291637,-4.66925e-07,-1.28733e-05,-2.6295e-06,0.0570367,-0.02924193267445152,-4.6692489097388545e-07,-1.2873217139386384e-05,0.06185544740410531,-2.6294965428386163e-06,-0.028742543393479925
73,0.062855,-0.224358,617.922,-0.356793,0.05654,-0.0145392,-0.126722,-0.0301507,0.0609591,-0.0296283,-5.21748e-07,-1.27758e-05,-2.81418e-06,0.0579686,-0.029700701574304267,-5.217478639130135e-07,-1.2775718389868018e-05,0.06285544251060693,-2.814176040200067e-06,-0.02919368479955564
74,0.063855,0.135501,620.138,0.197601,-0.0537434,0.0745369,0.00894346,-0.0306226,0.0618996,-0.0300908,-2.14108e-06,-1.13575e-05,-1.05287e-06,0.0588991,-0.03015847779243752,-2.1410777079067245e-06,-1.1357435503844826e-05,0.0638555282708988,-1.052869445739013e-06,-0.029642578905572092
75,0.064855,-0.162265,621.497,-0.267196,0.039675,0.00186219,-0.103959,-0.0310951,0.0628391,-0.0305567,-7.94125e-07,-1.22808e-05,-2.91291e-06,0.0598303,-0.030616619667139133,-7.941246846776551e-07,-1.2280724591251513e-05,0.06485549019827253,-2.9129057574905914e-06,-0.030094563130159124
76,0.065855,0.269138,623.763,0.404645,-0.0939135,0.109194,0.0616104,-0.0315661,0.0637778,-0.0310179,-2.88154e-06,-1.04822e-05,-5.42482e-07,0.060759,-0.031073091731666058,-2.8815358483758047e-06,-1.0482145061940784e-05,0.06585553934655586,-5.424818528831921e-07,-0.030541780381418193
77,0.066855,-0.257234,624.786,-0.418662,0.070519,-0.0211266,-0.140639,-0.0320382,0.0647155,-0.0314842,-5.09901e-07,-1.22249e-05,-3.68412e-06,0.0616893,-0.03153041416560509,-5.099008699716023e-07,-1.2224825276185847e-05,0.06685546082571903,-3.6841132136089527e-06,-0.030993733368198217
78,0.067855,-0.194913,626.545,-0.310646,0.0480658,-0.00829649,-0.114374,-0.0325088,0.0656524,-0.0319468,-5.78969e-07,-1.21241e-05,-3.84469e-06,0.0626174,-0.031986068728770745,-5.789688324320252e-07,-1.2124026503412821e-05,0.06785546608628223,-3.844682609166483e-06,-0.031441892000058425
79,0.068855,0.122709,628.6,0.176924,-0.0492144,0.0712311,0.00535421,-0.0329786,0.0665884,-0.0324075,-2.01223e-06,-1.08416e-05,-2.30195e-06,0.063544,-0.03244073486424426,-2.0122279754675176e-06,-1.084154123009995e-05,0.06885544672046917,-2.3019473505137e-06,-0.031888003950635846
80,0.069855,-0.135581,629.905,-0.225505,0.0321852,0.00787033,-0.0924046,-0.033449,0.0675236,-0.0328711,-8.51145e-07,-1.16191e-05,-3.91675e-06,0.0644713,-0.032895767710448,-8.511446377701404e-07,-1.161903249846663e-05,0.0698555078899572,-3.916742329579392e-06,-0.03233671665236337
81,0.070855,0.234566,631.991,0.351286,-0.0830742,0.100481,0.0501266,-0.0339179,0.0684578,-0.0333306,-2.65575e-06,-1.00471e-05,-1.892e-06,0.0653963,-0.033349136584329364,-2.6557464735121883e-06,-1.0047049528005836e-05,0.07085543389814442,-1.8919982102127975e-06,-0.032781255790373054
82,0.071855,-0.211104,633.017,-0.347155,0.0570768,-0.0105026,-0.121978,-0.0343878,0.0693913,-0.0337944,-6.51092e-07,-1.14976e-05,-4.56714e-06,0.0663225,-0.033803259120602336,-6.510917880397926e-07,-1.1497533902837809e-05,0.07185554417453321,-4.567129570642869e-06,-0.03322974783059374
83,0.072855,0.350387,635.313,0.534608,-0.119546,0.129403,0.0958929,-0.0348556,0.0703238,-0.0342519,-3.37991e-06,-9.21255e-06,-1.40038e-06,0.0672454,-0.03425514025274823,-3.3799042881144103e-06,-9.21250756458214e-06,0.07285551563370785,-1.400379019522724e-06,-0.033671944060860715
84,0.073855,-0.346519,635.98,-0.561755,0.100434,-0.0443426,-0.175168,-0.0353249,0.0712554,-0.0347164,-1.88694e-07,-1.1591e-05,-5.54653e-06,0.0681706,-0.034708257983035895,-1.8869398221710298e-07,-1.1590932824656619e-05,0.07385545353082601,-5.54651461803779e-06,-0.03412069921139205
85,0.074855,-0.240336,637.661,-0.386442,0.0645693,-0.0199988,-0.131794,-0.0357924,0.0721862,-0.0351759,-3.60005e-07,-1.13919e-05,-5.56021e-06,0.0690931,-0.035159426403593375,-3.6000493519594556e-07,-1.1391835112561921e-05,0.0748554635194214,-5.560194542009178e-06,-0.03456441879772221
86,0.075855,0.122046,639.648,0.179963,-0.0493079,0.0703153,0.00816831,-0.0362592,0.0731161,-0.0356335,-1.99777e-06,-9.98223e-06,-3.75454e-06,0.0700142,-0.035609708879241975,-1.997768004469158e-06,-9.982180177670053e-06,0.07585543648031878,-3.7545329517607584e-06,-0.035006101055072625
87,0.076855,-0.153358,640.802,-0.25606,0.0390769,0.00246573,-0.0989271,-0.0367266,0.0740452,-0.0360943,-7.22171e-07,-1.08359e-05,-5.50959e-06,0.070936,-0.0360603595760397,-7.221707392091048e-07,-1.0835841291800818e-05,0.07685547826382466,-5.509574822259999e-06,-0.03545066780766015
88,0.077855,0.245702,642.805,0.372549,-0.0869811,0.102853,0.0575754,-0.0371926,0.0749734,-0.0365507,-2.67192e-06,-9.16308e-06,-3.28432e-06,0.0718554,-0.03650945080209478,-2.671916430441179e-06,-9.163038019122105e-06,0.07785547954754857,-3.2843146066108275e-06,-0.03589078767987808
89,0.078855,-0.225742,643.675,-0.372891,0.0632031,-0.0150811,-0.127277,-0.0376595,0.0759007,-0.0370118,-5.1965e-07,-1.07154e-05,-6.13491e-06,0.0727762,-0.03695919953750271,-5.196498650272829e-07,-1.071534259033946e-05,0.07885543849304377,-6.134891181508451e-06,-0.03633523596225274
90,0.079855,0.361299,645.889,0.555811,-0.123662,0.132001,0.103518,-0.0381243,0.0768272,-0.0374663,-3.38483e-06,-8.33891e-06,-2.78343e-06,0.0736936,-0.03740671689046804,-3.3848242714240584e-06,-8.338875231439502e-06,0.07985546124581266,-2.783426126251598e-06,-0.036773122080349774
91,0.080855,0.163707,647.095,0.272845,-0.0685532,0.0759443,0.0312739,-0.0385902,0.0777528,-0.0379247,-2.98264e-06,-8.73365e-06,-3.54131e-06,0.0746121,-0.037855084645689874,-2.982635551984636e-06,-8.733611861821977e-06,0.08085543817867347,-3.5413037295928262e-06,-0.03721456409494839
92,0.081855,0.0611452,648.368,0.0602884,-0.0240148,0.0568956,-0.0220071,-0.0390552,0.0786776,-0.0383826,-2.52454e-06,-8.74748e-06,-4.28944e-06,0.0755296,-0.03830237802755865,-2.5245368133752777e-06,-8.747441740952766e-06,0.08185547563394646,-4.289430800330507e-06,-0.03765532262668214
93,0.082855,0.0785752,649.822,0.122191,-0.0344347,0.0605588,-0.00197167,-0.0395197,0.0796015,-0.0388391,-2.7991e-06,-8.46304e-06,-4.03298e-06,0.076446,-0.03874898284096695,-2.799096082473085e-06,-8.463004188552503e-06,0.0828554637812775,-4.032971867573565e-06,-0.03809453271457319
94,0.083855,0.00677874,651.118,-0.0168723,-0.00795157,0.0431605,-0.0393315,-0.0399838,0.0805246,-0.0392959,-2.49956e-06,-8.51445e-06,-4.65508e-06,0.0773619,-0.03919499593268705,-2.499556876145448e-06,-8.514413752158667e-06,0.08385550915982587,-4.655069165138137e-06,-0.0385338307887102
95,0.084855,0.0865358,652.617,0.129088,-0.0362629,0.061892,-0.00133791,-0.0404474,0.0814468,-0.0397512,-3.00539e-06,-8.0373e-06,-4.17117e-06,0.0782766,-0.0396403218980379,-3.0053854838119065e-06,-8.037267701044293e-06,0.08485550173607947,-4.171161300692283e-06,-0.03897148669562445
96,0.085855,-0.0201853,653.845,-0.0544779,7.83393e-05,0.0355919,-0.0483728,-0.0409107,0.0823681,-0.0402074,-2.54848e-06,-8.23161e-06,-4.95252e-06,0.079191,-0.04008515348370889,-2.5484767526284813e-06,-8.23157612039882e-06,0.08585543966050535,-4.952507736244449e-06,-0.03940980791472193
97,0.086855,0.110858,655.379,0.164597,-0.0434559,0.067984,0.00744149,-0.0413734,0.0832887,-0.0406617,-3.27438e-06,-7.55968e-06,-4.20856e-06,0.080104,-0.04052920334433452,-3.2743746392061013e-06,-7.559651425737002e-06,0.08685553845309868,-4.208551144024852e-06,-0.03984610492661611
98,0.087855,-0.0513275,656.512,-0.101308,0.00999543,0.0273921,-0.0595814,-0.041836,0.0842083,-0.0411174,-2.56161e-06,-7.96639e-06,-5.28728e-06,0.081017,-0.04097295188791583,-2.561606719075904e-06,-7.96635826838532e-06,0.08785547050455023,-5.287266022335757e-06,-0.040283547377768514
99,0.088855,0.146209,658.104,0.219265,-0.0544412,0.0768442,0.0212094,-0.0422977,0.0851271,-0.0415705,-3.59426e-06,-7.04618e-06,-4.17292e-06,0.0819283,-0.04141563247535185,-3.5942535406841003e-06,-7.046155175771673e-06,0.08885545143173967,-4.1729112933985846e-06,-0.040718296402622256
100,0.089855,-0.0938981,659.112,-0.167748,0.0238241,0.01635,-0.0758786,-0.0427596,0.0860451,-0.0420258,-2.51313e-06,-7.74662e-06,-5.69634e-06,0.0828399,-0.04185830035269489,-2.513126842074165e-06,-7.746589995027975e-06,0.0898554796788904,-5.696323775894463e-06,-0.04115495794872592
101,0.090855,0.19612,660.797,0.298222,-0.0703326,0.0893853,0.0411507,-0.0432203,0.0869622,-0.0424776,-3.98297e-06,-6.48215e-06,-4.04503e-06,0.0837493,-0.04229961456918707,-3.9829620679388e-06,-6.482128990903391e-06,0.09085544460313288,-4.045021818832595e-06,-0.04158806629218259
102,0.091855,-0.153537,661.64,-0.26229,0.0433347,0.00102695,-0.0993392,-0.0436816,0.0878785,-0.0429327,-2.37771e-06,-7.59269e-06,-6.20982e-06,0.0846596,-0.0427412998744382,-2.3777071732622446e-06,-7.592661175559456e-06,0.09185545353114533,-6.209800719081393e-06,-0.04202414032703994
103,0.092855,0.266517,663.469,0.410663,-0.0930414,0.107164,0.0695521,-0.0441412,0.088794,-0.0433829,-4.46892e-06,-5.84452e-06,-3.79114e-06,0.0855672,-0.043181154886591466,-4.468910014376881e-06,-5.844502920848704e-06,0.09285550490251993,-3.7911328136797096e-06,-0.04245532399233898
104,0.093855,-0.23717,664.089,-0.395793,0.0707639,-0.0203389,-0.132701,-0.0446019,0.0897086,-0.0438382,-2.12271e-06,-7.52985e-06,-6.8681e-06,0.0864764,-0.04362185980436262,-2.1227077470209466e-06,-7.529821650753554e-06,0.09385548776976238,-6.8680764147011075e-06,-0.04289119484979487
105,0.094855,0.365453,666.13,0.569415,-0.12522,0.132291,0.109615,-0.0450605,0.0906224,-0.0442865,-5.09128e-06,-5.10211e-06,-3.3644e-06,0.087382,-0.04406035426499144,-5.091267039403213e-06,-5.102096984233029e-06,0.09485550975494395,-3.3643943404548793e-06,-0.043320170565052774
106,0.095855,-0.353929,666.448,-0.582818,0.109098,-0.0500434,-0.179675,-0.0455206,0.0915353,-0.0447422,-1.70462e-06,-7.59089e-06,-7.72609e-06,0.08829,-0.044500080929117725,-1.7046185470936948e-06,-7.5908611892883116e-06,0.09585545970750964,-7.726060153867564e-06,-0.04375603024515551
107,0.096855,-0.219661,667.866,-0.358909,0.062925,-0.0181705,-0.123397,-0.0459789,0.0924474,-0.0451927,-2.0301e-06,-7.27758e-06,-7.51357e-06,0.0891952,-0.04493788621128458,-2.0300979393095275e-06,-7.277553518481028e-06,0.09685544544647895,-7.513541773196408e-06,-0.0441867211331235
108,0.097855,0.0924886,669.495,0.135518,-0.0378629,0.0610634,0.000532366,-0.0464366,0.0933587,-0.0456416,-3.44835e-06,-6.05476e-06,-5.94446e-06,0.0900992,-0.04537491811838423,-3.4483440544130772e-06,-6.0547416699252565e-06,0.09785546540380086,-5.944442331706767e-06,-0.044615689424870264
109,0.098855,-0.114324,670.444,-0.19664,0.0305374,0.00940038,-0.0819878,-0.0468948,0.0942692,-0.0460931,-2.46547e-06,-6.67229e-06,-7.30545e-06,0.0910037,-0.0458122271357555,-2.4654669606993806e-06,-6.672267740315263e-06,0.09885551800991221,-7.30542331528472e-06,-0.04504694807712817
110,0.099855,0.185647,672.039,0.282422,-0.0668486,0.0861916,0.0389616,-0.0473517,0.0951788,-0.0465412,-3.9566e-06,-5.38043e-06,-5.61792e-06,0.0919061,-0.046248095947364565,-3.956592172671414e-06,-5.38041552555768e-06,0.09985549170818597,-5.617904219490377e-06,-0.045474766679778234
111,0.1009,-0.150157,672.8,-0.256387,0.0432198,0.000779904,-0.0964379,-0.0478093,0.0960876,-0.0469927,-2.39958e-06,-6.45318e-06,-7.70113e-06,0.0928094,-0.04668443297713265,-2.399577121003915e-06,-6.453159178243517e-06,0.1008554947115885,-7.701100346424461e-06,-0.04590563754620469
112,0.1019,0.252635,674.509,0.390176,-0.0886154,0.10331,0.0664454,-0.0482652,0.0969956,-0.0474394,-4.4094e-06,-4.7737e-06,-5.37639e-06,0.09371,-0.04711895048834569,-4.4093902785702355e-06,-4.7736886059635e-06,0.10185552544603271,-5.376375547205825e-06,-0.046331736321665984
113,0.1029,-0.219985,675.072,-0.369375,0.0665397,-0.0171398,-0.124883,-0.0487222,0.0979027,-0.0478909,-2.19304e-06,-6.35436e-06,-8.27646e-06,0.094612,-0.04755431763900142,-2.1930375952994297e-06,-6.354339811109888e-06,0.10285547205038159,-8.276425750186611e-06,-0.04676222035363364
114,0.1039,0.336979,676.962,0.526661,-0.116374,0.124827,0.101118,-0.0491771,0.098809,-0.0483358,-4.9537e-06,-4.0998e-06,-5.02021e-06,0.0955108,-0.04798748664814656,-4.953687730457901e-06,-4.099791595879587e-06,0.10385544303310534,-5.02019739878623e-06,-0.04718622151574603
115,0.1049,-0.317118,677.269,-0.526239,0.0988533,-0.0420091,-0.164487,-0.0496335,0.0997145,-0.0487876,-1.85434e-06,-6.3568e-06,-9.0121e-06,0.0964117,-0.04842188602176278,-1.8543382807045816e-06,-6.356779795546608e-06,0.10485543681562981,-9.012059391189098e-06,-0.04761660554979097
116,0.1059,-0.192356,678.584,-0.315638,0.0550959,-0.0124947,-0.111428,-0.0500882,0.100619,-0.0492345,-2.18669e-06,-6.04706e-06,-8.78166e-06,0.0973099,-0.048854470234714786,-2.1866876092069276e-06,-6.0470417165836565e-06,0.105855230646827,-8.78162144135608e-06,-0.04804213059811657
117,0.1069,0.0816665,680.075,0.117864,-0.0336151,0.0578675,-0.00227225,-0.0505422,0.101523,-0.0496801,-3.43448e-06,-4.95135e-06,-7.40922e-06,0.098207,-0.049286192296904674,-3.4344741022263037e-06,-4.951337742031825e-06,0.10685537577281745,-7.409192551821597e-06,-0.04846622852868576
118,0.1079,-0.0929312,680.978,-0.162438,0.0245329,0.0140256,-0.0719575,-0.0509967,0.102426,-0.0501279,-2.60591e-06,-5.45234e-06,-8.56406e-06,0.0991044,-0.04971819354278606,-2.6059066046135726e-06,-5.452325136046099e-06,0.10785531758292088,-8.564023328494486e-06,-0.04889222996271081
119,0.1089,0.158878,682.425,0.240533,-0.0578443,0.0789142,0.0301672,-0.05145,0.103328,-0.0505727,-3.86863e-06,-4.34354e-06,-7.15122e-06,0.1,-0.050148858668027985,-3.868622516889353e-06,-4.343530566885967e-06,0.1088550538926738,-7.151194430066177e-06,-0.04931518862584339
120,0.1099,-0.117491,683.177,-0.204446,0.0335505,0.00815168,-0.0821066,-0.0519038,0.10423,-0.0510203,-2.58657e-06,-5.20323e-06,-8.88144e-06,0.100896,-0.05057980332722578,-2.586566654860789e-06,-5.203216463245397e-06,0.10985569237139536,-8.881400560101227e-06,-0.04974061992878598
121,0.1109,0.209228,684.705,0.322213,-0.0743642,0.0918006,0.0511619,-0.0523563,0.10513,-0.0514638,-4.23432e-06,-3.81161e-06,-6.99424e-06,0.10179,-0.051009318781019886,-4.234311035244964e-06,-3.811602735770414e-06,0.11085501212096283,-6.99421554040125e-06,-0.050161966523333934
122,0.1119,-0.168205,685.308,-0.287232,0.0507457,-0.00497353,-0.103026,-0.0528094,0.10603,-0.0519112,-2.46107e-06,-5.0466e-06,-9.33383e-06,0.102685,-0.05143920905968291,-2.4610669715485756e-06,-5.046587265966629e-06,0.11185523166315092,-9.33378643996896e-06,-0.05058682901068612
123,0.1129,0.269902,686.965,0.421123,-0.0945159,0.107304,0.0764823,-0.0532609,0.106929,-0.0523534,-4.65617e-06,-3.23946e-06,-6.76581e-06,0.103577,-0.05186738758821585,-4.656159160010276e-06,-3.2394547530012474e-06,0.11285523895234206,-6.765787112006372e-06,-0.0510065667040539
124,0.1139,-0.237106,687.382,-0.399252,0.073969,-0.022771,-0.131391,-0.0537135,0.107827,-0.0528008,-2.24698e-06,-4.95831e-06,-9.89189e-06,0.104471,-0.052296415312295785,-2.246977475528489e-06,-4.958297707635673e-06,0.11385503179672196,-9.891841075471142e-06,-0.05143105140180293
125,0.1149,0.34906,689.217,0.550215,-0.120929,0.127643,0.109466,-0.0541639,0.108725,-0.0532412,-5.16788e-06,-2.59912e-06,-6.42348e-06,0.105361,-0.05272316489561879,-5.167866646504926e-06,-2.599116622259423e-06,0.11485572285831513,-6.423459369520046e-06,-0.05184870919176976
126,0.1159,-0.327379,689.395,-0.546016,0.104359,-0.046033,-0.168677,-0.0546159,0.109621,-0.0536889,-1.92628e-06,-4.95077e-06,-1.05794e-05,0.106253,-0.05315123727344051,-1.9262781447704214e-06,-4.950757744981438e-06,0.1158550812316892,-1.0579344038363914e-05,-0.05227310151735398
127,0.1169,-0.188597,690.635,-0.311611,0.0555152,-0.0126497,-0.109237,-0.0550661,0.110517,-0.0541314,-2.32744e-06,-4.59038e-06,-1.02491e-05,0.107143,-0.05357741264714522,-2.3274372915604857e-06,-4.590369464207988e-06,0.11685533543143589,-1.0249047478150253e-05,-0.05269237789819181
128,0.1179,0.0716404,692.017,0.10286,-0.0297683,0.054585,-0.00426762,-0.0555158,0.111412,-0.0545727,-3.51573e-06,-3.5506e-06,-8.93606e-06,0.108032,-0.05400292320145872,-3.515723819846883e-06,-3.5505936966107043e-06,0.11785536840464816,-8.936020073568862e-06,-0.0531103325233544
129,0.1189,-0.0824458,692.855,-0.146274,0.0222325,0.0157175,-0.0664945,-0.0559658,0.112306,-0.055016,-2.77472e-06,-3.98294e-06,-9.97117e-06,0.108921,-0.05442852611817983,-2.7747161505109474e-06,-3.9829320681583624e-06,0.11885517795227951,-9.971120287999291e-06,-0.05352999568773398
130,0.1199,0.141942,694.177,0.215069,-0.0520104,0.0739376,0.0256168,-0.0564148,0.1132,-0.0554567,-3.90871e-06,-2.98276e-06,-8.70426e-06,0.109808,-0.05485299241013908,-3.908702360999605e-06,-2.9827555515504756e-06,0.11985588172930717,-8.704222118072202e-06,-0.05394701312209338
131,0.1209,-0.0982802,694.887,-0.17426,0.0283792,0.0120398,-0.0731492,-0.0568641,0.114092,-0.0558998,-2.78654e-06,-3.7164e-06,-1.0225e-05,0.110695,-0.05527755157629044,-2.7865361176271364e-06,-3.716393094155279e-06,0.1208552388228108,-1.0224947724846167e-05,-0.05436611634140365
132,0.1219,0.181545,696.269,0.279703,-0.0651141,0.0841265,0.0423617,-0.0573123,0.114984,-0.0563394,-4.21246e-06,-2.50578e-06,-8.59889e-06,0.111581,-0.05570088130239559,-4.212451127583172e-06,-2.505776860561859e-06,0.12185548774053623,-8.598853029617715e-06,-0.054781725639043266
133,0.1229,-0.135999,696.863,-0.236348,0.0413737,0.00218553,-0.0888971,-0.0577609,0.115875,-0.0567822,-2.71194e-06,-3.52671e-06,-1.05893e-05,0.112467,-0.056124398884947135,-2.7119363227301463e-06,-3.5267037811204105e-06,0.12285550642227783,-1.0589243933600834e-05,-0.05520017563926316
134,0.1239,0.226405,698.339,0.353363,-0.0801607,0.0956227,0.0613673,-0.0582082,0.116765,-0.0572205,-4.54771e-06,-2.00774e-06,-8.45257e-06,0.113351,-0.05654650003136674,-4.547699659185334e-06,-2.007737984532909e-06,0.1238552926618759,-8.452534277170187e-06,-0.055614190664259766
135,0.1249,-0.185982,698.794,-0.318177,0.0584622,-0.0108494,-0.109688,-0.0586562,0.117655,-0.0576631,-2.57736e-06,-3.38362e-06,-1.10239e-05,0.114236,-0.056969072536043996,-2.577356678634679e-06,-3.38361427554279e-06,0.12485596910731034,-1.1023839237012112e-05,-0.05603208333700138
136,0.1259,0.28275,700.396,0.445901,-0.0991472,0.110138,0.0851957,-0.0591025,0.118543,-0.0581,-4.93888e-06,-1.46807e-06,-8.23408e-06,0.115118,-0.05738985333475155,-4.9388678037276534e-06,-1.4680689224277899e-06,0.12585528483839514,-8.234046100064063e-06,-0.05644441283985269
137,0.1269,-0.249289,700.68,-0.421791,0.0800704,-0.0273236,-0.136097,-0.0595499,0.119431,-0.0585425,-2.37514e-06,-3.29196e-06,-1.15392e-05,0.116002,-0.05781148278882764,-2.375137179377873e-06,-3.2919545814857898e-06,0.12685548835596805,-1.153913342366586e-05,-0.05686184382375459
138,0.1279,0.353773,702.445,0.562597,-0.123173,0.128528,0.115193,-0.0599952,0.120318,-0.0589778,-5.40158e-06,-8.74683e-07,-7.92465e-06,0.116882,-0.05823094593514089,-5.401565411511378e-06,-8.746826174466094e-07,0.12785545259271713,-7.924618599997046e-06,-0.05727230252032145
139,0.1289,-0.32867,702.518,-0.551802,0.107157,-0.0479308,-0.169336,-0.060442,0.121204,-0.0594205,-2.09137e-06,-3.26143e-06,-1.21534e-05,0.117765,-0.05865163435970455,-2.0913678130396463e-06,-3.2614246815443337e-06,0.12885517533549118,-1.2153326147679167e-05,-0.0576895557061885
140,0.1299,-0.179756,703.679,-0.299199,0.0543029,-0.011646,-0.104862,-0.060887,0.12209,-0.059858,-2.55476e-06,-2.85823e-06,-1.17308e-05,0.118645,-0.05907044119098337,-2.5547567366057677e-06,-2.858225915280954e-06,0.12985578422512023,-1.1730731194425914e-05,-0.058101726356662886
141,0.1309,0.0610887,704.946,0.0866452,-0.0255379,0.0510734,-0.00653802,-0.0613317,0.122974,-0.0602944,-3.65759e-06,-1.89247e-06,-1.05083e-05,0.119524,-0.05948877954135934,-3.657583311000856e-06,-1.8924682092524847e-06,0.1308550183347803,-1.0508244787987842e-05,-0.0585126810864367
142,0.1319,-0.0699696,705.723,-0.12657,0.0192932,0.0178608,-0.0599993,-0.0617765,0.123858,-0.0607326,-3.01907e-06,-2.24667e-06,-1.14038e-05,0.120403,-0.05990702590733188,-3.0190654426442975e-06,-2.2466674762799954e-06,0.13185513615793698,-1.1403734976878077e-05,-0.058925150450946706
143,0.1329,0.1234,706.918,0.186713,-0.0454393,0.0684147,0.0203437,-0.0622204,0.124741,-0.0611685,-4.00509e-06,-1.36927e-06,-1.03067e-05,0.12128,-0.060324240570886034,-4.0050819796189074e-06,-1.3692690625788373e-06,0.13285500562056662,-1.0306646886171222e-05,-0.05933527558459839
144,0.1339,-0.0777754,707.591,-0.141533,0.022737,0.0162118,-0.0633992,-0.0626646,0.125624,-0.0616064,-3.059e-06,-1.96657e-06,-1.15968e-05,0.122158,-0.0607415518515273,-3.058995321270075e-06,-1.966568066280594e-06,0.13385575835784014,-1.1596732757412909e-05,-0.059747102491337745
145,0.1349,0.152805,708.823,0.235073,-0.0552546,0.076013,0.0329957,-0.0631077,0.126505,-0.0620413,-4.24843e-06,-9.46808e-07,-1.02496e-05,0.123034,-0.061157645077639766,-4.248420975461187e-06,-9.468075518048735e-07,0.134855125437513,-1.0249547473084597e-05,-0.06015592957057214
146,0.1359,-0.103681,709.41,-0.184647,0.0318465,0.00936424,-0.0743714,-0.0635512,0.127386,-0.0624788,-3.02954e-06,-1.74956e-06,-1.18789e-05,0.12391,-0.06157392934418837,-3.0295354109810546e-06,-1.7495584695437216e-06,0.13585537334753162,-1.1878829446199113e-05,-0.06056702141848613
147,0.1369,0.183588,710.706,0.286078,-0.0656865,0.0839135,0.0462893,-0.0639935,0.128266,-0.0629126,-4.50388e-06,-5.17975e-07,-1.01757e-05,0.124784,-0.061988903416958174,-4.503869857508391e-06,-5.179748658878935e-07,0.13685536600831538,-1.01756482276949e-05,-0.06097445906497989
148,0.1379,-0.137232,711.196,-0.240029,0.0435173,0.00051081,-0.088481,-0.0644363,0.129145,-0.0633497,-2.96266e-06,-1.56212e-06,-1.22035e-05,0.125659,-0.06240416278531591,-2.9626556112827274e-06,-1.5621187798853242e-06,0.13785510119428124,-1.2203425537649082e-05,-0.06138481743856661
149,0.1389,0.220599,712.574,0.347382,-0.0782855,0.0934617,0.0622306,-0.0648777,0.130024,-0.0637823,-4.78948e-06,-6.73709e-08,-1.00615e-05,0.126532,-0.06281792626354488,-4.7894685304417095e-06,-6.737089774944138e-08,0.13885571553380682,-1.0061449383313992e-05,-0.06179077455168813
150,0.1399,-0.178158,712.95,-0.307523,0.0577185,-0.0102675,-0.10573,-0.0653198,0.130901,-0.0642192,-2.85736e-06,-1.40423e-06,-1.25725e-05,0.127406,-0.06323216288459177,-2.857355917762483e-06,-1.4042290140681146e-06,0.1398549300878682,-1.2572420966416864e-05,-0.062200588631881826
151,0.1409,0.265436,714.429,0.421648,-0.0936056,0.105086,0.0815038,-0.0657603,0.131778,-0.0646505,-5.11287e-06,4.10814e-07,-9.89783e-06,0.128277,-0.06364471824485196,-5.112856929279097e-06,4.1081408430621025e-07,0.1408550213374682,-9.89778101667671e-06,-0.06260497430596568
152,0.1419,-0.227519,714.669,-0.388972,0.0748348,-0.0232384,-0.126608,-0.0662018,0.132655,-0.0650872,-2.708e-06,-1.27967e-06,-1.29933e-05,0.129149,-0.06405802785693637,-2.707996333395357e-06,-1.2796691811756133e-06,0.14185599005180638,-1.2993215587453477e-05,-0.06301424534285105
153,0.1429,0.319471,716.275,0.511201,-0.112136,0.119159,0.104712,-0.0666414,0.13353,-0.0655171,-5.48118e-06,9.22025e-07,-9.67602e-06,0.130018,-0.06446937752660875,-5.481164978338171e-06,9.220254251207649e-07,0.14285555128736815,-9.675973187461828e-06,-0.063416968947137
154,0.1439,-0.28666,716.354,-0.486647,0.0953412,-0.0387458,-0.151716,-0.0670823,0.134405,-0.0659537,-2.50782e-06,-1.19311e-06,-1.34748e-05,0.13089,-0.06488176206120622,-2.507816855401579e-06,-1.193109288255556e-06,0.1438559875217671,-1.347470921531091e-05,-0.06382579184596182
155,0.1449,-0.151559,717.411,-0.253872,0.0462567,-0.00586836,-0.0920242,-0.0675216,0.135278,-0.0663856,-2.96032e-06,-8.09044e-07,-1.30528e-05,0.131758,-0.06529246928468602,-2.9603156183055646e-06,-8.090436727226091e-07,0.14485500980865318,-1.3052714812555877e-05,-0.06423003818318307
156,0.1459,0.0519013,718.543,0.0714339,-0.0213713,0.0479217,-0.00862779,-0.0679605,0.136152,-0.0668166,-3.89324e-06,2.92692e-08,-1.20239e-05,0.132626,-0.06570262240523062,-3.8932324213369895e-06,2.926920039669767e-08,0.145856050478276,-1.2023827713258939e-05,-0.0646332681344296
157,0.1469,-0.0517237,719.27,-0.0966261,0.0143459,0.0215104,-0.0507125,-0.0683995,0.137024,-0.067249,-3.38865e-06,-2.27892e-07,-1.27372e-05,0.133494,-0.06611268893780509,-3.3886442585284726e-06,-2.2789197406947181e-07,0.14685567272625177,-1.2737118882166776e-05,-0.06503763327924361
158,0.1479,0.101229,720.328,0.151626,-0.0373254,0.0618427,0.0132422,-0.0688378,0.137895,-0.0676795,-4.17722e-06,4.91796e-07,-1.1874e-05,0.13436,-0.0665219220562544,-4.177211275435688e-06,4.917961209383037e-07,0.1478550191693937,-1.1873929504302438e-05,-0.06544004795214353
159,0.1489,-0.0532028,720.977,-0.101367,0.0155963,0.0214191,-0.0516202,-0.0692761,0.138766,-0.0681115,-3.45028e-06,5.93204e-08,-1.28787e-05,0.135227,-0.06693097584713037,-3.4502740478004057e-06,5.932040170186781e-08,0.14885523642247,-1.2878617069889131e-05,-0.06584369065832629
160,0.1499,0.120449,722.054,0.183777,-0.0438248,0.0667935,0.0217749,-0.0697136,0.139636,-0.0685412,-4.36012e-06,8.58773e-07,-1.18648e-05,0.136092,-0.06733910426059697,-4.360110494650016e-06,8.587733686393761e-07,0.14985517538853665,-1.1864729613564329e-05,-0.06624501139451511
161,0.1509,-0.0685249,722.647,-0.127395,0.0211635,0.0173037,-0.0582615,-0.0701513,0.140506,-0.0689727,-3.46025e-06,2.98365e-07,-1.30855e-05,0.136957,-0.06774724060750659,-3.460244013320235e-06,2.9836504444880063e-07,0.15085598468004058,-1.308541438527211e-05,-0.06664783975562927
162,0.1519,0.138774,723.759,0.214603,-0.050104,0.0714759,0.0299384,-0.0705879,0.141374,-0.0694013,-4.54238e-06,1.22334e-06,-1.18545e-05,0.13782,-0.0681541733223816,-4.5423696833912786e-06,1.2233407482575842e-06,0.1518553613414677,-1.1854429735724814e-05,-0.06704778877631234
163,0.1529,-0.0880615,724.292,-0.160026,0.0281266,0.0120638,-0.0665793,-0.0710249,0.142242,-0.0698323,-3.44971e-06,5.20439e-07,-1.33139e-05,0.138684,-0.06856130098476643,-3.449704049751645e-06,5.204391353430537e-07,0.15285560583842295,-1.3313811370374573e-05,-0.06744980453872973
164,0.1539,0.159779,725.448,0.249817,-0.0573224,0.0768751,0.0392296,-0.0714607,0.143109,-0.07026,-4.73702e-06,1.59631e-06,-1.18262e-05,0.139546,-0.06896713353246209,-4.737008780342222e-06,1.5963112740546848e-06,0.15385556506837283,-1.1826130070780039e-05,-0.06784857097504737
165,0.1549,-0.11096,725.913,-0.198142,0.0362476,0.00593216,-0.0763225,-0.071897,0.143975,-0.0706905,-3.42087e-06,7.27839e-07,-1.35618e-05,0.140408,-0.06937325457035515,-3.4208641488397973e-06,7.278392648579768e-07,0.15485523678309887,-1.3561708039233622e-05,-0.06824977579970781
166,0.1559,0.184148,727.122,0.290602,-0.0657225,0.0831749,0.0499596,-0.072332,0.144841,-0.0711172,-4.94717e-06,1.97998e-06,-1.1776e-05,0.141269,-0.06977798916845979,-4.947157762780208e-06,1.9799819601651336e-06,0.15585577458849276,-1.1775930663149303e-05,-0.06864726880920935
167,0.1569,-0.137421,727.51,-0.24217,0.0456146,-0.00113735,-0.08761,-0.0727676,0.145706,-0.0715473,-3.37236e-06,9.19869e-07,-1.38311e-05,0.14213,-0.07018310563560559,-3.3723543135799616e-06,9.19869423077202e-07,0.1568560223783133,-1.3831004350817189e-05,-0.06904775748763048
168,0.1579,0.21227,728.783,0.337658,-0.0754502,0.090481,0.0623156,-0.0732018,0.14657,-0.0719729,-5.17497e-06,2.37589e-06,-1.17013e-05,0.142988,-0.07058674449480085,-5.174956609899084e-06,2.375892822481518e-06,0.15785597790022843,-1.1701231540039991e-05,-0.06944388645981914
169,0.1589,-0.16778,729.085,-0.292717,0.0563545,-0.00923139,-0.100606,-0.0736367,0.147433,-0.0724027,-3.30241e-06,1.09539e-06,-1.41243e-05,0.143848,-0.07099085843867348,-3.3024045470453345e-06,1.0953906000032987e-06,0.1588556389008351,-1.412420025259653e-05,-0.06984375353982764
170,0.1599,0.244522,730.432,0.391648,-0.0866456,0.0988957,0.0764723,-0.0740701,0.148295,-0.0728271,-5.42247e-06,2.78556e-06,-1.15996e-05,0.144705,-0.07139340376275338,-5.422455298442763e-06,2.7855638797813498e-06,0.15985500312566758,-1.1599532724893002e-05,-0.07023842809496084
171,0.1609,-0.2024,730.635,-0.350416,0.0686006,-0.018444,-0.115482,-0.0745044,0.149157,-0.0732566,-3.20915e-06,1.25318e-06,-1.44438e-05,0.145564,-0.07179661004491744,-3.2091448506355036e-06,1.2531807851434706e-06,0.1608552291738543,-1.4443695688814984e-05,-0.0706376749456954
172,0.1619,0.281283,732.068,0.453237,-0.0994509,0.108525,0.0926044,-0.0749369,0.150018,-0.0736799,-5.69182e-06,3.2106e-06,-1.14684e-05,0.146419,-0.07219797121046456,-5.6918038016107175e-06,3.2106051539582126e-06,0.16185515593287048,-1.1468334238151634e-05,-0.07103099076672437
173,0.1629,-0.241648,732.162,-0.415901,0.0824874,-0.0288703,-0.132408,-0.0753705,0.150879,-0.0741091,-3.0907e-06,1.39205e-06,-1.47922e-05,0.147276,-0.07260017896520488,-3.090695223750828e-06,1.3920509689402394e-06,0.16285594399956604,-1.4792090595960872e-05,-0.07142961871381048
174,0.1639,0.322938,733.694,0.523093,-0.114009,0.119475,0.110886,-0.0758022,0.151738,-0.0745312,-5.98514e-06,3.65266e-06,-1.13052e-05,0.14813,-0.07300045106299691,-5.9851220890472234e-06,3.652666670905802e-06,0.16385526640298553,-1.1305136096484425e-05,-0.07182148556243484
175,0.1649,-0.285883,733.665,-0.489791,0.0981466,-0.0406031,-0.151554,-0.0762352,0.152597,-0.0749601,-2.94526e-06,1.51086e-06,-1.5172e-05,0.148986,-0.07340175497911883,-2.945255662689661e-06,1.5108611413072737e-06,0.16485544759314563,-1.5171884905740285e-05,-0.07221949596784427
176,0.1659,0.369863,735.31,0.601869,-0.130461,0.131854,0.131488,-0.076666,0.153455,-0.0753809,-6.30458e-06,4.11339e-06,-1.11076e-05,0.149838,-0.0738008475323656,-6.304560126180192e-06,4.1133984600705276e-06,0.16585532245215573,-1.1107538310795029e-05,-0.07260982387319004
177,0.1669,-0.335451,735.144,-0.572681,0.115705,-0.0537308,-0.173083,-0.0770984,0.154313,-0.0758098,-2.77111e-06,1.60859e-06,-1.55856e-05,0.150693,-0.07420124947275453,-2.7711061604263065e-06,1.6085912937224833e-06,0.16685605557193606,-1.5585478545188103e-05,-0.07300749623279723
178,0.1679,-0.160051,736.148,-0.271617,0.0520457,-0.00968811,-0.0949685,-0.0775291,0.155169,-0.076233,-3.39796e-06,2.12099e-06,-1.4924e-05,0.151545,-0.07459990513794645,-3.3979542269912955e-06,2.1209922493881095e-06,0.16785531197623071,-1.4923888637663474e-05,-0.0733997164607374
179,0.1689,0.0369533,737.168,0.0491097,-0.015244,0.0425967,-0.0119578,-0.0779594,0.156025,-0.0766556,-4.30575e-06,2.91592e-06,-1.39067e-05,0.152396,-0.07499801913839554,-4.305740730292662e-06,2.9159242513898675e-06,0.1688554241102076,-1.3906603302249465e-05,-0.07379121501109087
180,0.1699,-0.0439241,737.82,-0.0846376,0.0134489,0.0219439,-0.0457357,-0.0783898,0.15688,-0.0770796,-3.89366e-06,2.72992e-06,-1.44925e-05,0.153247,-0.07539605432764118,-3.893652419706406e-06,2.7299237261857456e-06,0.16985522285087695,-1.4492394984189083e-05,-0.07418384429263636
181,0.1709,0.0847576,738.744,0.127121,-0.0309049,0.0562413,0.00941291,-0.0788195,0.157735,-0.0775019,-4.56435e-06,3.34671e-06,-1.37539e-05,0.154097,-0.0757932712949193,-4.564339583401633e-06,3.3467156002053855e-06,0.17085587678501257,-1.3753805415572806e-05,-0.07457473391303904
182,0.1719,-0.0382747,739.331,-0.0771992,0.012156,0.0237559,-0.0434487,-0.0792492,0.158588,-0.0779253,-3.97401e-06,3.01911e-06,-1.45741e-05,0.154947,-0.07619031761473272,-3.9740021036127615e-06,3.019114557467617e-06,0.1718550429316883,-1.4573993798339124e-05,-0.0749664760330413
183,0.1729,0.0974465,740.258,0.148413,-0.0351991,0.0595456,0.0151631,-0.0796782,0.159441,-0.0783469,-4.6976e-06,3.66515e-06,-1.37711e-05,0.155795,-0.07658654697120215,-4.6975889662626e-06,3.665156716570195e-06,0.17285506173069165,-1.3771005178853102e-05,-0.07535638796753452
184,0.1739,-0.0456887,740.81,-0.0901059,0.0149976,0.0216974,-0.0467232,-0.0801072,0.160294,-0.0787698,-4.00657e-06,3.26341e-06,-1.47174e-05,0.156644,-0.07698260638173371,-4.006561973746159e-06,3.2634153248611852e-06,0.17385593390964527,-1.4717291699550827e-05,-0.0757473370790468
185,0.1749,0.107022,741.753,0.164763,-0.0385029,0.0619717,0.0195965,-0.0805355,0.161145,-0.0791905,-4.81957e-06,3.97297e-06,-1.38008e-05,0.157491,-0.0773778500839396,-4.819558385937839e-06,3.972977892230389e-06,0.1748553104838222,-1.3800704769417749e-05,-0.07613608839476471
186,0.1759,-0.0553685,742.272,-0.106483,0.0185785,0.0190222,-0.0508747,-0.0809638,0.161996,-0.0796128,-4.02847e-06,3.49833e-06,-1.48706e-05,0.158338,-0.07777292453951457,-4.02846188574113e-06,3.4983361192342244e-06,0.1758555378894413,-1.4870489433160827e-05,-0.07652615375653748
187,0.1769,0.117046,743.233,0.181843,-0.0419739,0.0645207,0.0242179,-0.0813913,0.162846,-0.0800326,-4.94301e-06,4.28099e-06,-1.38262e-05,0.159183,-0.07816709235490038,-4.942997783308201e-06,4.280999163386312e-06,0.17685543999483966,-1.3826104418579455e-05,-0.07691374671573614
188,0.1779,-0.066071,743.717,-0.124501,0.0225111,0.016068,-0.0554558,-0.081819,0.163695,-0.0804543,-4.04403e-06,3.72754e-06,-1.50289e-05,0.160029,-0.07856127598732143,-4.044021822968702e-06,3.727546947329685e-06,0.1778550145227411,-1.5028787066606597e-05,-0.07730293012365719
189,0.1789,0.127894,744.699,0.200292,-0.0457424,0.0672951,0.0291947,-0.0822457,0.164544,-0.0808734,-5.06939e-06,4.5903e-06,-1.38456e-05,0.160873,-0.07895437001828187,-5.0693771506127305e-06,4.5903105354572205e-06,0.178855438049766,-1.3845504150067356e-05,-0.07768955144348577
190,0.1799,-0.0776461,745.146,-0.143975,0.0267549,0.0128794,-0.0604215,-0.0826727,0.165392,-0.0812945,-4.05372e-06,3.9516e-06,-1.5192e-05,0.161718,-0.07934757254756974,-4.053711783691405e-06,3.95160780763959e-06,0.17985553144089916,-1.5191884602194783e-05,-0.07807785461040317
191,0.1809,0.139595,746.152,0.220181,-0.0498213,0.070303,0.0345488,-0.0830986,0.166239,-0.0817127,-5.19887e-06,4.90101e-06,-1.38586e-05,0.16256,-0.0797395949293297,-5.198856485866266e-06,4.901022010006528e-06,0.18085529241503218,-1.3858503970065605e-05,-0.07846332184478844
192,0.1819,-0.0900612,746.559,-0.164876,0.0313032,0.00946602,-0.0657665,-0.0835249,0.167086,-0.0821333,-4.05763e-06,4.17065e-06,-1.53596e-05,0.163403,-0.08013181833165317,-4.057621767805664e-06,4.170658697066898e-06,0.18185590054543055,-1.5359482041898964e-05,-0.0788508386711192
193,0.1829,0.152134,747.593,0.241499,-0.0542084,0.0735403,0.0402793,-0.0839502,0.167931,-0.0825506,-5.33145e-06,5.21309e-06,-1.38653e-05,0.164244,-0.08052295508818974,-5.3314357878475604e-06,5.213103588141976e-06,0.18285499083759205,-1.3865203877139187e-05,-0.0792351540231665
194,0.1839,-0.10329,747.958,-0.187169,0.036149,0.00583501,-0.0714839,-0.0843757,0.168776,-0.0829707,-4.05591e-06,4.38484e-06,-1.55317e-05,0.165086,-0.08091410934682963,-4.0559017747687776e-06,4.384849613403574e-06,0.18385492571783835,-1.553157938372074e-05,-0.0796218860962018
195,0.1849,0.165481,749.02,0.264209,-0.0588954,0.0769999,0.046377,-0.0848002,0.169621,-0.0833871,-5.46704e-06,5.52646e-06,-1.38658e-05,0.165926,-0.08130417850937455,-5.467025055772012e-06,5.526475270967168e-06,0.18485570590014855,-1.3865703870186152e-05,-0.0800050517622033
196,0.1859,-0.117295,749.342,-0.210803,0.0412812,0.00199588,-0.077561,-0.0852251,0.170464,-0.0838067,-4.04873e-06,4.59435e-06,-1.57082e-05,0.166766,-0.08169444944499404,-4.048721803928679e-06,4.5943605539999766e-06,0.18585496038681182,-1.570807662687468e-05,-0.08039100066474147
197,0.1869,0.179595,750.435,0.288246,-0.0638696,0.0806714,0.0528264,-0.0856489,0.171307,-0.0842223,-5.60546e-06,5.84101e-06,-1.38604e-05,0.167604,-0.08208354488217251,-5.6054442894026835e-06,5.8410270586950475e-06,0.18685505760016685,-1.3860303945123498e-05,-0.08077311075688809
198,0.1879,-0.13203,750.711,-0.235701,0.046684,-0.00203865,-0.0839785,-0.0860731,0.17215,-0.0846413,-4.03635e-06,4.7994e-06,-1.58888e-05,0.168443,-0.08247284246657804,-4.036341853974612e-06,4.799411517097951e-06,0.18785599825093158,-1.5888673773667428e-05,-0.0811581861445535
199,0.1889,0.194423,751.837,0.313525,-0.0691128,0.0845407,0.0596054,-0.0864961,0.172991,-0.085056,-5.7465e-06,6.15658e-06,-1.38494e-05,0.16928,-0.08286087437967926,-5.746483488944243e-06,6.1565989517564645e-06,0.18885540533723533,-1.3849304097535153e-05,-0.08153915084626873
200,0.1899,-0.147431,752.066,-0.261761,0.0523363,-0.00625228,-0.090711,-0.0869197,0.173832,-0.0854745,-4.0191e-06,5.00025e-06,-1.60731e-05,0.170118,-0.08324929224058109,-4.01909192337957e-06,5.000262501164698e-06,0.18985565327842857,-1.607297082839576e-05,-0.0819234462922086
201,0.1909,0.209895,753.227,0.339934,-0.074602,0.0885903,0.0666852,-0.0873419,0.174672,-0.0858883,-5.88983e-06,6.47296e-06,-1.38332e-05,0.170953,-0.08363626269418611,-5.88981265503552e-06,6.472980949689955e-06,0.19085555192582038,-1.3833104321681056e-05,-0.08230326777964747
202,0.1919,-0.163423,753.408,-0.288859,0.0582121,-0.010625,-0.0977262,-0.0877648,0.175511,-0.0863064,-3.99739e-06,5.19724e-06,-1.62607e-05,0.17179,-0.08402371098697681,-3.997382010401118e-06,5.197253505784261e-06,0.1918550989852439,-1.6260567795578496e-05,-0.08268687658438001
203,0.1929,0.225931,754.605,0.367336,-0.0803087,0.0927986,0.0740307,-0.0881863,0.17635,-0.0867193,-6.03509e-06,6.78986e-06,-1.38124e-05,0.172624,-0.08440971363702243,-6.035071788867974e-06,6.789883051139256e-06,0.19285548501655003,-1.3812304609284176e-05,-0.0830655569890888
204,0.1939,-0.179915,754.736,-0.316845,0.0642802,-0.015133,-0.104986,-0.0886085,0.177188,-0.0871368,-3.97171e-06,5.39075e-06,-1.6451e-05,0.173459,-0.08479619426412355,-3.971702112748332e-06,5.390764530099901e-06,0.19385551686781732,-1.645086468304857e-05,-0.08344829721646385
205,0.1949,0.242432,755.972,0.395572,-0.0861992,0.0971402,0.0816003,-0.0890292,0.178025,-0.0875488,-6.1818e-06,7.10698e-06,-1.37876e-05,0.174291,-0.08518113952628326,-6.181780892733357e-06,7.107005254747278e-06,0.1948551922412176,-1.3787504951512375e-05,-0.08382583873911653
206,0.1959,-0.196805,756.05,-0.345547,0.070504,-0.019749,-0.112444,-0.0894508,0.178862,-0.0879659,-3.94259e-06,5.58119e-06,-1.66434e-05,0.175125,-0.08556674586633073,-3.942582228022573e-06,5.581205574811676e-06,0.19585570469317415,-1.6643261499416084e-05,-0.08420789529834405
207,0.1969,0.259289,757.326,0.424458,-0.0922348,0.101586,0.0893461,-0.0898708,0.179698,-0.088377,-6.32944e-06,7.42394e-06,-1.37594e-05,0.175956,-0.08595072719134411,-6.329419969142158e-06,7.423967557596001e-06,0.19685585806815808,-1.3759305339866579e-05,-0.08458430005728756
208,0.1979,-0.213975,757.353,-0.374768,0.0768428,-0.0244422,-0.120051,-0.0902917,0.180533,-0.0887936,-3.91066e-06,5.76906e-06,-1.68372e-05,0.176789,-0.08633536957660082,-3.910652353389388e-06,5.76907664107118e-06,0.1978556500647135,-1.6837058255170234e-05,-0.08496558281117161
209,0.1989,0.27638,758.668,0.453787,-0.0983721,0.106104,0.0972145,-0.090711,0.181367,-0.0892038,-6.47741e-06,7.74032e-06,-1.37287e-05,0.177618,-0.08671838885053496,-6.477389021597446e-06,7.740349956320003e-06,0.1988550783805454,-1.3728605761875734e-05,-0.08534085295593374
210,0.1999,-0.231299,758.643,-0.404295,0.083251,-0.0291787,-0.12775,-0.0911313,0.182201,-0.08962,-3.8766e-06,5.95486e-06,-1.70315e-05,0.178449,-0.08710216045644859,-3.87659248601846e-06,5.954877730252051e-06,0.19985534056726828,-1.7031354964780476e-05,-0.08572145488417815
211,0.2009,0.293571,759.999,0.483335,-0.104563,0.110657,0.105146,-0.0915497,0.183034,-0.0900293,-6.62505e-06,8.05564e-06,-1.36963e-05,0.179277,-0.08748403701836593,-6.625028054374482e-06,8.055672446660722e-06,0.2008552364647842,-1.3696206206059713e-05,-0.08609559252020371
212,0.2019,-0.248637,759.921,-0.433894,0.0896794,-0.033922,-0.13548,-0.0919694,0.183867,-0.090445,-3.84116e-06,6.13915e-06,-1.72256e-05,0.180107,-0.08786693961029979,-3.8411526227521975e-06,6.139168844621068e-06,0.20185596562258734,-1.72254516401793e-05,-0.08647542362902727
213,0.2029,0.310718,761.318,0.512859,-0.110757,0.115208,0.113079,-0.0923871,0.184698,-0.0908534,-6.77163e-06,8.36941e-06,-1.36632e-05,0.180934,-0.08824785802927437,-6.771607072519892e-06,8.369445023692634e-06,0.20285512302242115,-1.3663106658956536e-05,-0.0868484308927494
214,0.2039,-0.265844,761.187,-0.463318,0.0960756,-0.0386333,-0.143175,-0.0928061,0.185529,-0.0912686,-3.8051e-06,6.32252e-06,-1.74183e-05,0.181763,-0.08862980215387817,-3.8050927606558815e-06,6.322539987113629e-06,0.20385511106713916,-1.7418148302250636e-05,-0.08722749272556074
215,0.2049,0.327672,762.625,0.542102,-0.116899,0.119716,0.120944,-0.0932231,0.18636,-0.0916761,-6.91639e-06,8.68108e-06,-1.36304e-05,0.182588,-0.08900976429876684,-6.916366081854974e-06,8.681117680708894e-06,0.20485593044729455,-1.3630307106549111e-05,-0.08759937174677845
216,0.2059,-0.282768,762.443,-0.492307,0.102385,-0.043272,-0.150767,-0.0936415,0.187189,-0.0920909,-3.76926e-06,6.50556e-06,-1.76089e-05,0.183415,-0.08939084288618449,-3.7692528963573224e-06,6.50558116110922e-06,0.20585517014126187,-1.7608744964259238e-05,-0.08797775704484168
217,0.2069,0.344274,763.92,0.570797,-0.122932,0.124138,0.128672,-0.0940577,0.188018,-0.0924975,-7.05854e-06,8.99009e-06,-1.35987e-05,0.184239,-0.08976975955934585,-7.058515088531614e-06,8.990130411001829e-06,0.20685523854838972,-1.3598607538134466e-05,-0.08834850990966192
218,0.2079,-0.299251,763.688,-0.520595,0.10855,-0.0477967,-0.158184,-0.0944754,0.188846,-0.0929118,-3.73446e-06,6.68888e-06,-1.77962e-05,0.185065,-0.09014988333640028,-3.734453026926765e-06,6.688902370655114e-06,0.20785492850043386,-1.7796041648532324e-05,-0.08872612889283271
219,0.2089,0.360366,765.204,0.59867,-0.128797,0.128431,0.13619,-0.0948909,0.189674,-0.0933176,-7.19725e-06,9.29586e-06,-1.35694e-05,0.185888,-0.09052784753237464,-7.197224099808608e-06,9.295903206529843e-06,0.20885544653853838,-1.3569307936056596e-05,-0.08909584880848342
220,0.2099,-0.315135,764.923,-0.547911,0.114514,-0.0521652,-0.165356,-0.095308,0.190501,-0.0937314,-3.70157e-06,6.87311e-06,-1.79792e-05,0.186713,-0.09090710926663581,-3.701563149216547e-06,6.873133619800242e-06,0.20985558349245426,-1.7979038375193213e-05,-0.08947270296974319
221,0.2109,0.375787,766.476,0.625447,-0.134436,0.132551,0.143427,-0.0957228,0.191327,-0.0941363,-7.33169e-06,9.59779e-06,-1.35435e-05,0.187534,-0.09128412279969955,-7.331663123277821e-06,9.597836059027642e-06,0.21085533704579418,-1.3543408287186587e-05,-0.08984130084463515
222,0.2119,-0.330265,766.147,-0.573987,0.120219,-0.0563358,-0.17221,-0.0961392,0.192153,-0.0945497,-3.67142e-06,7.05885e-06,-1.81569e-05,0.188357,-0.0916624333212489,-3.67141326029774e-06,7.058874913701274e-06,0.2118559167367171,-1.8156735164476245e-05,-0.09021748268872132
223,0.2129,-0.137881,767.029,-0.2386,0.0485263,-0.0068719,-0.083848,-0.0965539,0.192977,-0.0949571,-4.43245e-06,7.65174e-06,-1.7296e-05,0.189178,-0.09203904281477482,-4.432440176671548e-06,7.651769274641396e-06,0.21285489753567366,-1.7295850425091963e-05,-0.0905880525960584
224,0.2139,0.017787,767.851,0.0184535,-0.00608678,0.035265,-0.0163181,-0.0969684,0.193802,-0.0953644,-5.15238e-06,8.2872e-06,-1.64795e-05,0.189998,-0.09241531464380415,-5.152366726490776e-06,8.28723433898837e-06,0.21385591568935247,-1.647936421378393e-05,-0.09095838065980622
225,0.2149,-0.0235966,768.41,-0.050652,0.00916374,0.0247522,-0.0336718,-0.0973828,0.194625,-0.0957726,-4.92615e-06,8.23235e-06,-1.6809e-05,0.190818,-0.09279133981961818,-4.9261378665121924e-06,8.232383885919958e-06,0.2148553303106704,-1.6808858729566722e-05,-0.09132937572357691
226,0.2159,0.0558602,769.126,0.0817835,-0.0189371,0.0463532,0.00132309,-0.0977968,0.195448,-0.0961797,-5.34767e-06,8.64645e-06,-1.63516e-05,0.191638,-0.09316684646969298,-5.347655701259946e-06,8.646487380747914e-06,0.2158555677887808,-1.635146631329132e-05,-0.09169922024775912
227,0.2169,-0.0121711,769.643,-0.0330363,0.0056213,0.0280784,-0.0287537,-0.0982106,0.19627,-0.0965874,-5.01339e-06,8.50508e-06,-1.68281e-05,0.192456,-0.09354201640061177,-5.013377432971922e-06,8.505116168233684e-06,0.21685541194515334,-1.6827958408294208e-05,-0.09206945899736663
228,0.2179,0.0606594,770.347,0.0900547,-0.0205437,0.0475914,0.00368008,-0.0986239,0.197092,-0.0969938,-5.41524e-06,8.89662e-06,-1.63957e-05,0.193274,-0.09391657807673115,-5.415225337590535e-06,8.89665957504171e-06,0.21785607831130416,-1.63955655912984e-05,-0.0924383670020461
229,0.2189,-0.0118458,770.852,-0.0329218,0.00569657,0.0280861,-0.0286452,-0.099037,0.197912,-0.0974008,-5.05899e-06,8.73969e-06,-1.69007e-05,0.194092,-0.0942908038366751,-5.058977203376003e-06,8.739728191153873e-06,0.21885512985067046,-1.6900557183952003e-05,-0.09280766942853458
230,0.2199,0.0618214,771.552,0.0922938,-0.020904,0.0478106,0.0044205,-0.0994496,0.198732,-0.0978066,-5.46757e-06,9.13411e-06,-1.64576e-05,0.194908,-0.09466442236820871,-5.467555052818263e-06,9.134151716105876e-06,0.21985500094827182,-1.6457464574459735e-05,-0.09317573339105156
231,0.2209,-0.0126789,772.05,-0.034461,0.00613213,0.0277681,-0.0289448,-0.0998621,0.199552,-0.098213,-5.09958e-06,8.96924e-06,-1.69768e-05,0.195724,-0.09503779628031817,-5.099566997124327e-06,8.969280223647402e-06,0.220855692276422,-1.6976655894951342e-05,-0.09354419189716179
232,0.2219,0.0625179,772.747,0.0936869,-0.0210933,0.0479049,0.00493061,-0.100274,0.200371,-0.0986181,-5.51677e-06,9.36867e-06,-1.65215e-05,0.196539,-0.0954104734538973,-5.516754782664002e-06,9.368713886015456e-06,0.22185598265139195,-1.6521363520816124e-05,-0.09391132277764369
233,0.2229,-0.0135386,773.238,-0.0359565,0.00656171,0.0274373,-0.0292288,-0.100686,0.201189,-0.0990238,-5.13932e-06,9.19722e-06,-1.70519e-05,0.197354,-0.0957830875750546,-5.1393067936889025e-06,9.19726229464679e-06,0.2228558697432672,-1.7051754617192216e-05,-0.09427884839638001
234,0.2239,0.063058,773.932,0.0947739,-0.0212216,0.0479591,0.00535512,-0.101097,0.202006,-0.0994283,-5.56407e-06,9.60119e-06,-1.65859e-05,0.198168,-0.09615464436591037,-5.564054520568185e-06,9.601236091505427e-06,0.22385535122143607,-1.6585762454668362e-05,-0.09464513851503287
235,0.2249,-0.0142824,774.416,-0.0372234,0.00694398,0.0271366,-0.0294508,-0.101508,0.202823,-0.0998334,-5.1787e-06,9.42414e-06,-1.71253e-05,0.198981,-0.0965260484783027,-5.178686590556758e-06,9.42418440730286e-06,0.224855649609635,-1.7125153362940182e-05,-0.0950118234923637
236,0.2259,0.0634576,775.107,0.0956023,-0.0212971,0.0479773,0.00570917,-0.101919,0.203639,-0.100237,-5.60957e-06,9.83171e-06,-1.66506e-05,0.199794,-0.09689729997496954,-5.609554266428063e-06,9.831758331468876e-06,0.2258555397193993,-1.6650461379552617e-05,-0.09537700302221586
237,0.2269,-0.0148828,775.585,-0.0382339,0.00727186,0.0268745,-0.0296049,-0.102329,0.204454,-0.100642,-5.21784e-06,9.65012e-06,-1.7197e-05,0.200606,-0.0972674961865706,-5.217826387071689e-06,9.650166562513718e-06,0.22685501921684237,-1.7196852132417284e-05,-0.09574330115561303
238,0.2279,0.0637092,776.273,0.0961694,-0.0213184,0.0479568,0.00599291,-0.102739,0.205269,-0.101045,-5.65326e-06,1.00602e-05,-1.67156e-05,0.201417,-0.09763754064883567,-5.6532440203538314e-06,1.0060250603904919e-05,0.22785531362210598,-1.671546029513582e-05,-0.09610764318539733
239,0.2289,-0.0153299,776.745,-0.0389783,0.00754274,0.0266539,-0.0296889,-0.103149,0.206083,-0.101449,-5.25677e-06,9.87522e-06,-1.7267e-05,0.202228,-0.09800743342396911,-5.2567561832361775e-06,9.875268760062283e-06,0.22885519474380112,-1.7266850926178634e-05,-0.09647274194263566
240,0.2299,0.0638066,777.429,0.0964693,-0.0212837,0.0478958,0.00620507,-0.103558,0.206897,-0.101851,-5.69511e-06,1.02867e-05,-1.67809e-05,0.203038,-0.09837627295087381,-5.69509378289812e-06,1.0286752908372776e-05,0.2298558901000778,-1.6780759201528994e-05,-0.0968358869033471
241,0.2309,-0.0156192,777.896,-0.0394512,0.00775521,0.0264764,-0.0297018,-0.103967,0.207709,-0.102254,-5.29554e-06,1.00995e-05,-1.73352e-05,0.203848,-0.09874496165325775,-5.2955259786102715e-06,1.0099551000175566e-05,0.23085493864165385,-1.733504974632538e-05,-0.09719978870978596
242,0.2319,0.0637471,778.576,0.0964982,-0.021192,0.0477933,0.00634476,-0.104376,0.208522,-0.102656,-5.73514e-06,1.05111e-05,-1.68466e-05,0.204656,-0.09911349959279547,-5.735123554062582e-06,1.0511155241754722e-05,0.23185603059550797,-1.6846458096853034e-05,-0.097562641456436
243,0.2329,-0.0157488,779.038,-0.0396506,0.00790865,0.0263424,-0.0296427,-0.104784,0.209333,-0.103058,-5.33416e-06,1.03229e-05,-1.74017e-05,0.205465,-0.09948098631257296,-5.334145773416843e-06,1.032295328129429e-05,0.23285547105464777,-1.740154859131149e-05,-0.09792534836559719
244,0.2339,0.0635299,779.713,0.0962556,-0.0210432,0.047649,0.00641179,-0.105192,0.210144,-0.10346,-5.77335e-06,1.07336e-05,-1.69126e-05,0.206272,-0.09984832312835135,-5.7733333342913085e-06,1.0733657605399571e-05,0.23385572238876517,-1.6912456982765e-05,-0.0982879094958845
245,0.2349,-0.0157195,780.171,-0.0395773,0.00800316,0.026252,-0.0295121,-0.1056,0.210954,-0.103861,-5.37264e-06,1.05455e-05,-1.74664e-05,0.207079,-0.10021551010127894,-5.3726255674346746e-06,1.0545555604091206e-05,0.23485555039957884,-1.7466247463349127e-05,-0.09864942355576323
246,0.2359,0.0631567,780.841,0.095744,-0.0208376,0.0474632,0.00640675,-0.106007,0.211763,-0.104262,-5.80976e-06,1.0954e-05,-1.6979e-05,0.207885,-0.10058164787457657,-5.8097431233639085e-06,1.0954059995293974e-05,0.2358549527435927,-1.6978855857607833e-05,-0.09901079267756607
247,0.2369,-0.0155337,781.296,-0.0392355,0.00803954,0.0262045,-0.0293107,-0.106415,0.212572,-0.104663,-5.41099e-06,1.07673e-05,-1.75295e-05,0.208691,-0.10094853571203544,-5.410975360664594e-06,1.0767357967678137e-05,0.23685516393123618,-1.75293463592352e-05,-0.09937201691940145
248,0.2379,0.0626312,781.96,0.0949691,-0.0205763,0.0472369,0.00633105,-0.106821,0.21338,-0.105063,-5.84438e-06,1.11725e-05,-1.70456e-05,0.209496,-0.10131347651853972,-5.844362921614277e-06,1.1172562412564702e-05,0.2378549467615625,-1.704545472458463e-05,-0.09973219607200079
249,0.2389,-0.0151962,782.412,-0.0386326,0.00801928,0.0261988,-0.0290405,-0.107228,0.214188,-0.105464,-5.44919e-06,1.09883e-05,-1.75908e-05,0.2103,-0.10167916751043182,-5.449175153215968e-06,1.0988360371610995e-05,0.23885553774286472,-1.7590645282838935e-05,-0.10009313108906848
250,0.2399,0.0619587,783.071,0.0939396,-0.0202611,0.0469714,0.00618693,-0.107634,0.214995,-0.105863,-5.87727e-06,1.1389e-05,-1.71126e-05,0.211104,-0.10204381174063493,-5.877252728936355e-06,1.1389064854983033e-05,0.23985569767207537,-1.7112453580270248e-05,-0.10045212230625344
251,0.2409,-0.014713,783.519,-0.0377785,0.00794447,0.0262331,-0.0287041,-0.10804,0.215801,-0.106263,-5.48722e-06,1.12085e-05,-1.76505e-05,0.211907,-0.10240830795532985,-5.487204945198165e-06,1.1208562815445688e-05,0.24085542420006822,-1.7650344230846216e-05,-0.10081186950309495
252,0.2419,0.0611462,784.172,0.0926671,-0.0198944,0.0466685,0.00597735,-0.108445,0.216607,-0.106661,-5.90846e-06,1.16037e-05,-1.71799e-05,0.212709,-0.10277175898680613,-5.9084425451105815e-06,1.160376732323165e-05,0.2418559568324592,-1.7179752426321748e-05,-0.10116967517098163
253,0.2429,-0.014092,784.619,-0.0366863,0.0078178,0.0263056,-0.0283046,-0.10885,0.217412,-0.107061,-5.52506e-06,1.14278e-05,-1.77087e-05,0.213511,-0.10313506285041818,-5.525044736831575e-06,1.1427865297619633e-05,0.24285605336255545,-1.7708543201933047e-05,-0.10152913540407382
254,0.2439,0.0602022,785.266,0.0911658,-0.0194791,0.0463304,0.00570598,-0.109255,0.218216,-0.107459,-5.93801e-06,1.18165e-05,-1.72474e-05,0.214312,-0.10349821960575689,-5.937992370030898e-06,1.1816569815081834e-05,0.24385571143815565,-1.7247251264507213e-05,-0.10188665565693333
255,0.2449,-0.0133424,785.71,-0.0353712,0.00764252,0.0264137,-0.0278462,-0.109659,0.219019,-0.107857,-5.56266e-06,1.16463e-05,-1.77653e-05,0.215112,-0.10386033317317034,-5.5626445284451265e-06,1.1646367818363146e-05,0.24485492870648162,-1.7765142197978534e-05,-0.10224403364504475
256,0.2459,0.0591367,786.35,0.089452,-0.0190187,0.0459598,0.0053771,-0.110063,0.219822,-0.108255,-5.96599e-06,1.20275e-05,-1.7315e-05,0.215912,-0.10422230047624992,-5.965972203481051e-06,1.2027572330763903e-05,0.24585494866851265,-1.7314850096261658e-05,-0.10260126942501813
257,0.2469,-0.0124747,786.793,-0.0338507,0.0074223,0.0265546,-0.0273334,-0.110467,0.220625,-0.108653,-5.6e-06,1.18639e-05,-1.78204e-05,0.216711,-0.10458412157407448,-5.599984320037166e-06,1.1863970376335686e-05,0.24685577196907027,-1.7820241217658683e-05,-0.1029583630534412
258,0.2479,0.0579605,787.427,0.0875443,-0.0185171,0.0455596,0.00499554,-0.110871,0.221426,-0.109049,-5.99244e-06,1.22367e-05,-1.73828e-05,0.21751,-0.10494579652569913,-5.9924220453533295e-06,1.2236774868723543e-05,0.24785490354119188,-1.7382648920039045e-05,-0.10331352121571469
259,0.2489,-0.0115002,787.869,-0.0321442,0.00716122,0.0267254,-0.0267712,-0.111274,0.222228,-0.109447,-5.63701e-06,1.20806e-05,-1.78742e-05,0.218308,-0.10530643069703283,-5.63699411204599e-06,1.2080672970649076e-05,0.2488560845937704,-1.787404025743733e-05,-0.10367033142432935
260,0.2499,0.0566855,788.495,0.0854627,-0.0179786,0.0451329,0.00456657,-0.111676,0.223028,-0.109843,-6.01746e-06,1.24443e-05,-1.74505e-05,0.219105,-0.10566602522854918,-6.0174418951008946e-06,1.2444377430531617e-05,0.24985556920198282,-1.745034774092158e-05,-0.10402520770294454
261,0.2509,-0.0104313,788.936,-0.0302722,0.00686369,0.0269228,-0.0261651,-0.112079,0.223828,-0.11024,-5.67365e-06,1.22963e-05,-1.79267e-05,0.219902,-0.10602636920619368,-5.6736339049123785e-06,1.2296375599740728e-05,0.2508558537178023,-1.792653931764754e-05,-0.10438083909798368
262,0.2519,0.0553243,789.556,0.0832286,-0.0174075,0.044683,0.00409581,-0.112481,0.224627,-0.110635,-6.0411e-06,1.26502e-05,-1.75183e-05,0.220697,-0.10638567438059388,-6.041081752616861e-06,1.2650280014181448e-05,0.25185568692509785,-1.7518146555484115e-05,-0.10473453880624872
263,0.2529,-0.00928068,789.996,-0.0282567,0.00653435,0.0271433,-0.0255207,-0.112883,0.225425,-0.111031,-5.70986e-06,1.25111e-05,-1.79779e-05,0.221493,-0.10674483514334276,-5.7098436987423895e-06,1.2511178264063005e-05,0.2528550664626654,-1.7977738398511356e-05,-0.10508899374217218
264,0.2539,0.0538899,790.608,0.0808641,-0.0168087,0.0442136,0.00358911,-0.113285,0.226223,-0.111426,-6.06346e-06,1.28546e-05,-1.75859e-05,0.222288,-0.10710385155248203,-6.06344161724337e-06,1.2854682620799807e-05,0.2538552438233932,-1.758574536891988e-05,-0.1054424137845904
265,0.2549,-0.00806162,791.048,-0.0261201,0.00617798,0.0273834,-0.0248441,-0.113686,0.22702,-0.111821,-5.74558e-06,1.27248e-05,-1.80281e-05,0.223082,-0.10746183112830765,-5.745563494197192e-06,1.2724880960712781e-05,0.2548549647886058,-1.8027937494835555e-05,-0.10579569425365953
266,0.2559,0.0523957,791.653,0.078392,-0.016187,0.043728,0.00305249,-0.114087,0.227817,-0.112216,-6.08461e-06,1.30575e-05,-1.76533e-05,0.223875,-0.1078196671831011,-6.084591488764168e-06,1.3057585249498516e-05,0.2558554828490278,-1.765314418145092e-05,-0.10614883520449991
267,0.2569,-0.00678743,792.093,-0.0238852,0.00579946,0.0276394,-0.0241412,-0.114487,0.228613,-0.11261,-5.78075e-06,1.29375e-05,-1.80772e-05,0.224668,-0.10817646795131686,-5.780733291493867e-06,1.2937583689920373e-05,0.25685554178402725,-1.807703660838822e-05,-0.1065009431936006
268,0.2579,0.0508549,792.69,0.0758351,-0.0155473,0.04323,0.002492,-0.114888,0.229408,-0.113004,-6.10462e-06,1.3259e-05,-1.77204e-05,0.22546,-0.10853401749419389,-6.1046013668519805e-06,1.3259087900951982e-05,0.2578551392270818,-1.772024299462327e-05,-0.1068529124794797
269,0.2589,-0.00547135,793.13,-0.0215747,0.00540366,0.0279079,-0.0234181,-0.115288,0.230203,-0.113398,-5.81531e-06,1.31491e-05,-1.81254e-05,0.226252,-0.1088905325794256,-5.815293091071538e-06,1.3149186449901151e-05,0.25885553166607234,-1.812523573596625e-05,-0.10720474311677586
270,0.2599,0.0492807,793.72,0.0732161,-0.0148943,0.0427231,0.00191365,-0.115687,0.230997,-0.113791,-6.12359e-06,1.34591e-05,-1.77871e-05,0.227043,-0.10924601433360037,-6.123571250848947e-06,1.3459190574049984e-05,0.2598554598771825,-1.778694181042706e-05,-0.10755554271609469
271,0.2609,-0.00412642,794.16,-0.0192111,0.00499538,0.0281852,-0.0226807,-0.116086,0.23179,-0.114185,-5.8492e-06,1.33596e-05,-1.81728e-05,0.227834,-0.10960135427884798,-5.849182893480354e-06,1.3359689239766936e-05,0.26085492149101897,-1.817263487569054e-05,-0.10790709657160713
272,0.2619,0.0476859,794.742,0.0705571,-0.0142329,0.0422108,0.00132332,-0.116485,0.232583,-0.114577,-6.14159e-06,1.36579e-05,-1.78534e-05,0.228623,-0.10995655247173897,-6.141571140427793e-06,1.3657993269466928e-05,0.26185517599225383,-1.785324062897331e-05,-0.10825672845742429
273,0.2629,-0.00276519,795.183,-0.016816,0.00457928,0.0284681,-0.0219349,-0.116884,0.233375,-0.11497,-5.88235e-06,1.35689e-05,-1.82194e-05,0.229413,-0.11031160896882108,-5.882332699047588e-06,1.3568992057955143e-05,0.26285496115430296,-1.8219234027783138e-05,-0.10860711470773265
274,0.2639,0.0460828,795.757,0.0678792,-0.0135676,0.0416962,0.000726689,-0.117282,0.234167,-0.115362,-6.15868e-06,1.38554e-05,-1.79191e-05,0.230201,-0.11066563449269895,-6.158661035371438e-06,1.3855495986536681e-05,0.263855538459848,-1.791893945390921e-05,-0.1089564722402172
275,0.2649,-0.00139965,796.198,-0.0144101,0.0041598,0.0287531,-0.021186,-0.117681,0.234958,-0.115754,-5.91473e-06,1.37771e-05,-1.82654e-05,0.230989,-0.11102040812249059,-5.914712507992803e-06,1.3777194904696088e-05,0.26485564368023895,-1.8265233188596852e-05,-0.10930569285138736
276,0.2659,0.044483,796.765,0.0652028,-0.0129026,0.0411828,0.00012913,-0.118078,0.235748,-0.116145,-6.17495e-06,1.40517e-05,-1.79842e-05,0.231776,-0.11137326297414352,-6.1749309350211945e-06,1.4051798725489562e-05,0.26585527444090773,-1.798403828523476e-05,-0.10965388624923722
277,0.2669,-4.10226e-05,797.207,-0.012013,0.00374117,0.0290373,-0.0204394,-0.118476,0.236538,-0.116537,-5.94626e-06,1.3984e-05,-1.83107e-05,0.232563,-0.11172686604380122,-5.946242321086537e-06,1.3984097776642557e-05,0.2668556952218941,-1.8310532360121812e-05,-0.11000283352769258
278,0.2679,0.0428973,797.766,0.0625464,-0.0122421,0.0406733,-0.000464315,-0.118873,0.237327,-0.116928,-6.19047e-06,1.42469e-05,-1.80487e-05,0.233349,-0.1120794404873241,-6.190450839049788e-06,1.4247001487666111e-05,0.2678556387912885,-1.8048537123172004e-05,-0.11035075439682074
279,0.2689,0.0013003,798.208,-0.00964275,0.00332727,0.0293178,-0.0196999,-0.11927,0.238115,-0.117319,-5.97692e-06,1.41896e-05,-1.83556e-05,0.234135,-0.11243187498657359,-5.976902138216111e-06,1.4189700672906369e-05,0.26885510277174673,-1.8355431537053768e-05,-0.1106985392554809
280,0.2699,0.0413357,798.76,0.0599276,-0.0115897,0.0401704,-0.001049,-0.119666,0.238903,-0.117709,-6.20529e-06,1.4441e-05,-1.81124e-05,0.234919,-0.11278328238082269,-6.205270747239311e-06,1.4441104271734062e-05,0.2698553546402087,-1.811223597147915e-05,-0.11104529920258643
281,0.2709,0.00261487,799.203,-0.00731583,0.00292169,0.029592,-0.0189718,-0.120062,0.23969,-0.118099,-6.00664e-06,1.43939e-05,-1.84e-05,0.235704,-0.1131345506452931,-6.006621960152891e-06,1.4394003592599347e-05,0.2708551241620152,-1.839983072104978e-05,-0.11139192393968023
282,0.2719,0.039807,799.747,0.0573618,-0.0109488,0.0396767,-0.00162072,-0.120458,0.240477,-0.118489,-6.21947e-06,1.4634e-05,-1.81754e-05,0.236487,-0.11348567983506941,-6.219450659150638e-06,1.463410707747137e-05,0.27185568081212974,-1.817523482838812e-05,-0.11173841351948388
283,0.2729,0.00389425,800.19,-0.00504703,0.00252761,0.0298576,-0.0182593,-0.120854,0.241263,-0.118878,-6.0354e-06,1.4597e-05,-1.8444e-05,0.23727,-0.11383667000521436,-6.035381787006244e-06,1.4597106536617943e-05,0.27285575235387727,-1.844382991045279e-05,-0.11208388007902259
284,0.2739,0.0383192,800.728,0.0548631,-0.0103225,0.0391942,-0.00217572,-0.121249,0.242048,-0.119267,-6.23306e-06,1.4826e-05,-1.82375e-05,0.238053,-0.1141866353978469,-6.233040574565862e-06,1.4826109905774487e-05,0.27385533640488435,-1.8237333697768143e-05,-0.11242921227820446
285,0.2749,0.00513106,801.171,-0.00284935,0.00214787,0.0301126,-0.0175656,-0.121644,0.242833,-0.119656,-6.06317e-06,1.47988e-05,-1.84877e-05,0.238835,-0.11453646258144756,-6.063151618995732e-06,1.4798909502733437e-05,0.27485570543743654,-1.8487529103494715e-05,-0.11277441016928547
286,0.2759,0.0368791,801.701,0.0524434,-0.00971337,0.0387249,-0.00271075,-0.122038,0.243617,-0.120045,-6.24612e-06,1.50171e-05,-1.82987e-05,0.239616,-0.11488526649630693,-6.2461004930458586e-06,1.5017212757317822e-05,0.2758555842117638,-1.8298532579841265e-05,-0.11311947380450127
287,0.2769,0.00631899,802.145,-0.000733938,0.00178491,0.0303552,-0.016894,-0.122433,0.2444,-0.120433,-6.08991e-06,1.49992e-05,-1.85312e-05,0.240396,-0.11523481777511846,-6.089891456562135e-06,1.4999312488495065e-05,0.2768549703428127,-1.853102829840747e-05,-0.1134635167000273
288,0.2779,0.0354925,802.669,0.050113,-0.00912356,0.0382703,-0.00322301,-0.122827,0.245183,-0.120821,-6.25867e-06,1.52072e-05,-1.8359e-05,0.241176,-0.11558334659222946,-6.258650414592282e-06,1.5207315630094698e-05,0.27785513929963823,-1.8358831474607484e-05,-0.11380742613280326
289,0.2789,0.0074528,803.113,0.00128987,0.00144076,0.030584,-0.0162469,-0.123221,0.245966,-0.121209,-6.11561e-06,1.51982e-05,-1.85744e-05,0.241956,-0.11593173811603497,-6.115591299704626e-06,1.5198315493236692e-05,0.27885609169543346,-1.8574227496848117e-05,-0.11415120215460273
290,0.2799,0.034164,803.63,0.0478802,-0.00855495,0.0378317,-0.00371023,-0.123614,0.246747,-0.121596,-6.27077e-06,1.53964e-05,-1.84183e-05,0.242734,-0.11627910868016866,-6.270750338766007e-06,1.5396518525223613e-05,0.27985526843077446,-1.8418130384167952e-05,-0.11449395931158113
291,0.2809,0.00852832,804.074,0.00321458,0.00111707,0.0307977,-0.0156263,-0.124007,0.247528,-0.121983,-6.14025e-06,1.5396e-05,-1.86173e-05,0.243513,-0.11662634275449257,-6.140231148754616e-06,1.5396118518973267e-05,0.28085522582795464,-1.8617126699149722e-05,-0.11483658384720374
292,0.2819,0.0328972,804.584,0.0457516,-0.00800896,0.0374102,-0.00417059,-0.1244,0.248309,-0.12237,-6.28242e-06,1.55847e-05,-1.84767e-05,0.24429,-0.11697344039263669,-6.2824002656780564e-06,1.5584821442038432e-05,0.28185596449690875,-1.8476529306865608e-05,-0.11517907581278497
293,0.2829,0.00954238,805.028,0.00503445,0.000815126,0.0309956,-0.0150338,-0.124792,0.249088,-0.122756,-6.16381e-06,1.55924e-05,-1.86602e-05,0.245067,-0.11731951896817039,-6.16379100371045e-06,1.559252156213553e-05,0.28285491933564444,-1.8660025899563948e-05,-0.11552055078061252
294,0.2839,0.0316949,805.533,0.0437322,-0.00748667,0.0370064,-0.00460273,-0.125184,0.249868,-0.123142,-6.29367e-06,1.57722e-05,-1.85341e-05,0.245843,-0.11766546190748883,-6.293650194888478e-06,1.57723243818797e-05,0.2838559365186759,-1.8533928244579556e-05,-0.1158618939645385
295,0.2849,0.0104928,805.976,0.00674539,0.000535835,0.0311769,-0.0144706,-0.125576,0.250646,-0.123528,-6.1863e-06,1.57874e-05,-1.87028e-05,0.246619,-0.11801126926375105,-6.186280864906024e-06,1.5787524621613258e-05,0.284855165086799,-1.870262510372811e-05,-0.11620310541542156
296,0.2859,0.0305587,806.475,0.0418251,-0.0069888,0.0366209,-0.00500573,-0.125968,0.251424,-0.123913,-6.30452e-06,1.59588e-05,-1.85905e-05,0.247394,-0.11835694109009531,-6.3045001265082945e-06,1.5958927342296647e-05,0.28585517135723504,-1.8590327197753886e-05,-0.11654330172784433
297,0.2869,0.0113782,806.918,0.0083449,0.000279776,0.0313412,-0.0139374,-0.126359,0.252202,-0.124299,-6.20771e-06,1.59811e-05,-1.87453e-05,0.248169,-0.11870159614167552,-6.207690732229487e-06,1.5981227698524947e-05,0.2868559559352719,-1.874512430799502e-05,-0.11688425020608773
298,0.2879,0.0294895,807.411,0.0400321,-0.00651576,0.036254,-0.00537908,-0.12675,0.252978,-0.124684,-6.315e-06,1.61445e-05,-1.86458e-05,0.248943,-0.11904611645947283,-6.314980060428965e-06,1.6144630323067233e-05,0.2878549437142055,-1.864562616815668e-05,-0.117224184328241
299,0.2889,0.0121983,807.854,0.00983192,4.72162e-05,0.0314884,-0.0134344,-0.127141,0.253755,-0.125068,-6.22805e-06,1.61735e-05,-1.87877e-05,0.249716,-0.11939050209615765,-6.228030605681667e-06,1.6173630791760374e-05,0.2888559958638679,-1.8787523512253657e-05,-0.11756310516449375
300,0.2899,0.0284873,808.341,0.0383535,-0.00606764,0.0359056,-0.00572262,-0.127531,0.25453,-0.125453,-6.3251e-06,1.63295e-05,-1.87002e-05,0.250489,-0.11973387283869319,-6.325079996649663e-06,1.6329633327094584e-05,0.2898552464202384,-1.8700025152362798e-05,-0.11790277797779325
301,0.2909,0.0129532,808.783,0.0112067,-0.000161862,0.0316186,-0.0129617,-0.127921,0.255305,-0.125837,-6.24732e-06,1.63646e-05,-1.883e-05,0.251261,-0.12007710969274898,-6.247300485484608e-06,1.636473390087545e-05,0.29085527169595515,-1.882982271661504e-05,-0.11824143828410949
302,0.2919,0.0275515,809.265,0.0367884,-0.00564428,0.0355756,-0.00603655,-0.128311,0.25608,-0.12622,-6.33484e-06,1.65136e-05,-1.87536e-05,0.252033,-0.1204202127105315,-6.334819934949998e-06,1.6513736350143304e-05,0.2918560722916581,-1.8753424152362363e-05,-0.1185790871493615
303,0.2929,0.0136439,809.707,0.0124707,-0.00034773,0.0317319,-0.012519,-0.1287,0.256853,-0.126604,-6.26554e-06,1.65543e-05,-1.88721e-05,0.252804,-0.12076230270696897,-6.265520371528943e-06,1.6554437023197366e-05,0.2928550630957416,-1.88719219230693e-05,-0.11891748780281242
304,0.2939,0.0266809,810.184,0.0353349,-0.00524527,0.0352637,-0.00632134,-0.129089,0.257627,-0.126987,-6.34422e-06,1.6697e-05,-1.88061e-05,0.253574,-0.12110425965627725,-6.344199875440992e-06,1.6697139395782656e-05,0.29385612027372976,-1.8805923166387295e-05,-0.119254877790677
305,0.2949,0.0142719,810.624,0.0136262,-0.00051088,0.0318288,-0.0121055,-0.129478,0.258399,-0.12737,-6.28272e-06,1.67428e-05,-1.89141e-05,0.254344,-0.12144608361020148,-6.282700263704477e-06,1.6742940161407205e-05,0.2948553628565902,-1.8913921129515288e-05,-0.11959213858291873
306,0.2959,0.0258735,811.096,0.0339901,-0.00487001,0.0349694,-0.00657775,-0.129867,0.259171,-0.127753,-6.35323e-06,1.68795e-05,-1.88575e-05,0.255113,-0.12178777462046686,-6.353209818232841e-06,1.68796424595552e-05,0.2958553771525678,-1.8857322198417847e-05,-0.11992927022901012
307,0.2969,0.0148393,811.536,0.0146768,-0.000651992,0.0319097,-0.0117205,-0.130255,0.259942,-0.128135,-6.29887e-06,1.693e-05,-1.8956e-05,0.255882,-0.12212845486767221,-6.29885016212306e-06,1.6930143313276247e-05,0.29685486690213936,-1.8955820336175044e-05,-0.12026539304423756
308,0.2979,0.0251272,812.003,0.0327502,-0.0045177,0.0346921,-0.0068067,-0.130643,0.260713,-0.128517,-6.36187e-06,1.70612e-05,-1.8908e-05,0.25665,-0.12246900295658203,-6.361849763325544e-06,1.706134554302352e-05,0.29785512755545307,-1.8907821244917855e-05,-0.12060138748507065
309,0.2989,0.0153485,812.442,0.0156262,-0.000771906,0.0319753,-0.0113628,-0.131031,0.261483,-0.128899,-6.31402e-06,1.7116e-05,-1.89977e-05,0.257418,-0.12280941893846375,-6.314000066565129e-06,1.71161464794789e-05,0.29885486085159485,-1.8997519544816655e-05,-0.12093725360053909
310,0.2999,0.0244394,812.904,0.0316109,-0.00418744,0.0344311,-0.00700935,-0.131418,0.262253,-0.12928,-6.37014e-06,1.72421e-05,-1.89576e-05,0.258185,-0.12314882601382948,-6.370119710719102e-06,1.7242248645965574e-05,0.2998553642388213,-1.8957420305887318e-05,-0.12127211271220584
311,0.3009,0.0158022,813.342,0.0164793,-0.00087159,0.0320263,-0.0110314,-0.131805,0.263022,-0.129661,-6.32819e-06,1.73007e-05,-1.90392e-05,0.258951,-0.12348810176406999,-6.3281699770323385e-06,1.7300849658008488e-05,0.30085533745434345,-1.903901875555114e-05,-0.12160684426685209
312,0.3019,0.023807,813.8,0.0305672,-0.00387817,0.0341857,-0.00718696,-0.132192,0.263791,-0.130042,-6.37803e-06,1.74222e-05,-1.90062e-05,0.259717,-0.12382724623999841,-6.378009660412687e-06,1.7422351767493183e-05,0.30185607994501695,-1.9006019383316364e-05,-0.12194144831306797
313,0.3029,0.0162034,814.236,0.017241,-0.000952109,0.0320635,-0.0107248,-0.132578,0.264558,-0.130422,-6.34139e-06,1.74842e-05,-1.90806e-05,0.260482,-0.12416538365822971,-6.341369893414495e-06,1.748435284953942e-05,0.3028549865900627,-1.9080417966499397e-05,-0.122275047174911
314,0.3039,0.0232271,814.69,0.029614,-0.00358878,0.033955,-0.0073409,-0.132964,0.265326,-0.130803,-6.38552e-06,1.76015e-05,-1.9054e-05,0.261246,-0.12450339058060478,-6.385499612626688e-06,1.76016549073843e-05,0.30385596354571476,-1.9053818473668827e-05,-0.12260939668431126
315,0.3049,0.0165553,815.124,0.0179167,-0.0010146,0.0320878,-0.0104416,-0.13335,0.266092,-0.131183,-6.35366e-06,1.76665e-05,-1.91217e-05,0.26201,-0.12484126705748544,-6.353639815492862e-06,1.7666656053627605e-05,0.3048550998341353,-1.9121517181419634e-05,-0.12294274177399289
316,0.3059,0.0226964,815.575,0.0287456,-0.0033181,0.0337381,-0.00747263,-0.133736,0.266858,-0.131562,-6.39261e-06,1.77799e-05,-1.9101e-05,0.262774,-0.12517901313921387,-6.392589567361107e-06,1.778005806341021e-05,0.3058550017541519,-1.910081757705573e-05,-0.1232750834921269
317,0.3069,0.0168612,816.008,0.018512,-0.00106025,0.0321,-0.0101804,-0.134121,0.267624,-0.131942,-6.36501e-06,1.78476e-05,-1.91627e-05,0.263537,-0.12551575439230456,-6.36498974337929e-06,1.7847759269384866e-05,0.3068556698924636,-1.9162516396664664e-05,-0.12360817566887805
318,0.3079,0.0222116,816.454,0.0279565,-0.0030649,0.0335341,-0.00758364,-0.134506,0.268389,-0.132321,-6.39928e-06,1.79576e-05,-1.9147e-05,0.264299,-0.1258523660249664,-6.399259524614287e-06,1.795776123869608e-05,0.3078557969797673,-1.9146816697346303e-05,-0.12394026523535151
319,0.3089,0.0171244,816.885,0.0190326,-0.00109026,0.032101,-0.00993966,-0.134891,0.269153,-0.1327,-6.37547e-06,1.80276e-05,-1.92034e-05,0.265061,-0.12618884808709363,-6.3754496767431945e-06,1.8027762498151745e-05,0.30885538060098194,-1.9203215615881675e-05,-0.12427222896372725
320,0.3099,0.0217692,817.328,0.0272409,-0.00282796,0.0333421,-0.00767545,-0.135275,0.269917,-0.133078,-6.40554e-06,1.81344e-05,-1.91923e-05,0.265822,-0.12652432715332507,-6.405519484609101e-06,1.813456442922856e-05,0.30985572819588425,-1.9192115829014256e-05,-0.12460319150531773
321,0.3109,0.0173482,817.757,0.0194842,-0.00110584,0.0320917,-0.00971783,-0.135659,0.27068,-0.133456,-6.38506e-06,1.82065e-05,-1.92439e-05,0.266582,-0.1268596774203261,-6.38503961558623e-06,1.8206665739262107e-05,0.31085552949218775,-1.9243714837302583e-05,-0.12493402896670924
322,0.3119,0.0213661,818.197,0.026593,-0.00260606,0.0331612,-0.00774956,-0.136043,0.271443,-0.133834,-6.41135e-06,1.83104e-05,-1.92368e-05,0.267342,-0.1271948989375462,-6.41132944734224e-06,1.8310567636348196e-05,0.3118560939279811,-1.9236614973938693e-05,-0.12526474139517307
323,0.3129,0.0175359,818.624,0.0198724,-0.00110821,0.0320729,-0.00951341,-0.136426,0.272205,-0.134212,-6.39382e-06,1.83843e-05,-1.92841e-05,0.268101,-0.12752911928397126,-6.393799559578639e-06,1.8384468992271863e-05,0.3128561092289961,-1.9283914062917518e-05,-0.12559532883796276
324,0.3139,0.0209989,819.06,0.0260074,-0.00239799,0.0329906,-0.00780745,-0.13681,0.272966,-0.134589,-6.41672e-06,1.84856e-05,-1.92806e-05,0.26886,-0.12786408378486602,-6.416699412925553e-06,1.848577085983294e-05,0.313855572975841,-1.9280414130462553e-05,-0.12592491726766808
325,0.3149,0.0176907,819.486,0.0202028,-0.00109852,0.0320456,-0.00932496,-0.137193,0.273727,-0.134966,-6.40175e-06,1.85609e-05,-1.9324e-05,0.269618,-0.12819804788256928,-6.401729508831444e-06,1.8561072254508204e-05,0.31485579760407556,-1.9323813292726477e-05,-0.1262543814659547
326,0.3159,0.0206644,819.919,0.0254785,-0.00220259,0.0328293,-0.00785056,-0.137575,0.274487,-0.135343,-6.42163e-06,1.86599e-05,-1.93236e-05,0.270376,-0.12853101262796285,-6.421609381357385e-06,1.8660074097009982e-05,0.3158554678368257,-1.9323413300464942e-05,-0.1265837214796487
327,0.3169,0.0178156,820.342,0.0204806,-0.00107792,0.0320106,-0.00915105,-0.137958,0.275247,-0.13572,-6.40888e-06,1.87365e-05,-1.93636e-05,0.271133,-0.1288647213408285,-6.408859463125083e-06,1.8736675529318347e-05,0.31685589810773074,-1.9363412526729462e-05,-0.12691293735555897
328,0.3179,0.0203598,820.772,0.0250012,-0.00201873,0.0326766,-0.00788029,-0.13834,0.276006,-0.136096,-6.42608e-06,1.88334e-05,-1.93659e-05,0.27189,-0.1291974314655966,-6.426059352748759e-06,1.8833577349663955e-05,0.31785577113820884,-1.9365712482177777e-05,-0.12724115638206945
329,0.3189,0.0179136,821.194,0.0207109,-0.00104749,0.0319687,-0.00899033,-0.138721,0.276764,-0.136472,-6.41525e-06,1.89111e-05,-1.94028e-05,0.272646,-0.12952914404894844,-6.4152294223518425e-06,1.891127881603616e-05,0.31885508450465005,-1.94026117669166e-05,-0.12756925202142422
330,0.3199,0.020082,821.62,0.0245705,-0.00184535,0.0325317,-0.00789794,-0.139103,0.277522,-0.136847,-6.43005e-06,1.90061e-05,-1.94075e-05,0.273401,-0.12986160041271355,-6.430029327320064e-06,1.9006280617128724e-05,0.3198551556377802,-1.940731167571208e-05,-0.1278963522167963
331,0.3209,0.0179874,822.04,0.0208986,-0.00100826,0.0319205,-0.0088415,-0.139484,0.27828,-0.137223,-6.42085e-06,1.90846e-05,-1.94418e-05,0.274156,-0.13019305999589603,-6.420829386399873e-06,1.9084782112210874e-05,0.32085598511220437,-1.9441611009418658e-05,-0.12822420154882586
332,0.3219,0.0198284,822.464,0.0241817,-0.00168142,0.0323938,-0.00790477,-0.139865,0.279036,-0.137598,-6.43353e-06,1.91779e-05,-1.94485e-05,0.27491,-0.13052439331703192,-6.433509304848428e-06,1.917808389717557e-05,0.3218549297904598,-1.9448310879188746e-05,-0.12855105618417062
333,0.3229,0.0180398,822.881,0.0210482,-0.000961198,0.0318668,-0.00870335,-0.140246,0.279793,-0.137973,-6.42573e-06,1.92571e-05,-1.94804e-05,0.275664,-0.13085560042421773,-6.425709355051268e-06,1.9257285419183034e-05,0.32285595281172186,-1.948021025821589e-05,-0.12887778827200624
334,0.3239,0.0195965,823.302,0.0238304,-0.00152601,0.0322622,-0.00790195,-0.140626,0.280548,-0.138347,-6.43652e-06,1.93489e-05,-1.94888e-05,0.276417,-0.13118581255177864,-6.436499285666919e-06,1.934908719114503e-05,0.32385508618148084,-1.9488610094597902e-05,-0.1292035270622418
335,0.3249,0.018073,823.717,0.0211638,-0.000907202,0.0318084,-0.00857476,-0.141006,0.281303,-0.138721,-6.42989e-06,1.94287e-05,-1.95186e-05,0.277169,-0.13151589922256957,-6.429869328306026e-06,1.9428888738515226e-05,0.3248549741817712,-1.951840951341932e-05,-0.12952914404894844
336,0.3259,0.0193839,824.135,0.0235126,-0.00137823,0.0321363,-0.00789056,-0.141386,0.282058,-0.139095,-6.439e-06,1.9519e-05,-1.95285e-05,0.277921,-0.13184586048425473,-6.438979269662859e-06,1.9519190497030436e-05,0.3258556173825542,-1.9528309320060444e-05,-0.12985463927767227
337,0.3269,0.0180893,824.549,0.0212494,-0.000847111,0.0317456,-0.00845467,-0.141765,0.282812,-0.139469,-6.43335e-06,1.95992e-05,-1.95564e-05,0.278673,-0.13217482855974305,-6.43332930605478e-06,1.9599392065527965e-05,0.32685568949786825,-1.9556208774806905e-05,-0.1301800127939423
338,0.3279,0.0191884,824.964,0.0232244,-0.00123727,0.0320155,-0.00787161,-0.142144,0.283565,-0.139843,-6.44099e-06,1.96883e-05,-1.95675e-05,0.279424,-0.1325036719799545,-6.440969256837903e-06,1.968849381595028e-05,0.3278551880960554,-1.956730855767752e-05,-0.13050526464327028
339,0.3289,0.0180908,825.375,0.0213085,-0.000781694,0.0316792,-0.00834213,-0.142523,0.284318,-0.140216,-6.43613e-06,1.97688e-05,-1.95939e-05,0.280174,-0.1328323907921244,-6.436109288188163e-06,1.9768995404012557e-05,0.3288554396001204,-1.9593708040832603e-05,-0.1308295257011115
340,0.3299,0.0190082,825.788,0.0229625,-0.00110238,0.0318993,-0.00784601,-0.142902,0.28507,-0.140589,-6.44246e-06,1.98568e-05,-1.9606e-05,0.280924,-0.1331609850434703,-6.442439247411613e-06,1.9856997147460476e-05,0.32985511472143525,-1.9605807803690922e-05,-0.1311536658321324
341,0.3309,0.0180794,826.197,0.0213445,-0.000711653,0.0316097,-0.00823625,-0.14328,0.285822,-0.140961,-6.43825e-06,1.99375e-05,-1.9631e-05,0.281673,-0.13348858827021326,-6.438229274485785e-06,1.9937698753302868e-05,0.3308555418811725,-1.9630807313153475e-05,-0.13147681655868115
342,0.3319,0.0188413,826.607,0.0227237,-0.000972886,0.0317871,-0.00781461,-0.143658,0.286573,-0.141333,-6.44341e-06,2.00244e-05,-1.96439e-05,0.282421,-0.13381606768633814,-6.443389241272968e-06,2.0024600489554345e-05,0.3318553897890215,-1.964370705986873e-05,-0.1317998470955163
343,0.3329,0.0180567,827.014,0.0213603,-0.000637624,0.0315374,-0.00813623,-0.144036,0.287324,-0.141705,-6.43972e-06,2.01052e-05,-1.96676e-05,0.283169,-0.1341434233386366,-6.439699265059495e-06,2.0105402110948134e-05,0.3328559888646778,-1.9667406593981696e-05,-0.13212275748734015
344,0.3339,0.0186861,827.421,0.0225051,-0.000848164,0.0316785,-0.00777816,-0.144413,0.288074,-0.142077,-6.44385e-06,2.01911e-05,-1.96813e-05,0.283917,-0.13446978974410495,-6.4438292384227935e-06,2.0191303841565755e-05,0.3338560058158071,-1.9681106324442865e-05,-0.1324455477788382
345,0.3349,0.0180243,827.826,0.0213586,-0.000560182,0.0314629,-0.00804134,-0.144791,0.288823,-0.142449,-6.44055e-06,2.0272e-05,-1.97039e-05,0.284664,-0.13479689833616293,-6.440529259688077e-06,2.0272205478288896e-05,0.3348554382048694,-1.970370587944803e-05,-0.13276821801467953
346,0.3359,0.0185413,828.231,0.0223043,-0.000727663,0.0315731,-0.00773734,-0.145167,0.289572,-0.14282,-6.44376e-06,2.03571e-05,-1.97181e-05,0.28541,-0.13512215355057622,-6.443739238970458e-06,2.0357307207063968e-05,0.3358556194492024,-1.9717905599514474e-05,-0.13308990132985143
347,0.3369,0.0179836,828.634,0.0213417,-0.000479842,0.0313864,-0.00795095,-0.145544,0.29032,-0.143191,-6.44076e-06,2.04379e-05,-1.97397e-05,0.286156,-0.13544815104429897,-6.440739258373185e-06,2.0438108855325154e-05,0.336855213254027,-1.9739505173421712e-05,-0.13341146532264903
348,0.3379,0.0184054,829.036,0.0221189,-0.000610885,0.0314706,-0.00769276,-0.14592,0.291068,-0.143561,-6.44315e-06,2.05222e-05,-1.97543e-05,0.286901,-0.1357731614337241,-6.44312924291679e-06,2.0522410581813588e-05,0.33785555503472553,-1.9754104885083557e-05,-0.13373204376980963
349,0.3389,0.0179357,829.437,0.0213119,-0.000397063,0.0313083,-0.00786447,-0.146296,0.291815,-0.143932,-6.44036e-06,2.06028e-05,-1.97751e-05,0.287646,-0.13609804964221417,-6.440339260893602e-06,2.0603012239162055e-05,0.3388553064950177,-1.9774904474023636e-05,-0.13405336957194913
350,0.3399,0.0182774,829.837,0.021947,-0.000497387,0.0313706,-0.00764497,-0.146672,0.292562,-0.144302,-6.44201e-06,2.06864e-05,-1.97901e-05,0.28839,-0.1364228157157007,-6.44198925026096e-06,2.068661396514848e-05,0.3398558050486553,-1.978990417728088e-05,-0.13437371055847047
351,0.3409,0.0178818,830.235,0.021271,-0.000312252,0.031229,-0.00778138,-0.147048,0.293308,-0.144672,-6.43936e-06,2.0767e-05,-1.98101e-05,0.289134,-0.13674745970009783,-6.439339267361177e-06,2.076721563559758e-05,0.3408557103975449,-1.98099037812538e-05,-0.1346939330407514
352,0.3419,0.0181562,830.633,0.0217866,-0.000386776,0.0312728,-0.00759445,-0.147423,0.294053,-0.145041,-6.44035e-06,2.08498e-05,-1.98253e-05,0.289877,-0.1370711187128525,-6.4403292610037965e-06,2.0850017358631234e-05,0.3418550200984345,-1.9825103480086703e-05,-0.13501317207623498
353,0.3429,0.0178228,831.029,0.0212207,-0.000225769,0.0311486,-0.00770124,-0.147798,0.294798,-0.14541,-6.43777e-06,2.09302e-05,-1.98446e-05,0.290619,-0.13739465637623183,-6.437749277554694e-06,2.0930419038167614e-05,0.342855074562441,-1.984440309721336e-05,-0.1353322933342458
354,0.3439,0.0180409,831.425,0.0216362,-0.000278706,0.0311771,-0.00754162,-0.148173,0.295543,-0.145779,-6.43817e-06,2.10124e-05,-1.986e-05,0.291361,-0.13771807273573333,-6.438149275034277e-06,2.1012620762039802e-05,0.34385587434461984,-1.9859802791510894e-05,-0.13565129685823551
355,0.3449,0.0177595,831.819,0.0211625,-0.000137927,0.0310673,-0.00762364,-0.148547,0.296287,-0.146148,-6.4356e-06,2.10926e-05,-1.98788e-05,0.292103,-0.13804050587777417,-6.435579291586002e-06,2.1092822450441417e-05,0.3448560751436922,-1.9878602417922053e-05,-0.1359701826916403
356,0.3459,0.0179306,832.213,0.0214945,-0.000172874,0.031083,-0.00748686,-0.148921,0.29703,-0.146516,-6.43546e-06,2.11742e-05,-1.98942e-05,0.292844,-0.13836281845236753,-6.435439292462597e-06,2.1174424174930095e-05,0.34585567451270394,-1.9894002111664477e-05,-0.13628808716639873
357,0.3469,0.0176926,832.604,0.0210976,-4.90004e-05,0.0309855,-0.00754823,-0.149295,0.297773,-0.146885,-6.43286e-06,2.12541e-05,-1.99125e-05,0.293584,-0.13868501050459692,-6.432839309233884e-06,2.1254325869968227e-05,0.3468560168600292,-1.991230174747116e-05,-0.13660673806752743
358,0.3479,0.0178248,832.996,0.0213602,-6.90137e-05,0.0309906,-0.00743048,-0.149668,0.298515,-0.147253,-6.43223e-06,2.13352e-05,-1.99279e-05,0.294324,-0.1390062210861811,-6.432209313289583e-06,2.133542759708007e-05,0.3478557548814769,-1.9927701440769496e-05,-0.13692440833300468
359,0.3489,0.0176229,833.385,0.0210272,4.07716e-05,0.0309032,-0.00747472,-0.150042,0.299256,-0.14762,-6.42956e-06,2.14148e-05,-1.99457e-05,0.295063,-0.1393281725508182,-6.429539330388145e-06,2.1415029298532673e-05,0.3488548861282541,-1.9945501085860684e-05,-0.13724109895886216
360,0.3499,0.0177229,833.774,0.0212323,3.31062e-05,0.0308996,-0.00737277,-0.150415,0.299998,-0.147987,-6.42847e-06,2.14953e-05,-1.99612e-05,0.295802,-0.13964914327769484,-6.428449337403386e-06,2.1495531025594872e-05,0.34985610786108756,-1.996100077661378e-05,-0.13755767338058456
361,0.3509,0.0175508,834.162,0.0209523,0.000131184,0.0308206,-0.00740283,-0.150787,0.300738,-0.148355,-6.42571e-06,2.15746e-05,-1.99785e-05,0.29654,-0.13996913427438007,-6.425689355160635e-06,2.1574832733461946e-05,0.3508553710626898,-1.9978300431100493e-05,-0.13787499376624845
362,0.3519,0.0176242,834.549,0.0211099,0.000133685,0.0308098,-0.00731397,-0.15116,0.301478,-0.148721,-6.4242e-06,2.16547e-05,-1.9994e-05,0.297278,-0.14028986596711635,-6.424179364916682e-06,2.1654934464709896e-05,0.3518553739927268,-1.9993800121298477e-05,-0.13819047378216542
363,0.3529,0.0174768,834.935,0.0208736,0.00022206,0.0307378,-0.00733235,-0.151532,0.302218,-0.149088,-6.42131e-06,2.17336e-05,-2.00109e-05,0.298015,-0.14060961865928856,-6.421289383440332e-06,2.1733836176318633e-05,0.3528561171988003,-2.001069978330161e-05,-0.13850669984725505
364,0.3539,0.0175284,835.319,0.0209921,0.000232896,0.0307211,-0.00725428,-0.151904,0.302956,-0.149454,-6.41941e-06,2.18132e-05,-2.00263e-05,0.298751,-0.14092925242558074,-6.419389395606601e-06,2.1813437909523614e-05,0.35385489351642296,-2.0026099475045633e-05,-0.13882194870105158
365,0.3549,0.0174014,835.703,0.0207918,0.000313249,0.030655,-0.00726308,-0.152276,0.303695,-0.14982,-6.41637e-06,2.18918e-05,-2.00428e-05,0.299487,-0.14124876731022518,-6.41634941511704e-06,2.1892039627102733e-05,0.3548557620581081,-2.0042599144454165e-05,-0.13913708219487986
366,0.3559,0.017435,836.086,0.0208784,0.000330888,0.0306335,-0.00719389,-0.152647,0.304433,-0.150186,-6.41411e-06,2.19709e-05,-2.00581e-05,0.300223,-0.1415673049251719,-6.41408942958499e-06,2.19711413620427e-05,0.35585601465831807,-2.0057898837633203e-05,-0.13945210037095368
367,0.3569,0.0173247,836.467,0.0207077,0.000404622,0.0305722,-0.00719484,-0.153018,0.30517,-0.150551,-6.41089e-06,2.20492e-05,-2.00743e-05,0.300958,-0.14188572438458258,-6.4108694503017816e-06,2.2049443085370157e-05,0.35685564886107723,-2.0074098512568028e-05,-0.13976614303804502
368,0.3579,0.0173438,836.848,0.0207681,0.000427786,0.0305468,-0.00713295,-0.153389,0.305907,-0.150917,-6.40829e-06,2.21279e-05,-2.00895e-05,0.301692,-0.14220402573228497,-6.408269466962047e-06,2.2128144823829743e-05,0.35785602006579587,-2.0089298207293105e-05,-0.14008093101997843
369,0.3589,0.0172472,837.227,0.0206216,0.000496072,0.0304894,-0.00712751,-0.153759,0.306643,-0.151281,-6.4049e-06,2.22058e-05,-2.01054e-05,0.302426,-0.14252135153387058,-6.404879488663973e-06,2.2206046550676817e-05,0.3588557699593953,-2.0105197887754223e-05,-0.14039388460008018
370,0.3599,0.0172545,837.606,0.0206608,0.000523701,0.030461,-0.00707158,-0.15413,0.307378,-0.151646,-6.40197e-06,2.2284e-05,-2.01204e-05,0.303159,-0.14283941710763937,-6.401949507406357e-06,2.2284248290205255e-05,0.35985489608418675,-2.0120197586126487e-05,-0.14070758357865487
371,0.3609,0.0171691,837.983,0.020534,0.000587508,0.0304069,-0.00706096,-0.1545,0.308114,-0.152011,-6.39838e-06,2.23616e-05,-2.0136e-05,0.303892,-0.14315650785790324,-6.398359530424003e-06,2.2361850022356577e-05,0.36085611769205994,-2.0135797272113898e-05,-0.14102116807799603
372,0.3619,0.0171669,838.359,0.0205561,0.000618722,0.0303759,-0.0070099,-0.154869,0.308848,-0.152375,-6.39514e-06,2.24394e-05,-2.01509e-05,0.304624,-0.14347262477934475,-6.395119551139139e-06,2.243965176518259e-05,0.3618553527568529,-2.01506969720322e-05,-0.14133377947408998
373,0.3629,0.0170906,838.735,0.0204454,0.000678852,0.0303245,-0.00699509,-0.155239,0.309582,-0.152739,-6.39134e-06,2.25166e-05,-2.01662e-05,0.305356,-0.1437894812861079,-6.391319575471677e-06,2.2516853500631484e-05,0.362855321529421,-2.0165996663545904e-05,-0.14164627710034305
374,0.3639,0.0170807,839.109,0.0204535,0.00071293,0.0302916,-0.00694799,-0.155608,0.310316,-0.153102,-6.38781e-06,2.2594e-05,-2.01809e-05,0.306087,-0.14410536468344226,-6.387789597939175e-06,2.259425524631098e-05,0.36385602454850363,-2.0180696367000373e-05,-0.14195780295639193
375,0.3649,0.0170118,839.483,0.0203559,0.000770042,0.0302424,-0.00692981,-0.155977,0.311049,-0.153465,-6.3838e-06,2.26709e-05,-2.01959e-05,0.306818,-0.14442113154130587,-6.383779623586605e-06,2.2671156986842078e-05,0.36485609749645564,-2.019569606415139e-05,-0.14226921574907736
376,0.3659,0.0169958,839.855,0.0203529,0.000806389,0.030208,-0.00688593,-0.156345,0.311781,-0.153829,-6.37998e-06,2.27478e-05,-2.02105e-05,0.307548,-0.1447359266390481,-6.379959647917488e-06,2.2748058733146337e-05,0.3658555379103876,-2.021029576926292e-05,-0.1425813729384896
377,0.3669,0.0169329,840.227,0.0202659,0.000861025,0.0301606,-0.00686505,-0.156714,0.312513,-0.154191,-6.37576e-06,2.28243e-05,-2.02253e-05,0.308277,-0.14505146086247378,-6.37573967487981e-06,2.2824560476308875e-05,0.3668557101825298,-2.0225095469950105e-05,-0.14289170230848092
378,0.3679,0.016912,840.597,0.020254,0.000899157,0.030125,-0.00682378,-0.157082,0.313244,-0.154554,-6.37165e-06,2.29008e-05,-2.02396e-05,0.309006,-0.1453660240417015,-6.3716297010740774e-06,2.2901062225244573e-05,0.3678552469928682,-2.023939518069895e-05,-0.14320277615722365
379,0.3689,0.016854,840.967,0.0201756,0.00095176,0.0300791,-0.00680076,-0.15745,0.313975,-0.154916,-6.36721e-06,2.2977e-05,-2.02542e-05,0.309735,-0.14568047148297625,-6.367189729350464e-06,2.297726397326727e-05,0.3688555147317365,-2.0253994885033322e-05,-0.14351288061996048
380,0.3699,0.0168292,841.336,0.0201565,0.000991279,0.0300426,-0.00676161,-0.157817,0.314705,-0.155278,-6.36284e-06,2.30531e-05,-2.02683e-05,0.310463,-0.14599394922325815,-6.362819757188554e-06,2.3053365724834407e-05,0.36985514407780995,-2.0268094599429354e-05,-0.14382287284519812
381,0.3709,0.0167752,841.703,0.020085,0.00104221,0.029998,-0.00673688,-0.158185,0.315435,-0.15564,-6.35818e-06,2.3129e-05,-2.02826e-05,0.31119,-0.14630816563057902,-6.358159786779005e-06,2.3129267477273174e-05,0.3708555034197223,-2.0282394309512064e-05,-0.14413275287355898
382,0.3719,0.0167474,842.07,0.0200604,0.00108279,0.0299607,-0.00669944,-0.158552,0.316164,-0.156001,-6.35354e-06,2.32047e-05,-2.02966e-05,0.311917,-0.14662141304937537,-6.353519816260089e-06,2.320496923102766e-05,0.37185522143465755,-2.0296394025454134e-05,-0.14444166518774415
383,0.3729,0.0166966,842.436,0.0199945,0.00113235,0.0299172,-0.00667338,-0.158918,0.316893,-0.156363,-6.34865e-06,2.32801e-05,-2.03107e-05,0.312643,-0.14693369246158083,-6.348629847385823e-06,2.3280370983647103e-05,0.3728556685097357,-2.0310493739184032e-05,-0.14475132125381662
384,0.3739,0.0166665,842.801,0.0199655,0.00117374,0.0298794,-0.00663732,-0.159285,0.317621,-0.156724,-6.34375e-06,2.33555e-05,-2.03245e-05,0.313369,-0.14724671035415082,-6.343729878510729e-06,2.335577274181766e-05,0.37385547132047714,-2.032429345877329e-05,-0.14506001030511784
385,0.3749,0.0166183,843.164,0.019904,0.00122215,0.0298368,-0.00661021,-0.159651,0.318349,-0.157084,-6.33864e-06,2.34306e-05,-2.03383e-05,0.314095,-0.1475587609494189,-6.338619910839505e-06,2.3430874498631127e-05,0.374856002252669,-2.0338093178140504e-05,-0.14536773330794417
386,0.3759,0.0165863,843.527,0.0198716,0.00126414,0.0297987,-0.00657528,-0.160017,0.319076,-0.157445,-6.33349e-06,2.35055e-05,-2.03519e-05,0.314819,-0.14787069735506697,-6.333469943498038e-06,2.350577625653827e-05,0.37585588598000275,-2.0351692901487972e-05,-0.14567619987465463
387,0.3769,0.0165402,843.889,0.0198137,0.0013116,0.0297568,-0.00654736,-0.160383,0.319802,-0.157805,-6.32814e-06,2.35802e-05,-2.03655e-05,0.315544,-0.14818251961288098,-6.328119977361268e-06,2.3580478015094997e-05,0.3768551200312955,-2.0365292624613396e-05,-0.14598370108916014
388,0.3779,0.0165069,844.25,0.0197786,0.00135402,0.0297184,-0.00651333,-0.160748,0.320528,-0.158165,-6.32275e-06,2.36548e-05,-2.03789e-05,0.316268,-0.14849337625843329,-6.322730011443234e-06,2.365507977697412e-05,0.3778550797899094,-2.0378692351608052e-05,-0.14629109162315213
389,0.3789,0.0164625,844.611,0.0197237,0.00140068,0.0296771,-0.0064848,-0.161113,0.321254,-0.158524,-6.31718e-06,2.37292e-05,-2.03923e-05,0.316991,-0.14880411946201444,-6.317160046620529e-06,2.3729481539724873e-05,0.37885576578289903,-2.0392092078491686e-05,-0.14659751811441324
390,0.3799,0.0164281,844.97,0.0196866,0.00144339,0.0296387,-0.00645151,-0.161478,0.321979,-0.158884,-6.31154e-06,2.38034e-05,-2.04055e-05,0.317714,-0.1491147492650231,-6.311520082236122e-06,2.380368330312521e-05,0.3798557986812139,-2.0405291809244552e-05,-0.14690468771404663
391,0.3809,0.0163852,845.328,0.019634,0.00148939,0.0295979,-0.0064225,-0.161843,0.322703,-0.159243,-6.30574e-06,2.38774e-05,-2.04187e-05,0.318436,-0.14942526570884296,-6.305720118837677e-06,2.387768506739718e-05,0.3808551760103982,-2.0418491539775374e-05,-0.1472108939638468
392,0.3819,0.01635,845.685,0.0195953,0.00153229,0.0295594,-0.00638982,-0.162207,0.323427,-0.159602,-6.29987e-06,2.39513e-05,-2.04317e-05,0.319157,-0.14973481857008641,-6.299850155877529e-06,2.39515868347695e-05,0.3818552771507566,-2.043149127428645e-05,-0.14751699030533294
393,0.3829,0.0163083,846.042,0.0195447,0.00157771,0.0295191,-0.00636047,-0.162571,0.324151,-0.15996,-6.29384e-06,2.40249e-05,-2.04446e-05,0.319879,-0.15004425877459304,-6.293820193792321e-06,2.4025188600118597e-05,0.3828561026265187,-2.044439101056561e-05,-0.14782212460050592
394,0.3839,0.0162725,846.398,0.0195048,0.00162071,0.0294806,-0.00632827,-0.162935,0.324873,-0.160319,-6.28772e-06,2.40984e-05,-2.04574e-05,0.320599,-0.1503535863633625,-6.2877002323658004e-06,2.4098690368790088e-05,0.38385488524975453,-2.0457190748834897e-05,-0.14812800154957684
395,0.3849,0.0162317,846.752,0.0194558,0.00166564,0.0294407,-0.00629867,-0.163299,0.325596,-0.160677,-6.28147e-06,2.41717e-05,-2.04702e-05,0.321319,-0.15066280137737953,-6.281450271594657e-06,2.417199213788912e-05,0.3848557741095133,-2.046999048688214e-05,-0.14843291714187445
396,0.3859,0.0161956,847.106,0.0194151,0.00170867,0.0294023,-0.00626689,-0.163662,0.326318,-0.161035,-6.27512e-06,2.42448e-05,-2.04828e-05,0.322039,-0.15097105482909323,-6.275100311481374e-06,2.4245093907637738e-05,0.3858560010168839,-2.0482590228909636e-05,-0.14873772359392734
397,0.3869,0.0161556,847.459,0.0193673,0.00175317,0.0293628,-0.00623711,-0.164025,0.327039,-0.161392,-6.26864e-06,2.43177e-05,-2.04953e-05,0.322758,-0.15127919640511056,-6.268620352134491e-06,2.4317995677591853e-05,0.38685556349258854,-2.049508997281624e-05,-0.14904156998679607
398,0.3879,0.0161193,847.811,0.019326,0.00179619,0.0293244,-0.00620566,-0.164388,0.32776,-0.16175,-6.26207e-06,2.43905e-05,-2.05077e-05,0.323477,-0.15158722614603515,-6.262050393335272e-06,2.4390797450646318e-05,0.38785584691270714,-2.0507489718601946e-05,-0.14934615858012945
399,0.3889,0.01608,848.162,0.0192793,0.00184031,0.0292852,-0.00617578,-0.16475,0.32848,-0.162107,-6.25536e-06,2.44631e-05,-2.052e-05,0.324195,-0.15189429598717574,-6.255340435301626e-06,2.4463399224128324e-05,0.388855462941071,-2.0519789466266758e-05,-0.14964978780047578
400,0.3899,0.0160435,848.513,0.0192376,0.00188327,0.0292469,-0.00614461,-0.165113,0.3292,-0.162464,-6.24856e-06,2.45355e-05,-2.05322e-05,0.324912,-0.15220210248747268,-6.248540477815645e-06,2.4535800997815826e-05,0.38985579895213807,-2.0531989215810675e-05,-0.1499533086445367
401,0.3909,0.0160048,848.862,0.0191918,0.00192705,0.0292081,-0.00611466,-0.165475,0.329919,-0.16282,-6.24163e-06,2.46077e-05,-2.05444e-05,0.325629,-0.1525089497836607,-6.241610521096064e-06,2.460800277193087e-05,0.39085546460832243,-2.054418896524357e-05,-0.15025587140729202
402,0.3919,0.0159682,849.211,0.0191498,0.00196992,0.0291699,-0.00608374,-0.165836,0.330638,-0.163176,-6.2346e-06,2.46798e-05,-2.05564e-05,0.326346,-0.15281483883649283,-6.23458056492332e-06,2.4680104548702175e-05,0.39185584928256945,-2.055618871865672e-05,-0.15055832647687428
403,0.3929,0.01593,849.558,0.0191048,0.00201339,0.0291313,-0.00605375,-0.166198,0.331356,-0.163532,-6.22745e-06,2.47517e-05,-2.05683e-05,0.327062,-0.15312146436226537,-6.227430609517803e-06,2.475200632590102e-05,0.3928555606357822,-2.0568088473948976e-05,-0.1508606738916155
404,0.3939,0.0158935,849.905,0.0190627,0.00205614,0.0290933,-0.00602304,-0.166559,0.332074,-0.163888,-6.22019e-06,2.48234e-05,-2.05801e-05,0.327777,-0.15342713233724148,-6.220170654658297e-06,2.482370810308332e-05,0.393855990039496,-2.0579888231231358e-05,-0.15116291368983392
405,0.3949,0.0158558,850.251,0.0190182,0.00209933,0.029055,-0.00599306,-0.16692,0.332791,-0.164244,-6.21282e-06,2.4895e-05,-2.05918e-05,0.328492,-0.15373268998599376,-6.212800700455823e-06,2.4895309883143923e-05,0.3948557431530153,-2.0591587990392846e-05,-0.15146504590983434
406,0.3959,0.0158193,850.596,0.0189761,0.00214195,0.0290171,-0.00596253,-0.167281,0.333507,-0.164599,-6.20535e-06,2.49663e-05,-2.06034e-05,0.329207,-0.15403813734834282,-6.205330746800186e-06,2.4966611660737215e-05,0.3958548174910441,-2.0603187751433438e-05,-0.15176622235655401
407,0.3969,0.0157819,850.94,0.0189322,0.00218488,0.0289791,-0.00593257,-0.167641,0.334224,-0.164954,-6.19776e-06,2.50375e-05,-2.0615e-05,0.329921,-0.15434262880714622,-6.197740793911777e-06,2.5037813440764722e-05,0.3968560042777567,-2.061478751236301e-05,-0.15206729190461088
408,0.3979,0.0157456,851.284,0.0188901,0.00222735,0.0289414,-0.00590221,-0.168001,0.334939,-0.165309,-6.19007e-06,2.51086e-05,-2.06264e-05,0.330634,-0.1546470106687533,-6.190050841570205e-06,2.510891522344849e-05,0.39785511345978364,-2.0626187277272834e-05,-0.15236825459194692
409,0.3989,0.0157086,851.626,0.0188467,0.00227003,0.0289036,-0.00587228,-0.168361,0.335654,-0.165663,-6.18226e-06,2.51794e-05,-2.06377e-05,0.331347,-0.15495128297261174,-6.182240889884838e-06,2.5179717003664948e-05,0.3988549372603216,-2.0637487044172786e-05,-0.152668263125178
410,0.3999,0.0156724,851.968,0.0188047,0.00231234,0.028866,-0.00584207,-0.168721,0.336369,-0.166018,-6.17435e-06,2.52501e-05,-2.06489e-05,0.33206,-0.1552554457581552,-6.1743309387463086e-06,2.5250418786537665e-05,0.3998554761905051,-2.0648686812951844e-05,-0.15296901250559514
411,0.4009,0.0156357,852.309,0.0187617,0.00235478,0.0288285,-0.0058122,-0.16908,0.337083,-0.166372,-6.16633e-06,2.53207e-05,-2.066e-05,0.332772,-0.1555586546238802,-6.1663109882648115e-06,2.5321020571622554e-05,0.40085532990580486,-2.065978658372103e-05,-0.1532688084081626
412,0.4019,0.0155996,852.649,0.0187198,0.00239692,0.0287911,-0.00578212,-0.16944,0.337797,-0.166726,-6.15821e-06,2.5391e-05,-2.06711e-05,0.333483,-0.1558625987949821,-6.15819103821913e-06,2.539132235424013e-05,0.4018558977715785,-2.067088635426817e-05,-0.153568498201763
413,0.4029,0.0155632,852.989,0.0186772,0.00243915,0.0287538,-0.00575231,-0.169799,0.33851,-0.167079,-6.14998e-06,2.54612e-05,-2.0682e-05,0.334194,-0.15616558973188743,-6.149961088941502e-06,2.546152413906988e-05,0.40285577744143297,-2.0681786128906587e-05,-0.153867235791611
414,0.4039,0.0155274,853.327,0.0186355,0.00248112,0.0287166,-0.00572236,-0.170157,0.339222,-0.167432,-6.14164e-06,2.55312e-05,-2.06928e-05,0.334905,-0.15646762838261907,-6.141621140209885e-06,2.553152592388308e-05,0.40385496642403806,-2.0692585905535132e-05,-0.1541658679457003
415,0.4049,0.0154913,853.665,0.0185932,0.00252312,0.0286794,-0.00569262,-0.170516,0.339934,-0.167785,-6.13319e-06,2.56011e-05,-2.07036e-05,0.335615,-0.15677040215288607,-6.133171192024278e-06,2.5601427710908453e-05,0.40485486708252516,-2.0703385681941633e-05,-0.1544643947012433
416,0.4059,0.0154556,854.002,0.0185517,0.00256491,0.0286425,-0.00566278,-0.170874,0.340646,-0.168138,-6.12464e-06,2.56708e-05,-2.07142e-05,0.336324,-0.15707222431952395,-6.124621244385509e-06,2.5671129497695233e-05,0.4058554799237881,-2.071398546243941e-05,-0.15476281609543885
417,0.4069,0.0154197,854.338,0.0185098,0.00260671,0.0286055,-0.00563312,-0.171232,0.341357,-0.168491,-6.11599e-06,2.57403e-05,-2.07248e-05,0.337033,-0.15737393845316527,-6.115971297404599e-06,2.5740631284465465e-05,0.4068553985989798,-2.0724585242826166e-05,-0.15506113216547301
418,0.4079,0.0153842,854.673,0.0184684,0.00264832,0.0285687,-0.0056034,-0.171589,0.342068,-0.168843,-6.10723e-06,2.58097e-05,-2.07352e-05,0.337741,-0.15767470226760227,-6.107211350858677e-06,2.5810033073225824e-05,0.40785602846914903,-2.0734985027193176e-05,-0.15535849830743942
419,0.4089,0.0153487,855.007,0.0184268,0.00268991,0.028532,-0.00557382,-0.171947,0.342778,-0.169195,-6.09836e-06,2.58789e-05,-2.07456e-05,0.338449,-0.15797620075274155,-6.098341405080809e-06,2.5879234861525546e-05,0.40885596118347034,-2.0745384811560186e-05,-0.15565575979494406
420,0.4099,0.0153134,855.341,0.0183857,0.00273134,0.0284954,-0.00554421,-0.172304,0.343487,-0.169547,-6.0894e-06,2.59479e-05,-2.07558e-05,0.339157,-0.15827674959791194,-6.089381459628562e-06,2.5948236649586676e-05,0.4098551942462121,-2.075558459990745e-05,-0.15595291666481892
421,0.4109,0.015278,855.674,0.0183444,0.00277273,0.0284589,-0.00551471,-0.172661,0.344196,-0.169898,-6.08033e-06,2.60168e-05,-2.0766e-05,0.339864,-0.15857719116629454,-6.0803115148333475e-06,2.6017138439859977e-05,0.41085513601640256,-2.0765784388143693e-05,-0.15624912520342993
422,0.4119,0.015243,856.006,0.0183035,0.00281398,0.0284225,-0.00548521,-0.173017,0.344905,-0.17025,-6.07115e-06,2.60855e-05,-2.07761e-05,0.34057,-0.1588766843732855,-6.071131570584143e-06,2.608584022967264e-05,0.41185578699669345,-2.0775884178370063e-05,-0.1565460732454368
423,0.4129,0.0152079,856.337,0.0182625,0.00285517,0.0283861,-0.0054558,-0.173374,0.345613,-0.170601,-6.06188e-06,2.61541e-05,-2.07861e-05,0.341276,-0.15917691180317928,-6.061861626882603e-06,2.6154442021475433e-05,0.41285573483365146,-2.0785883970475538e-05,-0.15684207362262248
424,0.4139,0.015173,856.667,0.0182218,0.00289624,0.0283499,-0.0054264,-0.17373,0.34632,-0.170951,-6.0525e-06,2.62225e-05,-2.0796e-05,0.341982,-0.15947619154762205,-6.052481683616051e-06,2.6222843812817587e-05,0.41385497702867236,-2.0795783764682163e-05,-0.15713712725945617
425,0.4149,0.0151381,856.997,0.018181,0.00293724,0.0283138,-0.00539708,-0.174086,0.347027,-0.171302,-6.04302e-06,2.62907e-05,-2.08057e-05,0.342686,-0.15977536476743837,-6.043001741007359e-06,2.629104560347706e-05,0.414854925937719,-2.0805483562980065e-05,-0.15743292021308786
426,0.4159,0.0151035,857.326,0.0181406,0.00297812,0.0282777,-0.00536778,-0.174441,0.347734,-0.171652,-6.03344e-06,2.63588e-05,-2.08154e-05,0.343391,-0.1600735915745557,-6.033421798834482e-06,2.635914739612666e-05,0.4158555820606149,-2.0815183361055922e-05,-0.15772776708979996
427,0.4169,0.0150689,857.654,0.0181001,0.00301893,0.0282418,-0.00533855,-0.174797,0.34844,-0.172002,-6.02376e-06,2.64267e-05,-2.08251e-05,0.344095,-0.16037255215781387,-6.023741857208442e-06,2.642704918831562e-05,0.41685552904129985,-2.082488315913178e-05,-0.15802251078816243
428,0.4179,0.0150344,857.982,0.0180599,0.00305963,0.028206,-0.00530935,-0.175152,0.349146,-0.172352,-6.01398e-06,2.64944e-05,-2.08346e-05,0.344798,-0.16067056700103333,-6.013961916018218e-06,2.64947509798219e-05,0.4178561822338165,-2.083438296118789e-05,-0.15831715134428148
429,0.4189,0.015,858.308,0.0180197,0.00310025,0.0281702,-0.00528021,-0.175507,0.349851,-0.172702,-6.0041e-06,2.6562e-05,-2.0844e-05,0.345501,-0.16096847606776,-6.004081975374831e-06,2.6562352773096265e-05,0.4188561232800938,-2.0843782765345154e-05,-0.15861168879425047
430,0.4199,0.0149658,858.634,0.0179797,0.00314077,0.0281345,-0.00525111,-0.175861,0.350555,-0.173051,-5.99412e-06,2.66295e-05,-2.08533e-05,0.346204,-0.1612654406613977,-5.9941020352782814e-06,2.6629854568360756e-05,0.4198553496773054,-2.0853082571492543e-05,-0.158905282079853
431,0.4209,0.0149316,858.959,0.0179398,0.00318121,0.028099,-0.00522207,-0.176215,0.351259,-0.1734,-5.98404e-06,2.66968e-05,-2.08626e-05,0.346906,-0.1615623001481743,-5.984022095617547e-06,2.669715636272052e-05,0.4208552797775751,-2.086238237752891e-05,-0.15919877291927664
432,0.4219,0.0148976,859.284,0.0179,0.00322155,0.0280635,-0.00519306,-0.17657,0.351963,-0.173749,-5.97387e-06,2.67639e-05,-2.08717e-05,0.347607,-0.16185989270581747,-5.973852156504478e-06,2.6764258156397602e-05,0.4218559140764844,-2.087148218754553e-05,-0.15949216134826905
433,0.4229,0.0148636,859.607,0.0178603,0.0032618,0.0280281,-0.00516411,-0.176923,0.352666,-0.174097,-5.96359e-06,2.68309e-05,-2.08808e-05,0.348308,-0.16215570394993595,-5.963572217826396e-06,2.6831259951842767e-05,0.42285583021342155,-2.0880581997562153e-05,-0.15978460718759246
434,0.4239,0.0148298,859.93,0.0178208,0.00330196,0.0279928,-0.0051352,-0.177277,0.353368,-0.174446,-5.95322e-06,2.68977e-05,-2.08897e-05,0.349009,-0.16245224833928396,-5.953202279584957e-06,2.6898061746383206e-05,0.4238550256828071,-2.0889481811781074e-05,-0.16007779119609866
435,0.4249,0.0147961,860.252,0.0177814,0.00334203,0.0279576,-0.00510635,-0.17763,0.35407,-0.174794,-5.94275e-06,2.69644e-05,-2.08986e-05,0.349709,-0.16274785051876595,-5.9427323418903555e-06,2.6964763542691728e-05,0.42485492283367354,-2.089838162577795e-05,-0.16037003327169197
436,0.4259,0.0147625,860.573,0.0177421,0.00338201,0.0279225,-0.00507754,-0.177984,0.354772,-0.175142,-5.93218e-06,2.70309e-05,-2.09074e-05,0.350408,-0.16304418532532694,-5.932162404631569e-06,2.7031265338095523e-05,0.4258555221587743,-2.0907181441875977e-05,-0.16066217366473678
437,0.4269,0.014729,860.894,0.0177029,0.0034219,0.0278875,-0.00504878,-0.178336,0.355473,-0.175489,-5.92151e-06,2.70972e-05,-2.09161e-05,0.351107,-0.16333874192708908,-5.92149246791962e-06,2.7097567132372546e-05,0.4268553972950979,-2.091588125985311e-05,-0.1609533733644053
438,0.4279,0.0146956,861.214,0.0176638,0.0034617,0.0278526,-0.00502006,-0.178689,0.356174,-0.175837,-5.91075e-06,2.71634e-05,-2.09247e-05,0.351806,-0.16363403122956066,-5.9107325315332915e-06,2.7163768928417653e-05,0.42785597358961946,-2.0924481080042412e-05,-0.16124531079041615
439,0.4289,0.0146622,861.533,0.0176249,0.00350142,0.0278177,-0.00499139,-0.179041,0.356874,-0.176184,-5.8999e-06,2.72295e-05,-2.09332e-05,0.352504,-0.16392838024210232,-5.899882595583605e-06,2.7229870726230843e-05,0.4288558226774857,-2.093298090211082e-05,-0.16153630817660547
440,0.4299,0.0146291,861.852,0.0175861,0.00354104,0.027783,-0.00496277,-0.179394,0.357573,-0.176531,-5.88894e-06,2.72954e-05,-2.09416e-05,0.353202,-0.16422346143898148,-5.888922660179929e-06,2.729577252291726e-05,0.4298549420490767,-2.094138072628038e-05,-0.16182720460421907
441,0.4309,0.014596,862.169,0.0175473,0.00358058,0.0277483,-0.0049342,-0.179745,0.358273,-0.176877,-5.8779e-06,2.73612e-05,-2.095e-05,0.353899,-0.16451676752578692,-5.877882725213723e-06,2.7361574321149718e-05,0.43085619090472616,-2.0949780550227892e-05,-0.1621171622258648
442,0.4319,0.014563,862.486,0.0175088,0.00362003,0.0277137,-0.00490567,-0.180097,0.358971,-0.177224,-5.86676e-06,2.74268e-05,-2.09582e-05,0.354595,-0.1648108058698332,-5.86674279057231e-06,2.742717611803336e-05,0.43185527716651984,-2.0957980378488728e-05,-0.16240785713208927
443,0.4329,0.0145301,862.802,0.0174703,0.00365939,0.0276793,-0.00487719,-0.180448,0.359669,-0.17757,-5.85552e-06,2.74922e-05,-2.09664e-05,0.355291,-0.16510390583491985,-5.8555028564777345e-06,2.7492577914012273e-05,0.4328550610339603,-2.0966180206527518e-05,-0.1626976138827131
444,0.4339,0.0144973,863.118,0.0174319,0.00369866,0.0276449,-0.00484876,-0.1808,0.360367,-0.177916,-5.84419e-06,2.75575e-05,-2.09745e-05,0.355987,-0.16539773754265152,-5.844172922708779e-06,2.755787971131518e-05,0.4338555429941462,-2.097428003666746e-05,-0.1629872703948433
445,0.4349,0.0144646,863.433,0.0173937,0.00373785,0.0276106,-0.00482038,-0.181151,0.361064,-0.178261,-5.83277e-06,2.76227e-05,-2.09825e-05,0.356682,-0.16569063153087205,-5.832752989376466e-06,2.762308151038617e-05,0.4348552886785104,-2.098227986890855e-05,-0.16327598997956505
446,0.4359,0.014432,863.747,0.0173556,0.00377695,0.0275764,-0.00479204,-0.181501,0.361761,-0.178607,-5.82125e-06,2.76877e-05,-2.09904e-05,0.357377,-0.16598258871434868,-5.821233056590991e-06,2.7688083307886302e-05,0.43585573142851564,-2.0990179703139766e-05,-0.16356544640818216
447,0.4369,0.0143996,864.06,0.0173176,0.00381597,0.0275422,-0.00476375,-0.181852,0.362457,-0.178952,-5.80964e-06,2.77526e-05,-2.09982e-05,0.358071,-0.16627527745583093,-5.8096231240201135e-06,2.775298510693247e-05,0.4368554348740328,-2.099797953936111e-05,-0.16385396655658402
448,0.4379,0.0143672,864.373,0.0172797,0.0038549,0.0275082,-0.00473551,-0.182202,0.363153,-0.179297,-5.79794e-06,2.78173e-05,-2.10059e-05,0.358765,-0.16656703004903917,-5.797923191996901e-06,2.7817686904629824e-05,0.4378558343553405,-2.1005679377572584e-05,-0.16414238718270324
449,0.4389,0.0143349,864.685,0.0172419,0.00389374,0.0274742,-0.00470731,-0.182552,0.363848,-0.179642,-5.78614e-06,2.78818e-05,-2.10135e-05,0.359458,-0.16685868054670772,-5.786123260298481e-06,2.788218870097836e-05,0.43885549150083736,-2.1013279217996228e-05,-0.16443070832086903
450,0.4399,0.0143027,864.996,0.0172043,0.0039325,0.0274404,-0.00467917,-0.182901,0.364543,-0.179986,-5.77426e-06,2.79463e-05,-2.10211e-05,0.360151,-0.16714939613437607,-5.774243329037532e-06,2.7946690501545746e-05,0.4398558436495359,-2.1020879058197828e-05,-0.1647180947239114
451,0.4409,0.0142707,865.307,0.0171667,0.00397118,0.0274066,-0.00465106,-0.183251,0.365237,-0.18033,-5.76228e-06,2.80105e-05,-2.10286e-05,0.360843,-0.16744084283958038,-5.762263398101375e-06,2.8010892297647416e-05,0.4408554504284603,-2.1028378900500577e-05,-0.16500538228303308
452,0.4419,0.0142387,865.617,0.0171293,0.00400977,0.0273729,-0.00462301,-0.1836,0.365931,-0.180674,-5.75021e-06,2.80747e-05,-2.10359e-05,0.361535,-0.16773135528805838,-5.750193467601861e-06,2.8075094097967934e-05,0.4418557511752683,-2.1035678747005626e-05,-0.16529257103223083
453,0.4429,0.0142068,865.926,0.0170919,0.00404828,0.0273393,-0.00459501,-0.183949,0.366624,-0.181018,-5.73805e-06,2.81387e-05,-2.10432e-05,0.362226,-0.16802176636538224,-5.738033537427967e-06,2.8139095896939637e-05,0.4428553035157161,-2.1042978593399653e-05,-0.16557966100548926
454,0.4439,0.014175,866.235,0.0170547,0.0040867,0.0273057,-0.00456705,-0.184298,0.367317,-0.181362,-5.7258e-06,2.82025e-05,-2.10504e-05,0.362917,-0.1683120761069241,-5.725783607690715e-06,2.820289769434048e-05,0.4438555487860081,-2.105017844189483e-05,-0.16586665223678143
455,0.4449,0.0141433,866.542,0.0170176,0.00412504,0.0272723,-0.00453913,-0.184646,0.368009,-0.181705,-5.71346e-06,2.82662e-05,-2.10576e-05,0.363607,-0.16860145314991304,-5.713443678168062e-06,2.826659949284327e-05,0.44485504261074604,-2.1057378290278983e-05,-0.16615271091319672
456,0.4459,0.0141118,866.85,0.0169807,0.0041633,0.0272389,-0.00451127,-0.184994,0.368701,-0.182048,-5.70103e-06,2.83298e-05,-2.10646e-05,0.364297,-0.1688907295072113,-5.7010137491930735e-06,2.8330201292670054e-05,0.4458552283245769,-2.1064378142865436e-05,-0.16643867148831126
457,0.4469,0.0140803,867.156,0.0169438,0.00420148,0.0272057,-0.00448345,-0.185342,0.369393,-0.182391,-5.68851e-06,2.83932e-05,-2.10716e-05,0.364987,-0.1691799052138515,-5.688493820432683e-06,2.8393603090703934e-05,0.44685610640645357,-2.1071377995340868e-05,-0.16672453399576814
458,0.4479,0.0140489,867.462,0.016907,0.00423957,0.0271725,-0.00445568,-0.18569,0.370083,-0.182733,-5.67591e-06,2.84565e-05,-2.10784e-05,0.365676,-0.1694689803048539,-5.67589389199874e-06,2.8456904890061807e-05,0.44785478162320147,-2.107817785212962e-05,-0.1670094654790807
459,0.4489,0.0140176,867.767,0.0168704,0.00427758,0.0271394,-0.00442796,-0.186038,0.370774,-0.183076,-5.66321e-06,2.85196e-05,-2.10852e-05,0.366364,-0.1697579548152267,-5.663193964111635e-06,2.8520006687626775e-05,0.4488555950185087,-2.108497770869633e-05,-0.1672951322377716
460,0.4499,0.0139864,868.072,0.0168338,0.00431551,0.0271063,-0.00440028,-0.186385,0.371464,-0.183418,-5.65043e-06,2.85826e-05,-2.10919e-05,0.367052,-0.1700459988263796,-5.650414036328932e-06,2.8583008486293693e-05,0.4498556503584865,-2.109167756747521e-05,-0.1675798686098513
461,0.4509,0.0139553,868.375,0.0167974,0.00435335,0.0270734,-0.00437265,-0.186732,0.372153,-0.18376,-5.63756e-06,2.86454e-05,-2.10986e-05,0.36774,-0.17033394290360016,-5.637544108982873e-06,2.864581028338975e-05,0.4508549451190964,-2.1098377426143067e-05,-0.16786450761874183
462,0.4519,0.0139243,868.678,0.016761,0.00439112,0.0270405,-0.00434507,-0.187079,0.372842,-0.184101,-5.6246e-06,2.87081e-05,-2.11051e-05,0.368427,-0.1706217870815595,-5.624584181962433e-06,2.870851208136571e-05,0.4518549286310438,-2.1104877288902202e-05,-0.16814821744636899
463,0.4529,0.0138934,868.981,0.0167248,0.00442881,0.0270077,-0.00431754,-0.187425,0.373531,-0.184443,-5.61155e-06,2.87707e-05,-2.11116e-05,0.369113,-0.17090870230403343,-5.611534255267614e-06,2.8771113880665666e-05,0.4528556013690421,-2.111137715177236e-05,-0.16843266211319186
464,0.4539,0.0138626,869.283,0.0166887,0.00446641,0.0269751,-0.00429005,-0.187772,0.374219,-0.184784,-5.59842e-06,2.88331e-05,-2.11179e-05,0.3698,-0.1711963470750799,-5.5984043288992424e-06,2.8833515677728627e-05,0.45385550995189483,-2.1117677018733794e-05,-0.16871617823316554
465,0.4549,0.0138319,869.584,0.0166527,0.00450394,0.0269424,-0.00426261,-0.188118,0.374907,-0.185125,-5.5852e-06,2.88954e-05,-2.11242e-05,0.370485,-0.1714830635341842,-5.585184402745469e-06,2.8895817476115582e-05,0.45485610670855725,-2.1123976885695228e-05,-0.16899959769062423
466,0.4559,0.0138012,869.884,0.0166168,0.00454138,0.0269099,-0.00423521,-0.188464,0.375594,-0.185466,-5.57189e-06,2.89576e-05,-2.11304e-05,0.37117,-0.17176968080655375,-5.571874477028338e-06,2.895801927538244e-05,0.4558559362559915,-2.113017675464679e-05,-0.16928292051852412
467,0.4569,0.0137707,870.184,0.016581,0.00457875,0.0268774,-0.00420787,-0.188809,0.37628,-0.185806,-5.5585e-06,2.90196e-05,-2.11366e-05,0.371855,-0.17205537098228652,-5.558484551526632e-06,2.902002107263435e-05,0.45685499606659863,-2.1136376623598352e-05,-0.16956531631554184
468,0.4579,0.0137402,870.484,0.0165453,0.00461603,0.0268451,-0.00418057,-0.189154,0.376967,-0.186146,-5.54503e-06,2.90815e-05,-2.11426e-05,0.372539,-0.1723409626119088,-5.5450146263513744e-06,2.9081922870988208e-05,0.4578561993228367,-2.1142376496863236e-05,-0.16984761611430932
469,0.4589,0.0137099,870.782,0.0165098,0.00465324,0.0268128,-0.00415331,-0.1895,0.377652,-0.186486,-5.53146e-06,2.91432e-05,-2.11486e-05,0.373223,-0.17262728310254383,-5.531444701500909e-06,2.9143624667105072e-05,0.4588551729287711,-2.1148376369906075e-05,-0.17012981994746024
470,0.4599,0.0136796,871.08,0.0164743,0.00469037,0.0267806,-0.00412611,-0.189844,0.378337,-0.186826,-5.51782e-06,2.92048e-05,-2.11544e-05,0.373906,-0.17291185036878054,-5.517804776866697e-06,2.9205226464323886e-05,0.45985483106605063,-2.1154176247262235e-05,-0.1704119278476175
471,0.4609,0.0136495,871.377,0.0164389,0.00472742,0.0267484,-0.00409895,-0.190189,0.379022,-0.187166,-5.50409e-06,2.92663e-05,-2.11602e-05,0.374589,-0.17319714656397978,-5.504074852558105e-06,2.9266728262422603e-05,0.4608551742037399,-2.1159976124507374e-05,-0.17069393984739256
472,0.4619,0.0136194,871.674,0.0164036,0.00476439,0.0267164,-0.00407184,-0.190534,0.379707,-0.187505,-5.49027e-06,2.93276e-05,-2.1166e-05,0.375272,-0.1734823443489686,-5.490254928464111e-06,2.9328030058284327e-05,0.4618562028112254,-2.1165776001752512e-05,-0.1709750269548277
473,0.4629,0.0135894,871.97,0.0163685,0.00480128,0.0266844,-0.00404477,-0.190878,0.38039,-0.187844,-5.47637e-06,2.93888e-05,-2.11716e-05,0.375954,-0.1737666175247229,-5.476355004696565e-06,2.9389231855025955e-05,0.4628549916453053,-2.1171375883310972e-05,-0.17125601878988306
474,0.4639,0.0135595,872.265,0.0163334,0.0048381,0.0266525,-0.00401775,-0.191222,0.381074,-0.188183,-5.46239e-06,2.94499e-05,-2.11772e-05,0.376635,-0.17405079292732284,-5.462375081144444e-06,2.9450333652647487e-05,0.4638559267403686,-2.1176975764647388e-05,-0.17153691538485027
475,0.4649,0.0135297,872.56,0.0162985,0.00487484,0.0266207,-0.00399078,-0.191565,0.381757,-0.188521,-5.44832e-06,2.95108e-05,-2.11827e-05,0.377316,-0.17433404492485416,-5.448305157917943e-06,2.9511235448032025e-05,0.464856081852423,-2.1182475648195975e-05,-0.1718168885893132
476,0.4659,0.0135,872.854,0.0162636,0.0049115,0.0265889,-0.00396386,-0.191909,0.382439,-0.18886,-5.43417e-06,2.95716e-05,-2.11881e-05,0.377997,-0.17461802516599811,-5.434155234906868e-06,2.9572037244074423e-05,0.46585545444756526,-2.1187875533845713e-05,-0.1720975950816428
477,0.4669,0.0134704,873.148,0.0162289,0.00494809,0.0265573,-0.00393698,-0.192252,0.383121,-0.189198,-5.41994e-06,2.96323e-05,-2.11934e-05,0.378677,-0.17490108263623494,-5.419925312111218e-06,2.9632739040996725e-05,0.4668555088472863,-2.1193175421485577e-05,-0.17237737880839166
478,0.4679,0.0134409,873.441,0.0161942,0.0049846,0.0265257,-0.00391015,-0.192595,0.383802,-0.189536,-5.40563e-06,2.96929e-05,-2.11986e-05,0.379356,-0.17518404303440827,-5.405615389642016e-06,2.9693340838576887e-05,0.4678547776612241,-2.119837531122659e-05,-0.17265706798422098
479,0.4689,0.0134114,873.733,0.0161597,0.00502103,0.0264941,-0.00388337,-0.192938,0.384484,-0.189874,-5.39123e-06,2.97533e-05,-2.12038e-05,0.380035,-0.17546690639380813,-5.391215467387411e-06,2.9753742633920055e-05,0.46885619606444906,-2.1203575200967606e-05,-0.17293666264108354
480,0.4699,0.0133821,874.024,0.0161252,0.00505739,0.0264627,-0.00385663,-0.19328,0.385164,-0.190211,-5.37676e-06,2.98135e-05,-2.12089e-05,0.380714,-0.1757488484969737,-5.3767455452380375e-06,2.9813944426804184e-05,0.46985535795431455,-2.1208675092920792e-05,-0.1732153360266706
481,0.4709,0.0133528,874.315,0.0160909,0.00509367,0.0264314,-0.00382994,-0.193623,0.385844,-0.190548,-5.3622e-06,2.98737e-05,-2.12139e-05,0.381392,-0.17603151816132045,-5.362185623414284e-06,2.987414622346307e-05,0.4708551995053236,-2.1213674986864106e-05,-0.17349391551514926
482,0.4719,0.0133236,874.606,0.0160567,0.00512988,0.0264001,-0.0038033,-0.193965,0.386524,-0.190885,-5.34756e-06,2.99337e-05,-2.12188e-05,0.38207,-0.1763132672002774,-5.347545701805956e-06,2.993414801766292e-05,0.4718557211798031,-2.121857488290857e-05,-0.17377240113815762
483,0.4729,0.0132946,874.896,0.0160225,0.00516601,0.0263689,-0.00377671,-0.194307,0.387203,-0.191222,-5.33284e-06,2.99936e-05,-2.12237e-05,0.382747,-0.1765949198975384,-5.332825780413053e-06,2.999404981252063e-05,0.4728554505842073,-2.122347477884201e-05,-0.17405079292732284
484,0.4739,0.0132655,875.185,0.0159885,0.00520207,0.0263377,-0.00375016,-0.194648,0.387882,-0.191559,-5.31804e-06,3.00533e-05,-2.12284e-05,0.383424,-0.1768756531621114,-5.318025859235576e-06,3.00537516049193e-05,0.4738558590353874,-2.1228174679088774e-05,-0.17432909091426174
485,0.4749,0.0132366,875.474,0.0159545,0.00523805,0.0263067,-0.00372366,-0.19499,0.38856,-0.191895,-5.30316e-06,3.01129e-05,-2.12331e-05,0.384101,-0.17715711355625918,-5.3031459382735235e-06,3.011335339797583e-05,0.4748554721383631,-2.1232874579335537e-05,-0.17460646973746263
486,0.4759,0.0132078,875.761,0.0159207,0.00527396,0.0262757,-0.0036972,-0.195331,0.389238,-0.192231,-5.2882e-06,3.01724e-05,-2.12378e-05,0.384777,-0.17743765514547705,-5.288186017526897e-06,3.0172855191468173e-05,0.4758557632088276,-2.1237574479471277e-05,-0.1748837553770347
487,0.4769,0.0131791,876.049,0.0158869,0.00530979,0.0262448,-0.00367079,-0.195672,0.389915,-0.192567,-5.27316e-06,3.02318e-05,-2.12423e-05,0.385452,-0.17771810108632202,-5.273146096884673e-06,3.0232256985396333e-05,0.4768552558506045,-2.124207438392034e-05,-0.17516094786428227
488,0.4779,0.0131504,876.336,0.0158533,0.00534556,0.0262139,-0.00364443,-0.196012,0.390592,-0.192903,-5.25804e-06,3.0291e-05,-2.12468e-05,0.386127,-0.17799762940944497,-5.258026176568897e-06,3.0291458776865454e-05,0.47785542537799985,-2.1246574288369402e-05,-0.1754380472304995
489,0.4789,0.0131218,876.622,0.0158198,0.00538124,0.0261832,-0.00361812,-0.196353,0.391268,-0.193238,-5.24285e-06,3.03501e-05,-2.12512e-05,0.386802,-0.1782778844316193,-5.24283625624733e-06,3.0350560568992435e-05,0.47885479339388737,-2.1250974194808592e-05,-0.17571422922161084
490,0.4799,0.0130934,876.907,0.0157863,0.00541686,0.0261525,-0.00359185,-0.196693,0.391944,-0.193573,-5.22757e-06,3.04091e-05,-2.12555e-05,0.387476,-0.17855722246075667,-5.227556336251382e-06,3.0409562361333187e-05,0.479854837210949,-2.1255274103459953e-05,-0.1759903187072508
491,0.4809,0.013065,877.192,0.0157529,0.0054524,0.0261219,-0.00356564,-0.197033,0.39262,-0.193908,-5.21222e-06,3.0468e-05,-2.12597e-05,0.388149,-0.178836465531108,-5.212206416360665e-06,3.0468464154331798e-05,0.4808555572861801,-2.1259474014212465e-05,-0.17626631571840334
492,0.4819,0.0130366,877.477,0.0157197,0.00548787,0.0260914,-0.00353946,-0.197373,0.393295,-0.194243,-5.19678e-06,3.05267e-05,-2.12639e-05,0.388823,-0.17911561367495388,-5.1967664967955685e-06,3.052716594442728e-05,0.48185547222067315,-2.1263673924853954e-05,-0.17654222028604227
493,0.4829,0.0130084,877.761,0.0156865,0.00552327,0.0260609,-0.00351334,-0.197712,0.39397,-0.194577,-5.18128e-06,3.05853e-05,-2.1268e-05,0.389495,-0.17939384631882038,-5.181266577225507e-06,3.058576773495858e-05,0.4828560623255913,-2.1267773837707615e-05,-0.17681720925875188
494,0.4839,0.0129803,878.044,0.0156535,0.0055586,0.0260305,-0.00348726,-0.198052,0.394644,-0.194912,-5.16569e-06,3.06438e-05,-2.1272e-05,0.390168,-0.17967280498541138,-5.165676657870044e-06,3.0644269525925694e-05,0.4838558442002425,-2.1271773752662426e-05,-0.1770929293079634
495,0.4849,0.0129522,878.327,0.0156205,0.00559385,0.0260002,-0.00346123,-0.198391,0.395317,-0.195246,-5.15002e-06,3.07021e-05,-2.12759e-05,0.390839,-0.17995084877343648,-5.150006738618984e-06,3.0702571314211724e-05,0.48485481529945895,-2.1275673669607365e-05,-0.17736773437457376
496,0.4859,0.0129242,878.609,0.0155876,0.00562903,0.0259699,-0.00343524,-0.19873,0.395991,-0.19558,-5.13428e-06,3.07604e-05,-2.12798e-05,0.391511,-0.18022879832059213,-5.134266819584177e-06,3.076087310605047e-05,0.4858559447877091,-2.1279573586663325e-05,-0.1776424476716182
497,0.4869,0.0128963,878.89,0.0155548,0.00566414,0.0259397,-0.0034093,-0.199068,0.396663,-0.195913,-5.11847e-06,3.08185e-05,-2.12836e-05,0.392182,-0.1805058341650646,-5.1184569006546e-06,3.081897489476404e-05,0.4868547755521555,-2.1283373505820435e-05,-0.17791624714640086
498,0.4879,0.0128685,879.171,0.0155222,0.00569918,0.0259096,-0.00338341,-0.199407,0.397336,-0.196247,-5.10257e-06,3.08764e-05,-2.12873e-05,0.392852,-0.18078359560405866,-5.102556981939621e-06,3.087687668101857e-05,0.4878557656114755,-2.1287073427078695e-05,-0.17819077727077115
499,0.4889,0.0128408,879.452,0.0154896,0.00573415,0.0258796,-0.00335757,-0.199745,0.398008,-0.19658,-5.0866e-06,3.09343e-05,-2.12909e-05,0.393522,-0.18106044395873688,-5.08658706321885e-06,3.093477847038173e-05,0.48885594070716,-2.1290673350438105e-05,-0.17846439418219573
500,0.4899,0.0128131,879.731,0.0154571,0.00576905,0.0258496,-0.00333177,-0.200083,0.398679,-0.196913,-5.07056e-06,3.0992e-05,-2.12945e-05,0.394192,-0.18133719875448362,-5.0705471447143324e-06,3.0992480257063804e-05,0.4898552982903477,-2.1294273273797515e-05,-0.17873791999435784
501,0.4909,0.0127856,880.011,0.0154247,0.00580388,0.0258198,-0.00330602,-0.200421,0.39935,-0.197246,-5.05444e-06,3.10496e-05,-2.1298e-05,0.394861,-0.18161386002291624,-5.054427226314218e-06,3.1050082043737603e-05,0.4908553266675,-2.1297773199258074e-05,-0.17901135473758822
502,0.4919,0.0127581,880.289,0.0153924,0.00583864,0.0257899,-0.00328032,-0.200758,0.400021,-0.197578,-5.03825e-06,3.11071e-05,-2.13014e-05,0.39553,-0.1818896096856607,-5.038237308019333e-06,3.110758383084722e-05,0.4918560262888705,-2.1301173126819783e-05,-0.1792838777264959
503,0.4929,0.0127307,880.567,0.0153601,0.00587333,0.0257602,-0.00325467,-0.201095,0.400691,-0.19791,-5.02198e-06,3.11645e-05,-2.13047e-05,0.396198,-0.18216526643642528,-5.021967389828852e-06,3.1164985618170604e-05,0.49285590474836405,-2.1304473056482642e-05,-0.17955631025278895
504,0.4939,0.0127033,880.845,0.015328,0.00590795,0.0257305,-0.00322906,-0.201432,0.40136,-0.198242,-5.00563e-06,3.12217e-05,-2.1308e-05,0.396866,-0.18244083030651614,-5.005617471853796e-06,3.122218740236882e-05,0.493854959495192,-2.13077729861455e-05,-0.17982865234649592
505,0.4949,0.0126761,881.122,0.015296,0.0059425,0.0257009,-0.0032035,-0.201769,0.40203,-0.198574,-4.98921e-06,3.12789e-05,-2.13112e-05,0.397533,-0.18271630132722871,-4.989197553872948e-06,3.12793891898977e-05,0.49485617768869483,-2.1310972918020532e-05,-0.18010090403763546
506,0.4959,0.0126489,881.398,0.015264,0.00597699,0.0256714,-0.00317798,-0.202106,0.402698,-0.198906,-4.97272e-06,3.13359e-05,-2.13143e-05,0.3982,-0.18299167952984807,-4.972707635997331e-06,3.1336390974523454e-05,0.4958550752100186,-2.131407285188569e-05,-0.18037306535621622
507,0.4969,0.0126218,881.674,0.0152322,0.0060114,0.0256419,-0.00315252,-0.202442,0.403367,-0.199237,-4.95615e-06,3.13927e-05,-2.13174e-05,0.398867,-0.18326614821220522,-4.956137718337139e-06,3.1393192756024035e-05,0.496856137073191,-2.131717278586187e-05,-0.18064431697696348
508,0.4979,0.0125948,881.949,0.0152004,0.00604575,0.0256125,-0.00312709,-0.202778,0.404034,-0.199568,-4.93951e-06,3.14495e-05,-2.13204e-05,0.399533,-0.18354052468857662,-4.939497800671155e-06,3.144999454063324e-05,0.49785487315807586,-2.13201727219392e-05,-0.18091547882828196
509,0.4989,0.0125679,882.224,0.0151688,0.00608002,0.0255831,-0.00310172,-0.203114,0.404702,-0.199899,-4.9228e-06,3.15061e-05,-2.13233e-05,0.400198,-0.18381480898993807,-4.92278788299938e-06,3.150659632233932e-05,0.49885577447716734,-2.132307266000666e-05,-0.18118655093988045
510,0.4999,0.0125411,882.498,0.0151372,0.00611423,0.0255539,-0.0030764,-0.20345,0.405369,-0.20023,-4.90602e-06,3.15627e-05,-2.13261e-05,0.400864,-0.18408900114725546,-4.906007965543857e-06,3.156319810715402e-05,0.4998558447651078,-2.132587260039731e-05,-0.18145753334145776
511,0.5009,0.0125143,882.772,0.0151057,0.00614838,0.0255247,-0.00305112,-0.203785,0.406035,-0.200561,-4.88916e-06,3.16191e-05,-2.13289e-05,0.401528,-0.18436228555417722,-4.889148048081715e-06,3.16195998890656e-05,0.5008550814666082,-2.132867254067694e-05,-0.18172842606270312
512,0.5019,0.0124876,883.045,0.0150743,0.00618245,0.0254955,-0.00302589,-0.204121,0.406701,-0.200891,-4.87223e-06,3.16754e-05,-2.13316e-05,0.402193,-0.18463629379026947,-4.872218130724804e-06,3.167590167074685e-05,0.5018549838814097,-2.133137248305772e-05,-0.1819984111321159
513,0.5029,0.012461,883.318,0.015043,0.00621646,0.0254665,-0.0030007,-0.204456,0.407367,-0.201221,-4.85523e-06,3.17315e-05,-2.13342e-05,0.402856,-0.18490939488486235,-4.8552182133621e-06,3.173200344930294e-05,0.5028555524530249,-2.133397242753965e-05,-0.18226830712115483
514,0.5039,0.0124344,883.59,0.0150118,0.0062504,0.0254375,-0.00297556,-0.20479,0.408032,-0.201551,-4.83815e-06,3.17876e-05,-2.13368e-05,0.40352,-0.1851815896879082,-4.838138296214822e-06,3.178810523118969e-05,0.5038552837692267,-2.13365723721326e-05,-0.1825381140592115
515,0.5049,0.012408,883.861,0.0149806,0.00628427,0.0254086,-0.00295047,-0.205125,0.408697,-0.201881,-4.82101e-06,3.18435e-05,-2.13393e-05,0.404183,-0.1854545081389699,-4.820998378951558e-06,3.1844007009729225e-05,0.5048556801278559,-2.133907231871568e-05,-0.18280783197566808
516,0.5059,0.0123816,884.132,0.0149496,0.00631808,0.0253797,-0.00292543,-0.205459,0.409361,-0.20221,-4.80379e-06,3.18993e-05,-2.13417e-05,0.404845,-0.18572652090459085,-4.803778461792696e-06,3.189980878803844e-05,0.5058552361153235,-2.134147226751093e-05,-0.18307664397694923
517,0.5069,0.0123553,884.402,0.0149186,0.00635182,0.0253509,-0.00290043,-0.205793,0.410025,-0.202539,-4.7865e-06,3.1955e-05,-2.13441e-05,0.405507,-0.18599844283311884,-4.786488544739065e-06,3.195551056656143e-05,0.5068554560283658,-2.134387221630618e-05,-0.1833453675536285
518,0.5079,0.0123291,884.672,0.0148878,0.0063855,0.0253222,-0.00287548,-0.206127,0.410688,-0.202868,-4.76914e-06,3.20106e-05,-2.13463e-05,0.406169,-0.18627027395488815,-4.769128627679642e-06,3.201111234463205e-05,0.5078548324523893,-2.1346072169414754e-05,-0.1836140027347929
519,0.5089,0.0123029,884.942,0.014857,0.00641911,0.0252935,-0.00285058,-0.206461,0.411351,-0.203197,-4.75171e-06,3.20661e-05,-2.13486e-05,0.40683,-0.18654201430022344,-4.751698710614427e-06,3.206661412291645e-05,0.508854871682678,-2.1348372120311154e-05,-0.18388254954951988
520,0.5099,0.0122769,885.211,0.0148263,0.00645265,0.0252649,-0.00282573,-0.206795,0.412014,-0.203525,-4.73422e-06,3.21215e-05,-2.13507e-05,0.407491,-0.18681366389943876,-4.734208793544248e-06,3.2122015900970524e-05,0.509855574158818,-2.1350472075409854e-05,-0.18415019217747708
521,0.5109,0.0122509,885.479,0.0147957,0.00648613,0.0252364,-0.00280092,-0.207128,0.412676,-0.203854,-4.71665e-06,3.21767e-05,-2.13528e-05,0.408151,-0.18708440986765462,-4.716638876578472e-06,3.217721767545534e-05,0.5108554294645022,-2.1352572030619577e-05,-0.1844185626148931
522,0.5119,0.0122249,885.747,0.0147652,0.00651954,0.0252079,-0.00277616,-0.207461,0.413338,-0.204182,-4.69901e-06,3.22318e-05,-2.13548e-05,0.408811,-0.18735506569247273,-4.698998959717926e-06,3.2232319450153923e-05,0.5118559468935375,-2.135457198793045e-05,-0.18468602945939494
523,0.5129,0.0121991,886.014,0.0147347,0.00655289,0.0251795,-0.00275145,-0.207794,0.413999,-0.20451,-4.6813e-06,3.22868e-05,-2.13567e-05,0.409471,-0.18762563140390598,-4.681289042740566e-06,3.2287321224400145e-05,0.512855614028024,-2.135647194734247e-05,-0.18495340858915787
524,0.5139,0.0121733,886.281,0.0147044,0.00658618,0.0251512,-0.00272678,-0.208126,0.41466,-0.204838,-4.66352e-06,3.23417e-05,-2.13586e-05,0.41013,-0.187895294927658,-4.663509125757415e-06,3.234222299841605e-05,0.5138559421609223,-2.1358371906754492e-05,-0.18522070003294744
525,0.5149,0.0121476,886.547,0.0146741,0.0066194,0.0251229,-0.00270216,-0.208459,0.41532,-0.205165,-4.64568e-06,3.23965e-05,-2.13604e-05,0.410788,-0.18816568077270535,-4.645669208880321e-06,3.239702477220163e-05,0.5148554168731228,-2.1360171868267663e-05,-0.18548708930701663
526,0.5159,0.012122,886.812,0.014644,0.00665256,0.0250947,-0.00267759,-0.208791,0.41598,-0.205492,-4.62776e-06,3.24512e-05,-2.13621e-05,0.411446,-0.18843516502982682,-4.627749291885586e-06,3.245172654597894e-05,0.5158555514563667,-2.1361871831993007e-05,-0.18575339148603398
527,0.5169,0.0120964,887.078,0.0146139,0.00668565,0.0250666,-0.00265307,-0.209123,0.416639,-0.205819,-4.60978e-06,3.25057e-05,-2.13638e-05,0.412104,-0.18870455983302514,-4.609769374996908e-06,3.250622831596495e-05,0.5168548294907247,-2.1363571795607328e-05,-0.18601960659847505
528,0.5179,0.012071,887.342,0.0145839,0.00671868,0.0250385,-0.00262859,-0.209454,0.417298,-0.206146,-4.59173e-06,3.25602e-05,-2.13654e-05,0.412761,-0.18897305418545363,-4.591719457991417e-06,3.2560730089059575e-05,0.5178547662663389,-2.136517176143382e-05,-0.18628573467280574
529,0.5189,0.0120455,887.606,0.0145539,0.00675164,0.0250105,-0.00260416,-0.209786,0.417957,-0.206473,-4.57361e-06,3.26145e-05,-2.13669e-05,0.413418,-0.18924227043909314,-4.573599541091156e-06,3.261503185858494e-05,0.5188553622174628,-2.1366671729472486e-05,-0.18655177573748305
530,0.5199,0.0120202,887.87,0.0145241,0.00678455,0.0249826,-0.00257978,-0.210117,0.418615,-0.206799,-4.55542e-06,3.26687e-05,-2.13683e-05,0.414075,-0.18951058683876387,-4.5554096240740805e-06,3.266923362787999e-05,0.5198550979227781,-2.136807169950128e-05,-0.1868169166382776
531,0.5209,0.011995,888.133,0.0144943,0.00681739,0.0249547,-0.00255545,-0.210448,0.419273,-0.207125,-4.53717e-06,3.27229e-05,-2.13697e-05,0.414731,-0.18977881444040323,-4.537159707052041e-06,3.272343539983957e-05,0.5208554916706598,-2.1369471669641094e-05,-0.18708197111722613
532,0.5219,0.0119698,888.396,0.0144647,0.00685016,0.0249269,-0.00253116,-0.210779,0.41993,-0.207451,-4.51885e-06,3.27769e-05,-2.13711e-05,0.415386,-0.1900469532733985,-4.5188397900242094e-06,3.277743716845194e-05,0.5218550220384592,-2.1370871639669886e-05,-0.18734693920249734
533,0.5229,0.0119447,888.658,0.0144351,0.00688288,0.0248991,-0.00250692,-0.21111,0.420587,-0.207777,-4.50046e-06,3.28307e-05,-2.13723e-05,0.416041,-0.19031500336712714,-4.500449872990586e-06,3.2831238933273e-05,0.5228552093134808,-2.1372071614012e-05,-0.18761182092225115
534,0.5239,0.0119196,888.919,0.0144056,0.00691553,0.0248714,-0.00248273,-0.21144,0.421244,-0.208103,-4.482e-06,3.28845e-05,-2.13735e-05,0.416696,-0.1905821553335172,-4.481989955840149e-06,3.2885040701202684e-05,0.5238560539274544,-2.1373271588354115e-05,-0.18787661630463803
535,0.5249,0.0118946,889.181,0.0143762,0.00694812,0.0248438,-0.00245858,-0.21177,0.4219,-0.208428,-4.46348e-06,3.29382e-05,-2.13747e-05,0.41735,-0.19084921915430308,-4.463470038684747e-06,3.293874246845796e-05,0.5248560314555994,-2.137447156269623e-05,-0.18814051351871885
536,0.5259,0.0118697,889.441,0.0143468,0.00698065,0.0248162,-0.00243449,-0.2121,0.422555,-0.208753,-4.44489e-06,3.29918e-05,-2.13757e-05,0.418004,-0.19111619485856812,-4.444880121523553e-06,3.299234423548292e-05,0.5258551393283111,-2.1375471541351665e-05,-0.1884043249801407
537,0.5269,0.0118449,889.701,0.0143176,0.00701312,0.0247887,-0.00241044,-0.21243,0.42321,-0.209078,-4.42624e-06,3.30452e-05,-2.13767e-05,0.418658,-0.19138308247538605,-4.426230204246373e-06,3.304574599871657e-05,0.5268549018310471,-2.13764715200071e-05,-0.18866805071676862
538,0.5279,0.0118202,889.961,0.0142884,0.00704552,0.0247613,-0.00238643,-0.212759,0.423865,-0.209403,-4.40752e-06,3.30986e-05,-2.13777e-05,0.419311,-0.19164907368329864,-4.4075102868523786e-06,3.3099147764614756e-05,0.5278553193927309,-2.1377471498551515e-05,-0.18893169075645866
539,0.5289,0.0117955,890.22,0.0142593,0.00707787,0.0247339,-0.00236248,-0.213089,0.424519,-0.209727,-4.38873e-06,3.31518e-05,-2.13785e-05,0.419963,-0.19191578547911647,-4.3887203695636146e-06,3.315234952694368e-05,0.5288548635869386,-2.1378271481520272e-05,-0.18919443432189742
540,0.5299,0.0117709,890.479,0.0142303,0.00711015,0.0247066,-0.00233857,-0.213418,0.425173,-0.210051,-4.36988e-06,3.32049e-05,-2.13793e-05,0.420615,-0.19218160145656782,-4.3698704520478415e-06,3.320545128882024e-05,0.5298550616968563,-2.1379071464378008e-05,-0.18945709277221046
541,0.5309,0.0117463,890.737,0.0142013,0.00714237,0.0246793,-0.00231471,-0.213747,0.425827,-0.210375,-4.35097e-06,3.32579e-05,-2.13801e-05,0.421267,-0.19244732999494718,-4.350960534527104e-06,3.3258453050022396e-05,0.5308559141502849,-2.1379871447235743e-05,-0.1897196661349705
542,0.5319,0.0117218,890.994,0.0141725,0.00717453,0.0246521,-0.0022909,-0.214075,0.42648,-0.210699,-4.33199e-06,3.33108e-05,-2.13808e-05,0.421919,-0.19271216383558465,-4.3319806168895525e-06,3.331135481077219e-05,0.5318558895186496,-2.138057143230565e-05,-0.18998215443774147
543,0.5329,0.0116974,891.252,0.0141437,0.00720664,0.024625,-0.00226713,-0.214404,0.427132,-0.211023,-4.31294e-06,3.33637e-05,-2.13814e-05,0.422569,-0.1929777178476525,-4.312930699246209e-06,3.336425657440856e-05,0.5328549852284239,-2.1381171419476708e-05,-0.19024455770807835
544,0.5339,0.0116731,891.508,0.014115,0.00723868,0.0245979,-0.00224341,-0.214732,0.427785,-0.211346,-4.29384e-06,3.34163e-05,-2.13819e-05,0.42322,-0.19324237774960173,-4.293830781487706e-06,3.3416858330692634e-05,0.5338562664165063,-2.1381671408859937e-05,-0.19050606647999846
545,0.5349,0.0116488,891.764,0.0140864,0.00727066,0.0245709,-0.00221974,-0.21506,0.428436,-0.21167,-4.27466e-06,3.34689e-05,-2.13824e-05,0.42387,-0.19350695085733816,-4.274650863611562e-06,3.346946008986329e-05,0.5348551319413952,-2.1382171398132144e-05,-0.19076830003032974
546,0.5359,0.0116246,892.02,0.0140578,0.00730258,0.0245439,-0.00219612,-0.215388,0.429088,-0.211993,-4.25543e-06,3.35214e-05,-2.13828e-05,0.42452,-0.19377143719932566,-4.2554209456202585e-06,3.352196184835954e-05,0.5358561837948626,-2.1382571389616523e-05,-0.19102963966079745
547,0.5369,0.0116005,892.275,0.0140294,0.00733445,0.024517,-0.00217255,-0.215716,0.429738,-0.212315,-4.23613e-06,3.35738e-05,-2.13832e-05,0.425169,-0.1940358368040187,-4.236121027623163e-06,3.3574363606403423e-05,0.5368548148342569,-2.138297138098988e-05,-0.1912900861826864
548,0.5379,0.0115764,892.53,0.014001,0.00736625,0.0244902,-0.00214902,-0.216043,0.430389,-0.212638,-4.21676e-06,3.36261e-05,-2.13835e-05,0.425818,-0.19429934399960924,-4.216751109509254e-06,3.3626665363550856e-05,0.5378556330496975,-2.1383271374575408e-05,-0.1915512573034427
549,0.5389,0.0115524,892.784,0.0139727,0.00739799,0.0244634,-0.00212554,-0.21637,0.431039,-0.21296,-4.19733e-06,3.36782e-05,-2.13837e-05,0.426466,-0.19456276504243364,-4.197321191168335e-06,3.367876711690698e-05,0.5388555641535826,-2.1383471370262086e-05,-0.19181153589148947
550,0.5399,0.0115285,893.038,0.0139445,0.00742968,0.0244367,-0.00210211,-0.216697,0.431689,-0.213282,-4.17784e-06,3.37303e-05,-2.13839e-05,0.427114,-0.19482609996065914,-4.177831272822452e-06,3.3730868872927644e-05,0.5398561454239665,-2.1383671366059787e-05,-0.19207173068332273
551,0.5409,0.0115047,893.291,0.0139163,0.00746131,0.02441,-0.00207873,-0.217024,0.432338,-0.213604,-4.15829e-06,3.37823e-05,-2.1384e-05,0.427761,-0.19508934878244388,-4.158281354360582e-06,3.37828706282739e-05,0.540855836426988,-2.1383771363847615e-05,-0.19233184170592055
552,0.5419,0.0114809,893.544,0.0138883,0.00749288,0.0243834,-0.00205539,-0.21735,0.432987,-0.213926,-4.13868e-06,3.38341e-05,-2.1384e-05,0.428408,-0.19535170688804604,-4.138671435671704e-06,3.38346723796068e-05,0.5418561764400514,-2.1383771363847615e-05,-0.19259186898625247
553,0.5429,0.0114571,893.797,0.0138603,0.00752439,0.0243569,-0.0020321,-0.217677,0.433635,-0.214248,-4.119e-06,3.38859e-05,-2.1384e-05,0.429055,-0.19561478386446385,-4.118991516977033e-06,3.388647413360424e-05,0.5428556230281063,-2.1383771363847615e-05,-0.19285181255127892
554,0.5439,0.0114335,894.049,0.0138324,0.00755584,0.0243304,-0.00200886,-0.218003,0.434283,-0.214569,-4.09926e-06,3.39375e-05,-2.13839e-05,0.429701,-0.19587697070614674,-4.0992515980553534e-06,3.393807588336628e-05,0.5438557174674317,-2.1383671366059787e-05,-0.19311086553922097
555,0.5449,0.0114099,894.3,0.0138045,0.00758724,0.024304,-0.00198567,-0.218329,0.43493,-0.21489,-4.07946e-06,3.39891e-05,-2.13838e-05,0.430347,-0.19613907208884995,-4.079451679017687e-06,3.39896776360149e-05,0.544854915322283,-2.1383571368160936e-05,-0.19336983538449903
556,0.5459,0.0113864,894.551,0.0137768,0.00761858,0.0242776,-0.00196252,-0.218654,0.435577,-0.215211,-4.05959e-06,3.40405e-05,-2.13836e-05,0.430993,-0.19640028444111457,-4.059581759863207e-06,3.404107938442813e-05,0.5458547598673282,-2.1383371372474258e-05,-0.19362872211379756
557,0.5469,0.0113629,894.802,0.0137491,0.00764986,0.0242513,-0.00193942,-0.21898,0.436224,-0.215532,-4.03967e-06,3.40919e-05,-2.13833e-05,0.431638,-0.19666221525134497,-4.039661840593567e-06,3.409248113550589e-05,0.5468552515211111,-2.138307137888873e-05,-0.19388752575379253
558,0.5479,0.0113395,895.052,0.0137215,0.00768108,0.0242251,-0.00191637,-0.219305,0.43687,-0.215852,-4.01968e-06,3.41431e-05,-2.1383e-05,0.432282,-0.1969232576097073,-4.019671921096091e-06,3.414368288234826e-05,0.5478548428468297,-2.13827713853032e-05,-0.19414544047699467
559,0.5489,0.0113162,895.301,0.0136939,0.00771225,0.0241989,-0.00189337,-0.21963,0.437516,-0.216173,-3.99964e-06,3.41942e-05,-2.13826e-05,0.432926,-0.19718421514308804,-3.999632001483455e-06,3.419478462829417e-05,0.5488550801171626,-2.1382371393818822e-05,-0.19440407827701378
560,0.5499,0.0112929,895.55,0.0136665,0.00774336,0.0241727,-0.00187042,-0.219955,0.438162,-0.216493,-3.97953e-06,3.42453e-05,-2.13822e-05,0.43357,-0.1974450878790508,-3.979522081642983e-06,3.424588637690462e-05,0.5498559637495244,-2.1381971402445465e-05,-0.1946618277298532
561,0.5509,0.0112697,895.799,0.0136391,0.00777441,0.0241467,-0.00184751,-0.22028,0.438807,-0.216813,-3.95936e-06,3.42962e-05,-2.13817e-05,0.434214,-0.1977058758451501,-3.959352161797547e-06,3.4296788121279675e-05,0.5508559433048814,-2.1381471413062236e-05,-0.19491949471606318
562,0.5519,0.0112466,896.047,0.0136118,0.00780541,0.0241207,-0.00182465,-0.220604,0.439451,-0.217132,-3.93913e-06,3.4347e-05,-2.13811e-05,0.434857,-0.19796577703510987,-3.939122241614079e-06,3.434758986498032e-05,0.5518550161993125,-2.138087142589118e-05,-0.19517627443870544
563,0.5529,0.0112236,896.295,0.0135846,0.00783635,0.0240947,-0.00180184,-0.220928,0.440095,-0.217452,-3.91885e-06,3.43978e-05,-2.13805e-05,0.435499,-0.19822559403072437,-3.918842321315452e-06,3.439839161112346e-05,0.552854732703908,-2.1380271438720122e-05,-0.19543377682830532
564,0.5539,0.0112006,896.542,0.0135574,0.00786723,0.0240688,-0.00177908,-0.221252,0.440739,-0.217771,-3.8985e-06,3.44484e-05,-2.13798e-05,0.436141,-0.198485326859268,-3.898492400900011e-06,3.44489933530312e-05,0.5538550932332857,-2.1379571453650215e-05,-0.19569039252111797
565,0.5549,0.0111776,896.789,0.0135303,0.00789806,0.0240429,-0.00175636,-0.221576,0.441383,-0.21809,-3.87809e-06,3.44989e-05,-2.1379e-05,0.436783,-0.19874497554800663,-3.878082480257561e-06,3.449949509382044e-05,0.5548560982023321,-2.137877147079248e-05,-0.19594692636657995
566,0.5559,0.0111547,897.036,0.0135033,0.00792884,0.0240171,-0.0017337,-0.2219,0.442026,-0.218409,-3.85762e-06,3.45493e-05,-2.13782e-05,0.437424,-0.199004540124197,-3.857612559388102e-06,3.454989683393528e-05,0.5558561921692291,-2.1377971487934744e-05,-0.1962033783907965
567,0.5569,0.0111319,897.281,0.0134764,0.00795955,0.0239914,-0.00171108,-0.222223,0.442668,-0.218728,-3.8371e-06,3.45997e-05,-2.13774e-05,0.438065,-0.19926321987870754,-3.837092638292461e-06,3.4600298576492605e-05,0.5568553725471843,-2.1377171504965986e-05,-0.19645974861986426
568,0.5579,0.0111092,897.527,0.0134495,0.00799022,0.0239657,-0.00168851,-0.222546,0.44331,-0.219046,-3.81651e-06,3.46499e-05,-2.13765e-05,0.438706,-0.1995218160931499,-3.816502717080006e-06,3.4650500314814536e-05,0.5578551946048991,-2.13762715242094e-05,-0.19671523379550715
569,0.5589,0.0110865,897.772,0.0134227,0.00802083,0.0239401,-0.00166599,-0.222869,0.443952,-0.219364,-3.79586e-06,3.47e-05,-2.13755e-05,0.439346,-0.19978032879450303,-3.795852795751564e-06,3.470060205201797e-05,0.5588556587544646,-2.1375271545664987e-05,-0.19697063773978085
570,0.5599,0.0110639,898.017,0.013396,0.00805138,0.0239145,-0.00164351,-0.223192,0.444593,-0.219682,-3.77516e-06,3.47501e-05,-2.13744e-05,0.439985,-0.20003875800973725,-3.7751528740859186e-06,3.4750703791663895e-05,0.5598552055522503,-2.13741715691107e-05,-0.19722596047851249
571,0.5609,0.0110413,898.261,0.0133693,0.00808188,0.023889,-0.00162109,-0.223515,0.445234,-0.22,-3.7544e-06,3.48e-05,-2.13733e-05,0.440625,-0.20029710376581444,-3.7543929523042863e-06,3.4800605527074424e-05,0.5608553932649247,-2.1373071592667436e-05,-0.1974812020375215
572,0.5619,0.0110188,898.505,0.0133428,0.00811233,0.0238636,-0.00159871,-0.223837,0.445875,-0.220318,-3.73358e-06,3.48499e-05,-2.13722e-05,0.441263,-0.20055456664465388,-3.7335730301846226e-06,3.4850507264927444e-05,0.561856222303446,-2.137197161611315e-05,-0.19773636244261894
573,0.5629,0.0109964,898.748,0.0133163,0.00814272,0.0238382,-0.00157638,-0.224159,0.446515,-0.220635,-3.7127e-06,3.48996e-05,-2.1371e-05,0.441902,-0.2008119466337921,-3.7126931079489722e-06,3.490020899810098e-05,0.562856130222124,-2.1370771641771036e-05,-0.19799063971064834
574,0.5639,0.010974,898.991,0.0132898,0.00817305,0.0238128,-0.0015541,-0.224481,0.447154,-0.220953,-3.69177e-06,3.49492e-05,-2.13697e-05,0.44254,-0.20106924375991564,-3.691763185376118e-06,3.494981073037806e-05,0.5638551144307984,-2.1369471669641094e-05,-0.19824563814032115
575,0.5649,0.0109517,899.233,0.0132635,0.00820334,0.0237875,-0.00153186,-0.224803,0.447793,-0.22127,-3.67077e-06,3.49988e-05,-2.13684e-05,0.443177,-0.20132645804970184,-3.6707632626864495e-06,3.4999412465097635e-05,0.5648547371943786,-2.136817169740013e-05,-0.19849975399353992
576,0.5659,0.0109295,899.475,0.0132372,0.00823357,0.0237623,-0.00150968,-0.225124,0.448432,-0.221586,-3.64972e-06,3.50482e-05,-2.1367e-05,0.443815,-0.20158279111301014,-3.6497133397705994e-06,3.504881419535977e-05,0.565854998921032,-2.1366771727260314e-05,-0.19875298805818853
577,0.5669,0.0109073,899.717,0.013211,0.00826374,0.0237371,-0.00148754,-0.225446,0.449071,-0.221903,-3.62861e-06,3.50976e-05,-2.13655e-05,0.444451,-0.20183984006716915,-3.6286034166277403e-06,3.509821592806439e-05,0.566855900019186,-2.136527175933267e-05,-0.1990069431069722
578,0.5679,0.0108852,899.958,0.0131848,0.00829387,0.023712,-0.00146545,-0.225767,0.449709,-0.22222,-3.60745e-06,3.51468e-05,-2.1364e-05,0.445088,-0.2020960083612967,-3.6074434931476773e-06,3.514741765608953e-05,0.5678558730408727,-2.136377179140503e-05,-0.1992608176647639
579,0.5689,0.0108631,900.199,0.0131587,0.00832394,0.0236869,-0.00144341,-0.226088,0.450346,-0.222536,-3.58622e-06,3.5196e-05,-2.13625e-05,0.445724,-0.20235209443859847,-3.5862135695508e-06,3.519661938655716e-05,0.5688549153932072,-2.1362271823366363e-05,-0.19951381127128676
580,0.5699,0.0108411,900.439,0.0131327,0.00835396,0.0236619,-0.00142142,-0.226409,0.450984,-0.222852,-3.56495e-06,3.52451e-05,-2.13609e-05,0.446359,-0.20260809832546156,-3.5649436456175465e-06,3.524572111590629e-05,0.5698561641936326,-2.1360671857650892e-05,-0.19976672494446013
581,0.5709,0.0108192,900.679,0.0131068,0.00838392,0.0236369,-0.00139947,-0.226729,0.45162,-0.223168,-3.54361e-06,3.5294e-05,-2.13592e-05,0.446995,-0.20286322291188652,-3.5436037214564564e-06,3.529462284057594e-05,0.57085491028165,-2.135897189392555e-05,-0.2000195587095388
582,0.5719,0.0107973,900.918,0.0130809,0.00841383,0.023612,-0.00137758,-0.227049,0.452257,-0.223483,-3.52222e-06,3.53429e-05,-2.13575e-05,0.447629,-0.20311826587150483,-3.5222137969581624e-06,3.534352456768808e-05,0.5718558636292945,-2.1357271930200206e-05,-0.20027151286368272
583,0.5729,0.0107755,901.157,0.0130551,0.00844369,0.0235871,-0.00135573,-0.227369,0.452893,-0.223799,-3.50077e-06,3.53917e-05,-2.13557e-05,0.448264,-0.20337322723043283,-3.5007638723438816e-06,3.539232629368172e-05,0.5728558819306739,-2.1355471968687034e-05,-0.20052418714097942
584,0.5739,0.0107537,901.396,0.0130294,0.0084735,0.0235623,-0.00133393,-0.227689,0.453528,-0.224114,-3.47927e-06,3.54404e-05,-2.13539e-05,0.448898,-0.20362810701477863,-3.479263947392397e-06,3.544102801833482e-05,0.573854962590238,-2.135367200706284e-05,-0.20077598236220062
585,0.5749,0.010732,901.634,0.0130037,0.00850326,0.0235375,-0.00131218,-0.228009,0.454164,-0.224429,-3.45771e-06,3.5489e-05,-2.1352e-05,0.449531,-0.2038829052506419,-3.457704022102881e-06,3.5489629742091466e-05,0.5748562527229562,-2.135177204765082e-05,-0.201027698280418
586,0.5759,0.0107104,901.872,0.0129781,0.00853296,0.0235128,-0.00129048,-0.228329,0.454798,-0.224744,-3.43609e-06,3.55375e-05,-2.135e-05,0.450165,-0.2041376219641139,-3.4360840966973782e-06,3.553813146450757e-05,0.5758550281655426,-2.1349772090339947e-05,-0.20127933492060812
587,0.5769,0.0106888,902.109,0.0129526,0.00856262,0.0234882,-0.00126882,-0.228648,0.455433,-0.225058,-3.41442e-06,3.55859e-05,-2.1348e-05,0.450797,-0.20439146157313715,-3.4144141708436493e-06,3.5586533185583136e-05,0.5768560138877592,-2.1347772133029075e-05,-0.20153009383823273
588,0.5779,0.0106673,902.346,0.0129272,0.00859222,0.0234636,-0.00124722,-0.228967,0.456067,-0.225373,-3.3927e-06,3.56342e-05,-2.1346e-05,0.45143,-0.20464522022023923,-3.3926942447637387e-06,3.56348349055402e-05,0.5778560575809171,-2.1345772175718203e-05,-0.2017815722487446
589,0.5789,0.0106458,902.582,0.0129018,0.00862177,0.023439,-0.00122566,-0.229286,0.4567,-0.225687,-3.37092e-06,3.56824e-05,-2.13438e-05,0.452062,-0.20489889793124283,-3.370914318456819e-06,3.568303662437877e-05,0.5788551566468594,-2.1343572222720653e-05,-0.2020321734886048
590,0.5799,0.0106244,902.818,0.0128765,0.00865127,0.0234145,-0.00120415,-0.229605,0.457333,-0.226001,-3.34908e-06,3.57305e-05,-2.13417e-05,0.452693,-0.2051524947319625,-3.349074391811868e-06,3.57311383418768e-05,0.5798548883427168,-2.134147226751093e-05,-0.20228269605202853
591,0.5809,0.0106031,903.054,0.0128512,0.00868072,0.0233901,-0.00118269,-0.229923,0.457966,-0.226315,-3.32719e-06,3.57786e-05,-2.13395e-05,0.453324,-0.2054052160538179,-3.3271844649407356e-06,3.577924006181732e-05,0.5808552530690707,-2.133927231451338e-05,-0.20253313996371636
592,0.5819,0.0105818,903.289,0.012826,0.00871012,0.0233657,-0.00116128,-0.230241,0.458599,-0.226629,-3.30525e-06,3.58265e-05,-2.13372e-05,0.453955,-0.2056578570230697,-3.305244537621377e-06,3.5827141776634264e-05,0.5818562512267562,-2.133697236361698e-05,-0.20278350524836097
593,0.5829,0.0105605,903.524,0.0128009,0.00873947,0.0233414,-0.00113992,-0.230559,0.45923,-0.226942,-3.28325e-06,3.58744e-05,-2.13348e-05,0.454586,-0.20591041766526585,-3.2832446101860313e-06,3.58750434938937e-05,0.5828547175042618,-2.133457241482173e-05,-0.2030329949640408
594,0.5839,0.0105394,903.758,0.0127759,0.00876877,0.0233171,-0.00111861,-0.230877,0.459862,-0.227255,-3.2612e-06,3.59221e-05,-2.13325e-05,0.455216,-0.20616289800594656,-3.2611946823024596e-06,3.5922745206251605e-05,0.5838553978674113,-2.1332272463814306e-05,-0.20328240660165964
595,0.5849,0.0105183,903.992,0.0127509,0.00879802,0.0232928,-0.00109734,-0.231195,0.460493,-0.227568,-3.23909e-06,3.59698e-05,-2.133e-05,0.455845,-0.2064152980706434,-3.239084754191879e-06,3.5970446921052e-05,0.5848551260045216,-2.1329772517120205e-05,-0.2035317401856518
596,0.5859,0.0104972,904.226,0.012726,0.00882722,0.0232687,-0.00107613,-0.231512,0.461124,-0.227881,-3.21693e-06,3.60173e-05,-2.13275e-05,0.456474,-0.2066668245521014,-3.216924825633072e-06,3.6017948630728824e-05,0.5858554851691551,-2.1327272570537126e-05,-0.2037809957404444
597,0.5869,0.0104762,904.459,0.0127011,0.00885636,0.0232445,-0.00105496,-0.23183,0.461754,-0.228194,-3.19472e-06,3.60648e-05,-2.1325e-05,0.457103,-0.2069190643936334,-3.194714896848083e-06,3.606545034262609e-05,0.5868548889039327,-2.1324772623843025e-05,-0.2040301732904568
598,0.5879,0.0104553,904.692,0.0126763,0.00888546,0.0232204,-0.00103384,-0.232147,0.462384,-0.228506,-3.17246e-06,3.61122e-05,-2.13224e-05,0.457732,-0.20717043120647582,-3.1724549677258906e-06,3.6112852053404865e-05,0.5878549224614369,-2.1322172679250073e-05,-0.2042784771389755
599,0.5889,0.0104344,904.924,0.0126516,0.00891452,0.0231964,-0.00101277,-0.232464,0.463014,-0.228819,-3.15014e-06,3.61595e-05,-2.13197e-05,0.45836,-0.20742171834866696,-3.1501350382656668e-06,3.616015376262105e-05,0.5888555862385803,-2.131947273675827e-05,-0.20452749900167655
600,0.5899,0.0104135,905.156,0.012627,0.00894352,0.0231724,-0.000991747,-0.23278,0.463643,-0.229131,-3.12776e-06,3.62067e-05,-2.1317e-05,0.458987,-0.2076721335179883,-3.127755108578434e-06,3.6207355470496694e-05,0.5898552907764412,-2.1316772794377492e-05,-0.20477564770877665
601,0.5909,0.0103928,905.388,0.0126024,0.00897247,0.0231485,-0.000970774,-0.233097,0.464272,-0.229442,-3.10534e-06,3.62539e-05,-2.13143e-05,0.459614,-0.2079232616457518,-3.105335178443802e-06,3.6254557180592784e-05,0.5908556243262599,-2.131407285188569e-05,-0.20502292402887845
602,0.5919,0.0103721,905.619,0.0125779,0.00900137,0.0231246,-0.00094985,-0.233413,0.4649,-0.229754,-3.08286e-06,3.63009e-05,-2.13115e-05,0.460241,-0.2081735183524297,-3.082855247971139e-06,3.63015588855653e-05,0.5918549954280181,-2.131127291160606e-05,-0.205270918187481
603,0.5929,0.0103514,905.85,0.0125534,0.00903023,0.0231008,-0.000928976,-0.233729,0.465528,-0.230066,-3.06033e-06,3.63478e-05,-2.13086e-05,0.460868,-0.20842369599048172,-3.060325317161272e-06,3.6348460589197273e-05,0.5928549943319374,-2.130837297342758e-05,-0.20551883498397505
604,0.5939,0.0103308,906.08,0.012529,0.00905904,0.023077,-0.000908149,-0.234045,0.466156,-0.230377,-3.03775e-06,3.63947e-05,-2.13057e-05,0.461494,-0.20867379458488966,-3.037745386014201e-06,3.6395362295049694e-05,0.5938556214324016,-2.130547303513808e-05,-0.2057658802087714
605,0.5949,0.0103103,906.31,0.0125047,0.00908779,0.0230532,-0.000887372,-0.234361,0.466783,-0.230688,-3.01512e-06,3.64415e-05,-2.13027e-05,0.462119,-0.20892381416062733,-3.0151154545299264e-06,3.644216399956157e-05,0.5948552822679618,-2.1302473099060748e-05,-0.2060128486144488
606,0.5959,0.0102898,906.54,0.0124804,0.00911651,0.0230296,-0.000866644,-0.234676,0.46741,-0.230999,-2.99243e-06,3.64881e-05,-2.12997e-05,0.462745,-0.20917296391602014,-2.99242552270762e-06,3.648876569872783e-05,0.5958555700874051,-2.1299473162983418e-05,-0.20625974022489435
607,0.5969,0.0102693,906.769,0.0124562,0.00914517,0.0230059,-0.000845965,-0.234991,0.468036,-0.23131,-2.96969e-06,3.65347e-05,-2.12967e-05,0.46337,-0.20942203520159963,-2.969685590437088e-06,3.653536740033658e-05,0.5968548884282865,-2.1296473226906087e-05,-0.20650655506398752
608,0.5979,0.0102489,906.998,0.0124321,0.00917378,0.0229823,-0.000825335,-0.235307,0.468662,-0.23162,-2.9469e-06,3.65812e-05,-2.12936e-05,0.463994,-0.20967181837065663,-2.9468956579403738e-06,3.65818691001607e-05,0.5978548325382946,-2.1293373292929907e-05,-0.2067524999084972
609,0.5989,0.0102286,907.226,0.012408,0.00920235,0.0229588,-0.000804753,-0.235621,0.469288,-0.23193,-2.92406e-06,3.66276e-05,-2.12904e-05,0.464618,-0.20991994246216716,-2.9240557249954335e-06,3.662827079864428e-05,0.5988554028092834,-2.1290173361054876e-05,-0.20699836852192155
610,0.5999,0.0102083,907.454,0.012384,0.00923087,0.0229353,-0.000784221,-0.235936,0.469913,-0.23224,-2.90117e-06,3.6674e-05,-2.12872e-05,0.465242,-0.21016877848656024,-2.901165791602267e-06,3.6674672499348304e-05,0.5998549997775529,-2.1286973429179845e-05,-0.20724416092788844
611,0.6009,0.0101881,907.682,0.01236,0.00925935,0.0229119,-0.000763738,-0.236251,0.470538,-0.23255,-2.87823e-06,3.67202e-05,-2.12839e-05,0.465865,-0.21041753613994962,-2.8782258578718967e-06,3.672087419470671e-05,0.6008552216892018,-2.1283673499405964e-05,-0.20748987715001854
612,0.6019,0.010168,907.909,0.0123362,0.00928777,0.0228885,-0.000743304,-0.236565,0.471163,-0.23286,-2.85523e-06,3.67664e-05,-2.12806e-05,0.466488,-0.21066542611283923,-2.855225923803495e-06,3.676707589228556e-05,0.6018560689349421,-2.1280373569632083e-05,-0.2077355172119253
613,0.6029,0.0101479,908.136,0.0123123,0.00931615,0.0228651,-0.000722919,-0.236879,0.471787,-0.23317,-2.83219e-06,3.68124e-05,-2.12772e-05,0.467111,-0.21091323826049646,-2.8321859893987167e-06,3.681307758474084e-05,0.6028559390489894,-2.127697364195935e-05,-0.20798108113721459
614,0.6039,0.0101278,908.363,0.0122886,0.00934449,0.0228418,-0.000702583,-0.237193,0.47241,-0.233479,-2.8091e-06,3.68584e-05,-2.12738e-05,0.467733,-0.21116097260735478,-2.80909605443469e-06,3.685907927919452e-05,0.6038548294210597,-2.127357371428662e-05,-0.20822577717565827
615,0.6049,0.0101078,908.589,0.0122649,0.00937277,0.0228186,-0.000682297,-0.237507,0.473034,-0.233788,-2.78595e-06,3.69043e-05,-2.12703e-05,0.468355,-0.21140862917783965,-2.785946119243654e-06,3.690498097208561e-05,0.6048559471508659,-2.127007378882606e-05,-0.20847039761470676
616,0.6059,0.0100878,908.815,0.0122412,0.00940102,0.0227954,-0.000662059,-0.23782,0.473657,-0.234097,-2.76276e-06,3.69501e-05,-2.12668e-05,0.468976,-0.21165541965218293,-2.7627561836052195e-06,3.695078266341412e-05,0.6058560839161946,-2.126657386325448e-05,-0.20871494247771671
617,0.6069,0.010068,909.04,0.0122177,0.00942921,0.0227722,-0.000641871,-0.238134,0.474279,-0.234406,-2.73951e-06,3.69958e-05,-2.12632e-05,0.469597,-0.21190292099066843,-2.739506247517731e-06,3.699648435295799e-05,0.6068552371048193,-2.1262973939784047e-05,-0.20895941178803745
618,0.6079,0.0100481,909.265,0.0121942,0.00945736,0.0227491,-0.000621732,-0.238447,0.474901,-0.234714,-2.71622e-06,3.70414e-05,-2.12596e-05,0.470218,-0.21214955677588443,-2.7162163110938664e-06,3.7042086041161326e-05,0.6078550119600452,-2.1259374016313615e-05,-0.20920301477242143
619,0.6089,0.0100283,909.489,0.0121707,0.00948546,0.0227261,-0.000601643,-0.23876,0.475523,-0.235023,-2.69287e-06,3.7087e-05,-2.1256e-05,0.470838,-0.21239611537617975,-2.692866374220948e-06,3.708768773136306e-05,0.6088554088686697,-2.1255774092843183e-05,-0.2094473332917015
620,0.6099,0.0100086,909.714,0.0121473,0.00951352,0.0227031,-0.000581603,-0.239072,0.476144,-0.235331,-2.66948e-06,3.71325e-05,-2.12522e-05,0.471458,-0.21264180945791256,-2.6694764369006307e-06,3.7133189419780166e-05,0.6098548183621073,-2.125197417357505e-05,-0.20969078601940305
621,0.6109,0.00998891,909.937,0.012124,0.00954153,0.0226801,-0.000561612,-0.239385,0.476765,-0.235639,-2.64603e-06,3.71778e-05,-2.12485e-05,0.472077,-0.21288821400722857,-2.646026499242282e-06,3.7178491103073696e-05,0.6108548486815866,-2.1248274252205768e-05,-0.20993416377521068
622,0.6119,0.00996928,910.161,0.0121007,0.0095695,0.0226572,-0.00054167,-0.239697,0.477386,-0.235947,-2.62254e-06,3.72231e-05,-2.12447e-05,0.472696,-0.21313375457813744,-2.6225365611365348e-06,3.7223792788143584e-05,0.6118555002127606,-2.1244474332937635e-05,-0.21017746658221226
623,0.6129,0.0099497,910.384,0.0120775,0.00959742,0.0226343,-0.000521778,-0.240009,0.478006,-0.236255,-2.599e-06,3.72683e-05,-2.12408e-05,0.473315,-0.21337921855233788,-2.598996622582561e-06,3.7268994471650885e-05,0.6128551604855546,-2.1240574415770652e-05,-0.21042069446348843
624,0.6139,0.00993017,910.607,0.0120544,0.0096253,0.0226115,-0.000501936,-0.240321,0.478626,-0.236562,-2.57541e-06,3.73135e-05,-2.12369e-05,0.473933,-0.21362460595372434,-2.5754066835803613e-06,3.731419615737863e-05,0.6138554407398922,-2.123667449860367e-05,-0.21066305810556551
625,0.6149,0.0099107,910.829,0.0120313,0.00965313,0.0225887,-0.000482142,-0.240633,0.479245,-0.236869,-2.55177e-06,3.73585e-05,-2.12329e-05,0.474551,-0.21386991680618384,-2.5517667442409575e-06,3.7359197837538716e-05,0.614854726504747,-2.1232674583537836e-05,-0.2109053473534246
626,0.6159,0.00989128,911.051,0.0120083,0.00968092,0.022566,-0.000462399,-0.240945,0.479865,-0.237176,-2.52808e-06,3.74035e-05,-2.12289e-05,0.475169,-0.21411515113359592,-2.5280768044533275e-06,3.74041995196972e-05,0.6158562468744126,-2.1228674668472003e-05,-0.21114756222990116
627,0.6169,0.00987191,911.273,0.0119853,0.00970866,0.0225433,-0.000442704,-0.241256,0.480483,-0.237483,-2.50435e-06,3.74483e-05,-2.12249e-05,0.475786,-0.21435952331974872,-2.5043468641072764e-06,3.744900119628802e-05,0.6168551546656964,-2.122467475340617e-05,-0.21138970275782376
628,0.6179,0.00985259,911.494,0.0119624,0.00973636,0.0225207,-0.00042306,-0.241567,0.481102,-0.23779,-2.48056e-06,3.74931e-05,-2.12208e-05,0.476403,-0.21460381951796836,-2.480556923423194e-06,3.749380287509929e-05,0.6178562978282767,-2.1220574840441486e-05,-0.2116317689600139
629,0.6189,0.00983332,911.715,0.0119395,0.00976402,0.0224981,-0.000403465,-0.241878,0.481719,-0.238096,-2.45673e-06,3.75379e-05,-2.12166e-05,0.477019,-0.2148480397518835,-2.4567269822917126e-06,3.7538604555686916e-05,0.6188548231774296,-2.1216374929577952e-05,-0.21187297273265282
630,0.6199,0.00981411,911.935,0.0119167,0.00979163,0.0224755,-0.000383919,-0.242189,0.482337,-0.238403,-2.43285e-06,3.75825e-05,-2.12124e-05,0.477635,-0.2150921840451152,-2.4328470406009828e-06,3.758320623092892e-05,0.6198555846616007,-2.1212175018603396e-05,-0.21211489059373212
631,0.6209,0.00979494,912.155,0.011894,0.00981919,0.022453,-0.000364423,-0.2425,0.482954,-0.238709,-2.40892e-06,3.7627e-05,-2.12082e-05,0.478251,-0.21533625242127752,-2.408917098573049e-06,3.76277079043863e-05,0.6208553439513613,-2.1207975107739863e-05,-0.21235594655376766
632,0.6219,0.00977583,912.375,0.0118713,0.00984672,0.0224306,-0.000344977,-0.24281,0.483571,-0.239015,-2.38495e-06,3.76715e-05,-2.12039e-05,0.478866,-0.2155794604838296,-2.384947155986694e-06,3.7672209579842075e-05,0.6218557202829416,-2.1203675198866456e-05,-0.2125969287619639
633,0.6229,0.00975676,912.595,0.0118487,0.0098742,0.0224082,-0.000325581,-0.24312,0.484187,-0.23932,-2.36092e-06,3.77159e-05,-2.11996e-05,0.479481,-0.2158225931635671,-2.360917213062308e-06,3.771661125351322e-05,0.6228550911812709,-2.1199375290104072e-05,-0.21283705007832932
634,0.6239,0.00973775,912.814,0.0118262,0.00990164,0.0223858,-0.000306234,-0.24343,0.484803,-0.239626,-2.33685e-06,3.77602e-05,-2.11952e-05,0.480095,-0.2160656504838553,-2.3368472695795006e-06,3.776091292539974e-05,0.6238550778817216,-2.1194975383331816e-05,-0.21307788509136916
635,0.6249,0.00971879,913.032,0.0118037,0.00992903,0.0223635,-0.000286937,-0.24374,0.485419,-0.239931,-2.31274e-06,3.78044e-05,-2.11908e-05,0.48071,-0.21630863246805188,-2.3127373256492945e-06,3.7805114595279576e-05,0.624855680763744,-2.119057547655956e-05,-0.21331785973842232
636,0.6259,0.00969987,913.251,0.0117812,0.00995638,0.0223412,-0.00026769,-0.24405,0.486034,-0.240236,-2.28857e-06,3.78485e-05,-2.11863e-05,0.481323,-0.21655153913950742,-2.2885673812700347e-06,3.784921626359683e-05,0.6258552743509358,-2.1186075571888452e-05,-0.21355776120436876
637,0.6269,0.00968101,913.469,0.0117589,0.00998369,0.022319,-0.000248492,-0.244359,0.486649,-0.240541,-2.26436e-06,3.78926e-05,-2.11818e-05,0.481937,-0.2167935873155442,-2.2643574363323538e-06,3.789331793369044e-05,0.6268554828772581,-2.1181575667217345e-05,-0.2137975895115255
638,0.6279,0.0096622,913.686,0.0117365,0.010011,0.0222968,-0.000229344,-0.244669,0.487264,-0.240846,-2.2401e-06,3.79365e-05,-2.11772e-05,0.48255,-0.2170363436742967,-2.2400974909464466e-06,3.793721959821639e-05,0.6278563067210148,-2.1176975764647388e-05,-0.21403734468220226
639,0.6289,0.00964343,913.903,0.0117143,0.0100382,0.0222747,-0.000210247,-0.244978,0.487878,-0.241151,-2.2158e-06,3.79804e-05,-2.11726e-05,0.483162,-0.21727824206887458,-2.2157975451131406e-06,3.798112126451869e-05,0.6288561174038108,-2.117237586207743e-05,-0.21427702673870264
640,0.6299,0.00962472,914.12,0.0116921,0.0100654,0.0222526,-0.000191199,-0.245287,0.488491,-0.241455,-2.19145e-06,3.80243e-05,-2.1168e-05,0.483775,-0.21752006572839577,-2.191447598720586e-06,3.80250229328194e-05,0.6298549123031396,-2.1167775959507473e-05,-0.21451585021956565
641,0.6309,0.00960605,914.337,0.0116699,0.0100925,0.0222305,-0.000172202,-0.245595,0.489105,-0.241759,-2.16705e-06,3.8068e-05,-2.11633e-05,0.484386,-0.21776103243737333,-2.1670476519908277e-06,3.806872459555244e-05,0.6308559505065734,-2.1163076058927643e-05,-0.21475460110912503
642,0.6319,0.00958738,914.553,0.0116478,0.0101196,0.0222085,-0.000153241,-0.245904,0.489718,-0.242063,-2.14261e-06,3.81116e-05,-2.11585e-05,0.484998,-0.21800270693771695,-2.142607704591626e-06,3.8112326256278806e-05,0.6318559716794085,-2.1158276160559986e-05,-0.21499327942944502
643,0.6329,0.00956885,914.769,0.0116258,0.0101467,0.0221866,-0.00013435,-0.246212,0.49033,-0.242367,-2.11812e-06,3.81552e-05,-2.11537e-05,0.485609,-0.21824352501609234,-2.1181177567441978e-06,3.8155927919003574e-05,0.6328549731973601,-2.1153476262081305e-05,-0.2152318852025833
644,0.6339,0.00955034,914.984,0.0116038,0.0101737,0.0221646,-0.000115508,-0.24652,0.490943,-0.242671,-2.09359e-06,3.81987e-05,-2.11489e-05,0.48622,-0.2184842689339208,-2.093587808449371e-06,3.8199429579721667e-05,0.6338562201467668,-2.1148676363602625e-05,-0.215470418450591
645,0.6349,0.00953188,915.2,0.0115819,0.0102006,0.0221428,-9.67092e-05,-0.246828,0.491554,-0.242975,-2.06901e-06,3.82421e-05,-2.1144e-05,0.48683,-0.21872493871404053,-2.0690078595952954e-06,3.8242831238433084e-05,0.6348548113358186,-2.1143776467225095e-05,-0.2157088791955124
646,0.6359,0.00951345,915.414,0.01156,0.0102276,0.0221209,-7.79627e-05,-0.247136,0.492166,-0.243278,-2.04438e-06,3.82855e-05,-2.11391e-05,0.48744,-0.21896553437928212,-2.0443779102929938e-06,3.82862328991429e-05,0.635855648705353,-2.1138876570847565e-05,-0.21594648340626033
647,0.6369,0.00949509,915.629,0.0115382,0.0102545,0.0220992,-5.92634e-05,-0.247444,0.492777,-0.243581,-2.01971e-06,3.83287e-05,-2.11341e-05,0.48805,-0.21920605595246967,-2.019707960432271e-06,3.832943455406301e-05,0.6368554619185443,-2.113387667646016e-05,-0.2161840156338385
648,0.6379,0.00947676,915.843,0.0115164,0.0102813,0.0220774,-4.0617e-05,-0.247751,0.493388,-0.243884,-1.99499e-06,3.83719e-05,-2.11291e-05,0.488659,-0.21944572290253306,-1.9949880100122996e-06,3.837263621075948e-05,0.6378558862042725,-2.112887678218378e-05,-0.21642147590005434
649,0.6389,0.00945848,916.057,0.0114947,0.0103081,0.0220557,-2.20186e-05,-0.248058,0.493998,-0.244187,-1.97023e-06,3.8415e-05,-2.11241e-05,0.489268,-0.21968531628613586,-1.9702280591449295e-06,3.841573786567132e-05,0.6388552830799146,-2.1123876887796378e-05,-0.21665886422670888
650,0.6399,0.00944025,916.27,0.0114731,0.0103349,0.022034,-3.47207e-06,-0.248365,0.494608,-0.244489,-1.94542e-06,3.8458e-05,-2.1119e-05,0.489877,-0.21992483612585934,-1.945418107718311e-06,3.8458739518354434e-05,0.6398552897736263,-2.1118776995510125e-05,-0.21689539753138576
651,0.6409,0.00942207,916.483,0.0114515,0.0103616,0.0220124,1.50255e-05,-0.248672,0.495218,-0.244792,-1.92057e-06,3.8501e-05,-2.11138e-05,0.490485,-0.22016428244427821,-1.920568155733271e-06,3.850174117303595e-05,0.6408559066575104,-2.111357710532502e-05,-0.21713264228153895
652,0.6419,0.00940393,916.696,0.01143,0.0103883,0.0219909,3.34719e-05,-0.248979,0.495827,-0.245094,-1.89568e-06,3.85438e-05,-2.11087e-05,0.491093,-0.22040365526395989,-1.89567820318981e-06,3.854454282170572e-05,0.6418554922475832,-2.1108477212927745e-05,-0.21736903252684625
653,0.6429,0.00938584,916.908,0.0114085,0.010415,0.0219693,5.18687e-05,-0.249285,0.496436,-0.245396,-1.87074e-06,3.85866e-05,-2.11034e-05,0.4917,-0.22064217525003016,-1.870738250198123e-06,3.8587344472373886e-05,0.6428556867706814,-2.110317732484379e-05,-0.21760535139307824
654,0.6439,0.0093678,917.12,0.0113871,0.0104416,0.0219478,7.02146e-05,-0.249592,0.497044,-0.245698,-1.84575e-06,3.86293e-05,-2.10982e-05,0.492307,-0.2208814013791387,-1.8457482966471872e-06,3.863004612103538e-05,0.6438548467420897,-2.1097977434547666e-05,-0.21784159890178822
655,0.6449,0.00934981,917.332,0.0113657,0.0104681,0.0219264,8.85107e-05,-0.249898,0.497653,-0.245999,-1.82072e-06,3.8672e-05,-2.10928e-05,0.492914,-0.22111977519726245,-1.8207183425378304e-06,3.8672747771473226e-05,0.6448562592429119,-2.109257754845384e-05,-0.21807699315190687
656,0.6459,0.00933186,917.544,0.0113444,0.0104947,0.021905,0.000106756,-0.250203,0.49826,-0.246301,-1.79565e-06,3.87145e-05,-2.10875e-05,0.49352,-0.22135729744184363,-1.7956483878700524e-06,3.871524941589932e-05,0.645854990076415,-2.1087277660258863e-05,-0.21831309824631118
657,0.6469,0.00931396,917.755,0.0113231,0.0105212,0.0218836,0.000124951,-0.250509,0.498868,-0.246602,-1.77053e-06,3.8757e-05,-2.10821e-05,0.494126,-0.22159552565805052,-1.770528432643026e-06,3.875775106232382e-05,0.646855974178713,-2.1081877774054014e-05,-0.21854835059648425
658,0.6479,0.00929611,917.965,0.0113019,0.0105476,0.0218623,0.000143096,-0.250815,0.499475,-0.246903,-1.74537e-06,3.87994e-05,-2.10767e-05,0.494732,-0.2218336809875754,-1.7453684768575783e-06,3.88001527065196e-05,0.6478559192076534,-2.1076477887960188e-05,-0.21878353214635582
659,0.6489,0.0092783,918.176,0.0112807,0.010574,0.021841,0.00016119,-0.25112,0.500081,-0.247204,-1.72017e-06,3.88418e-05,-2.10712e-05,0.495337,-0.22207098552409277,-1.7201685205137096e-06,3.884255435249173e-05,0.6488548225318309,-2.107097800385649e-05,-0.2190186429172336
660,0.6499,0.00926054,918.386,0.0112596,0.0106004,0.0218198,0.000179234,-0.251425,0.500688,-0.247505,-1.69492e-06,3.8884e-05,-2.10657e-05,0.495942,-0.22230821769376297,-1.6949185636105923e-06,3.8884755992452114e-05,0.6498559812300331,-2.106547811975279e-05,-0.2192536829304189
661,0.6509,0.00924283,918.595,0.0112386,0.0106267,0.0217986,0.000197227,-0.25173,0.501294,-0.247805,-1.66963e-06,3.89262e-05,-2.10601e-05,0.496546,-0.22254537751865466,-1.669628606149054e-06,3.89269576344109e-05,0.650856096959118,-2.1059878237639218e-05,-0.21948787169546868
662,0.6519,0.00922516,918.805,0.0112176,0.010653,0.0217775,0.000215169,-0.252035,0.501899,-0.248106,-1.6443e-06,3.89683e-05,-2.10545e-05,0.49715,-0.22278246502082943,-1.6442986481290944e-06,3.896905927414096e-05,0.6518551670860178,-2.1054278355525646e-05,-0.21972277049204592
663,0.6529,0.00920753,919.014,0.0111967,0.0106793,0.0217564,0.000233061,-0.25234,0.502504,-0.248406,-1.61892e-06,3.90103e-05,-2.10488e-05,0.497754,-0.22301948022234253,-1.6189186895498864e-06,3.9011060911642303e-05,0.6528548418332236,-2.1048578475513224e-05,-0.21995681855193394
664,0.6539,0.00918995,919.222,0.0111758,0.0107055,0.0217353,0.000250903,-0.252644,0.503109,-0.248706,-1.5935e-06,3.90523e-05,-2.10432e-05,0.498357,-0.22325564640127682,-1.5934987304122572e-06,3.9053062550920004e-05,0.6538551215666415,-2.1042978593399653e-05,-0.22019079640793515
665,0.6549,0.00917242,919.431,0.0111549,0.0107317,0.0217143,0.000268693,-0.252948,0.503714,-0.249006,-1.56804e-06,3.90941e-05,-2.10374e-05,0.49896,-0.2234917407966046,-1.5680387706051846e-06,3.909486418418595e-05,0.6548560066523987,-2.103717871548838e-05,-0.22042470408110748
666,0.6559,0.00915493,919.639,0.0111341,0.0107578,0.0216933,0.000286433,-0.253252,0.504318,-0.249305,-1.54253e-06,3.91359e-05,-2.10317e-05,0.499563,-0.22372776343014444,-1.5425288103498858e-06,3.9136665819228256e-05,0.6558558416001747,-2.1031478835364936e-05,-0.2206577622506546
667,0.6569,0.00913749,919.847,0.0111134,0.0107839,0.0216723,0.000304123,-0.253556,0.504921,-0.249605,-1.51698e-06,3.91777e-05,-2.10259e-05,0.500165,-0.22396371432370865,-1.5169788494251435e-06,3.917846745604692e-05,0.6568546237752215,-2.1025678957342642e-05,-0.22089152985508542
668,0.6579,0.00912009,920.054,0.0110927,0.01081,0.0216514,0.000321761,-0.25386,0.505525,-0.249904,-1.49139e-06,3.92193e-05,-2.102e-05,0.500767,-0.224199593499103,-1.4913888878309578e-06,3.9220069086853826e-05,0.6578556662523769,-2.1019779081310475e-05,-0.22112444846459145
669,0.6589,0.00910274,920.261,0.0110721,0.010836,0.0216306,0.000339349,-0.254163,0.506128,-0.250203,-1.46576e-06,3.92609e-05,-2.10141e-05,0.501369,-0.22443462541313963,-1.4657589257893733e-06,3.926167071921505e-05,0.6588556546853392,-2.101387920538933e-05,-0.22135729744184363
670,0.6599,0.00908543,920.468,0.0110515,0.010862,0.0216097,0.000356886,-0.254467,0.506731,-0.250502,-1.44008e-06,3.93024e-05,-2.10082e-05,0.50197,-0.22467036145332042,-1.440078963077518e-06,3.930317234934755e-05,0.6598562462931656,-2.1007979329357163e-05,-0.2215900768076592
671,0.6609,0.00906817,920.674,0.011031,0.010888,0.021589,0.000374372,-0.25477,0.507333,-0.250801,-1.41436e-06,3.93438e-05,-2.10022e-05,0.502571,-0.2249052507462752,-1.4143589998072414e-06,3.9344573977473374e-05,0.660855780583069,-2.1001979455315123e-05,-0.2218227865828486
672,0.6619,0.00905095,920.88,0.0110105,0.0109139,0.0215682,0.000391807,-0.255073,0.507935,-0.2511,-1.38861e-06,3.93852e-05,-2.09962e-05,0.503172,-0.22514006887855542,-1.388609035868349e-06,3.938597560715351e-05,0.661855916773769,-2.0995979581384105e-05,-0.22205542678821644
673,0.6629,0.00903377,921.086,0.0109901,0.0109398,0.0215475,0.000409191,-0.255376,0.508536,-0.251398,-1.3628e-06,3.94265e-05,-2.09902e-05,0.503772,-0.2253748158717198,-1.3627990713693805e-06,3.942727723460493e-05,0.6628549923718949,-2.0989979707342066e-05,-0.22228721973216947
674,0.6639,0.00901664,921.292,0.0109697,0.0109656,0.0215269,0.000426525,-0.255678,0.509138,-0.251696,-1.33696e-06,3.94677e-05,-2.09841e-05,0.504371,-0.22560871735642463,-1.3369591063128183e-06,3.946847885982763e-05,0.6638563324504256,-2.0983879835290153e-05,-0.22251894361211633
675,0.6649,0.00899956,921.497,0.0109494,0.0109914,0.0215062,0.000443807,-0.25598,0.509738,-0.251994,-1.31108e-06,3.95088e-05,-2.09779e-05,0.504971,-0.22584254821354632,-1.3110791405868127e-06,3.9509580482821605e-05,0.6648549458039437,-2.097767996533939e-05,-0.22275059844863498
676,0.6659,0.00898251,921.702,0.0109292,0.0110172,0.0214857,0.000461038,-0.256283,0.510339,-0.252292,-1.28515e-06,3.95499e-05,-2.09718e-05,0.50557,-0.22607708238771596,-1.2851491741905363e-06,3.955068210759194e-05,0.6658558243602513,-2.097158009328748e-05,-0.22298218426229732
677,0.6669,0.00896551,921.906,0.0109089,0.0110429,0.0214651,0.000478219,-0.256585,0.510939,-0.25259,-1.25918e-06,3.95909e-05,-2.09656e-05,0.506169,-0.2263107718199544,-1.2591792072358388e-06,3.959168373013355e-05,0.6668556377688957,-2.0965380223336716e-05,-0.2232137010736689
678,0.6679,0.00894856,922.11,0.0108888,0.0110686,0.0214446,0.000495348,-0.256887,0.511539,-0.252887,-1.23318e-06,3.96318e-05,-2.09593e-05,0.506767,-0.22654439068864007,-1.2331792396125252e-06,3.96325853502244e-05,0.6678560512455876,-2.095908035537608e-05,-0.22344437234807013
679,0.6689,0.00893165,922.314,0.0108687,0.0110943,0.0214241,0.000512426,-0.257188,0.512138,-0.253185,-1.20713e-06,3.96727e-05,-2.0953e-05,0.507365,-0.22677716579263218,-1.207129271429963e-06,3.9673486971869565e-05,0.6688553962942454,-2.0952780487415446e-05,-0.2236757514479123
680,0.6699,0.00891478,922.518,0.0108486,0.0111199,0.0214037,0.000529453,-0.25749,0.512737,-0.253482,-1.18104e-06,3.97134e-05,-2.09467e-05,0.507963,-0.2270106438316044,-1.1810393025779575e-06,3.9714188587502974e-05,0.6698553401299059,-2.094648061945481e-05,-0.22390628551372882
681,0.6709,0.00889795,922.721,0.0108286,0.0111455,0.0213833,0.000546429,-0.257791,0.513336,-0.253779,-1.1549e-06,3.97541e-05,-2.09404e-05,0.50856,-0.22724327861451987,-1.1548993330556812e-06,3.9754890204690696e-05,0.6708558831113505,-2.0940180751383153e-05,-0.22413675112109455
682,0.6719,0.00888117,922.924,0.0108086,0.011171,0.021363,0.000563354,-0.258092,0.513934,-0.254075,-1.12873e-06,3.97948e-05,-2.0934e-05,0.509157,-0.227475843384903,-1.128729362975811e-06,3.9795591823654775e-05,0.6718553537413847,-2.0933780885301623e-05,-0.2243663726570988
683,0.6729,0.00886443,923.126,0.0107887,0.0111966,0.0213427,0.000580227,-0.258393,0.514532,-0.254372,-1.10252e-06,3.98353e-05,-2.09275e-05,0.509753,-0.22770833816382463,-1.1025193922264975e-06,3.983609343616301e-05,0.672855422233599,-2.0927281021432265e-05,-0.2245967016388728
684,0.6739,0.00884773,923.329,0.0107688,0.011222,0.0213224,0.000597049,-0.258694,0.51513,-0.254669,-1.07627e-06,3.98758e-05,-2.09211e-05,0.51035,-0.22794076297234878,-1.0762694208077406e-06,3.987659505022556e-05,0.6738560889456213,-2.0920881155350735e-05,-0.22482696222309662
685,0.6749,0.00883107,923.531,0.010749,0.0112475,0.0213022,0.00061382,-0.258995,0.515727,-0.254965,-1.04997e-06,3.99162e-05,-2.09146e-05,0.510945,-0.2281731178315335,-1.049969448829735e-06,3.991699666205939e-05,0.6748556793787777,-2.0914381291259332e-05,-0.22505637948684853
686,0.6759,0.00881446,923.732,0.0107292,0.0112729,0.021282,0.00063054,-0.259295,0.516324,-0.255261,-1.02364e-06,3.99566e-05,-2.0908e-05,0.511541,-0.22840463116744725,-1.0236394760720913e-06,3.9957398275669576e-05,0.6758558667455894,-2.090778142926908e-05,-0.2252857288531397
687,0.6769,0.00879789,923.934,0.0107095,0.0112983,0.0212619,0.000647208,-0.259595,0.51692,-0.255557,-9.97268e-07,3.99969e-05,-2.09014e-05,0.512136,-0.22863607505977734,-9.972675026892475e-07,3.999769988660695e-05,0.6768549745467196,-2.0901181567278826e-05,-0.22551501034206467
688,0.6779,0.00878136,924.135,0.0106899,0.0113236,0.0212417,0.000663824,-0.259895,0.517516,-0.255853,-9.70855e-07,4.00371e-05,-2.08948e-05,0.512731,-0.22886744952935367,-9.708545287701043e-07,4.003790149531561e-05,0.6778546779935841,-2.089458170517755e-05,-0.2257442239737124
689,0.6789,0.00876487,924.336,0.0106702,0.0113489,0.0212217,0.00068039,-0.260195,0.518112,-0.256148,-9.44402e-07,4.00772e-05,-2.08882e-05,0.513325,-0.22909875459700002,-9.444015540704953e-07,4.0078003101795545e-05,0.6788549774412935,-2.0887981843076275e-05,-0.22597259574114825
690,0.6799,0.00874843,924.536,0.0106507,0.0113742,0.0212016,0.000696904,-0.260495,0.518708,-0.256443,-9.17909e-07,4.01173e-05,-2.08815e-05,0.513919,-0.22932999028353362,-9.179085787014429e-07,4.011810470960775e-05,0.67985587324517,-2.0881281982965127e-05,-0.22620090014884886
691,0.6809,0.00873202,924.736,0.0106311,0.0113994,0.0211816,0.000713366,-0.260794,0.519303,-0.256739,-8.91376e-07,4.01573e-05,-2.08747e-05,0.514513,-0.2295603861705373,-8.913756027739694e-07,4.015810631519123e-05,0.6808556849042231,-2.087448212495513e-05,-0.22642991078715824
692,0.6819,0.00871566,924.936,0.0106117,0.0114246,0.0211617,0.000729777,-0.261094,0.519898,-0.257034,-8.64804e-07,4.01972e-05,-2.0868e-05,0.515106,-0.2297914833883702,-8.648036260439085e-07,4.019800791832395e-05,0.6818560916282275,-2.086778226484398e-05,-0.2266580803068171
693,0.6829,0.00869934,925.136,0.0105922,0.0114498,0.0211418,0.000746136,-0.261393,0.520492,-0.257329,-8.38193e-07,4.02371e-05,-2.08612e-05,0.515699,-0.23002174130956243,-8.381926487333047e-07,4.0237909523010984e-05,0.6828554109150997,-2.086098240672296e-05,-0.22688618252639503
694,0.6839,0.00868306,925.335,0.0105729,0.011475,0.0211219,0.000762444,-0.261692,0.521086,-0.257623,-8.11543e-07,4.02769e-05,-2.08543e-05,0.516292,-0.23025193039392777,-8.115426707311357e-07,4.027771112524725e-05,0.6838553239739615,-2.0854082550592068e-05,-0.2271134445795735
695,0.6849,0.00866682,925.534,0.0105535,0.0115001,0.021102,0.0007787,-0.261991,0.52168,-0.257918,-7.84853e-07,4.03166e-05,-2.08474e-05,0.516884,-0.23048205066204552,-7.84852691948501e-07,4.031741272503275e-05,0.6848558311576176,-2.0847182694461175e-05,-0.22734141248650297
696,0.6859,0.00865063,925.732,0.0105342,0.0115251,0.0210822,0.000794904,-0.262289,0.522273,-0.258212,-7.58125e-07,4.03562e-05,-2.08405e-05,0.517476,-0.23071133284620604,-7.581247126742241e-07,4.035701432236749e-05,0.6858552469629933,-2.0840282838330282e-05,-0.22756854072174537
697,0.6869,0.00863447,925.931,0.010515,0.0115502,0.0210625,0.000811057,-0.262588,0.522866,-0.258506,-7.31357e-07,4.03958e-05,-2.08336e-05,0.518068,-0.23094131577352395,-7.313567325084591e-07,4.039661592125654e-05,0.6868552555976983,-2.0833382982088366e-05,-0.22779560219110173
698,0.6879,0.00861836,926.129,0.0104958,0.0115752,0.0210427,0.000827157,-0.262886,0.523459,-0.2588,-7.04551e-07,4.04353e-05,-2.08266e-05,0.518659,-0.2311704611170715,-7.045507518510519e-07,4.0436117517694825e-05,0.6878558574133844,-2.082638312783658e-05,-0.22802259691419813
699,0.6889,0.00860228,926.326,0.0104767,0.0116002,0.021023,0.000843207,-0.263184,0.524051,-0.259094,-6.77706e-07,4.04748e-05,-2.08196e-05,0.51925,-0.2313995381854802,-6.777057703910572e-07,4.047561911568742e-05,0.688855363905704,-2.081938327358479e-05,-0.2282495249106553
700,0.6899,0.00858625,926.524,0.0104576,0.0116251,0.0210034,0.000859204,-0.263482,0.524643,-0.259388,-6.50823e-07,4.05141e-05,-2.08125e-05,0.519841,-0.23162854699909297,-6.508227882173756e-07,4.051492070722418e-05,0.6898554622810469,-2.0812283421434152e-05,-0.22847638620008803
701,0.6909,0.00857025,926.721,0.0104385,0.01165,0.0209837,0.000875149,-0.26378,0.525235,-0.259681,-6.23901e-07,4.05535e-05,-2.08055e-05,0.520431,-0.23185748757824676,-6.239008053521289e-07,4.055432230432032e-05,0.690856152889912,-2.0805283567071342e-05,-0.22870240950490017
702,0.6919,0.0085543,926.918,0.0104195,0.0116749,0.0209642,0.000891043,-0.264077,0.525826,-0.259974,-5.9694e-07,4.05927e-05,-2.07983e-05,0.521021,-0.23208559202924828,-5.96939821795317e-07,4.059352389473858e-05,0.691855744226415,-2.079808371691083e-05,-0.22892836659458515
703,0.6929,0.00853839,927.114,0.0104006,0.0116997,0.0209446,0.000906885,-0.264375,0.526417,-0.260268,-5.69942e-07,4.06319e-05,-2.07912e-05,0.52161,-0.23231439642927476,-5.699418376137189e-07,4.06327254869332e-05,0.6928559264960015,-2.079098386453815e-05,-0.229155028333898
704,0.6939,0.00852251,927.311,0.0103817,0.0117245,0.0209251,0.000922674,-0.264672,0.527007,-0.26056,-5.42905e-07,4.0671e-05,-2.0784e-05,0.5222,-0.23254236519849725,-5.429048526295333e-07,4.067182707623296e-05,0.6938550061921629,-2.0783784014155593e-05,-0.22938008220616013
705,0.6949,0.00850668,927.507,0.0103628,0.0117493,0.0209056,0.000938412,-0.264969,0.527597,-0.260853,-5.15831e-07,4.071e-05,-2.07768e-05,0.522788,-0.2327702662710488,-5.158308669095391e-07,4.0710828663304e-05,0.694854675519269,-2.0776584163773038e-05,-0.22960584076682944
706,0.6959,0.00849088,927.702,0.010344,0.0117741,0.0208862,0.000954098,-0.265266,0.528187,-0.261146,-4.88718e-07,4.0749e-05,-2.07695e-05,0.523377,-0.23299809966703222,-4.88717880609002e-07,4.074983025170731e-05,0.6958549348253047,-2.076928431538061e-05,-0.2298315331899301
707,0.6969,0.00847513,927.898,0.0103252,0.0117988,0.0208668,0.000969731,-0.265563,0.528777,-0.261438,-4.61568e-07,4.07879e-05,-2.07622e-05,0.523965,-0.23322586540654455,-4.6156789346163407e-07,4.078873183765985e-05,0.6968557844584606,-2.076198446698818e-05,-0.23005638955161223
708,0.6979,0.00845942,928.093,0.0103065,0.0118235,0.0208474,0.000985313,-0.265859,0.529366,-0.261731,-4.3438e-07,4.08267e-05,-2.07549e-05,0.524553,-0.23345279696285703,-4.3437990571160157e-07,4.082753342116163e-05,0.697855526910756,-2.0754684618595753e-05,-0.23028194998325668
709,0.6989,0.00844374,928.288,0.0102878,0.0118481,0.0208281,0.00100084,-0.266156,0.529955,-0.262023,-4.07155e-07,4.08655e-05,-2.07475e-05,0.52514,-0.23368042767732466,-4.0715491711473817e-07,4.086633500599568e-05,0.6988558583848059,-2.074728477208243e-05,-0.23050667484243537
710,0.6999,0.0084281,928.482,0.0102692,0.0118727,0.0208088,0.00101632,-0.266452,0.530543,-0.262315,-3.79892e-07,4.09042e-05,-2.07401e-05,0.525727,-0.23390722470311642,-3.798919278041879e-07,4.090503658815692e-05,0.6998550793717169,-2.0739884925569108e-05,-0.2307313340915348
711,0.7009,0.00841251,928.676,0.0102506,0.0118973,0.0207895,0.00103175,-0.266748,0.531131,-0.262606,-3.52592e-07,4.09428e-05,-2.07327e-05,0.526314,-0.2341339546069231,-3.5259193786885135e-07,4.094363816786739e-05,0.7008548880733392,-2.0732485079055785e-05,-0.2309551587052533
712,0.7019,0.00839695,928.87,0.0102321,0.0119219,0.0207703,0.00104712,-0.267044,0.531719,-0.262898,-3.25254e-07,4.09814e-05,-2.07253e-05,0.5269,-0.23436061740860992,-3.252539471088056e-07,4.0982239749132177e-05,0.701855284835351,-2.072508523243144e-05,-0.23117968701618263
713,0.7029,0.00838143,929.064,0.0102136,0.0119464,0.0207511,0.00106244,-0.267339,0.532307,-0.263189,-2.97879e-07,4.10199e-05,-2.07178e-05,0.527487,-0.23458644771486636,-2.978789556129513e-07,4.102074132750211e-05,0.7028562700036332,-2.0717585387908244e-05,-0.23140338117818182
714,0.7039,0.00836595,929.257,0.0101951,0.0119709,0.020732,0.00107771,-0.267635,0.532894,-0.26348,-2.70468e-07,4.10584e-05,-2.07102e-05,0.528072,-0.23481297659841416,-2.70467963470189e-07,4.10592429076484e-05,0.7038561400672787,-2.0709985545264153e-05,-0.23162701025465027
715,0.7049,0.0083505,929.45,0.0101767,0.0119954,0.0207129,0.00109292,-0.26793,0.53348,-0.263772,-2.43019e-07,4.10967e-05,-2.07027e-05,0.528658,-0.23503867347839102,-2.430189705027175e-07,4.1097544480894754e-05,0.7048548923712024,-2.0702485700629936e-05,-0.23185134241356675
716,0.7059,0.0083351,929.643,0.0101584,0.0120198,0.0206938,0.00110809,-0.268225,0.534067,-0.264062,-2.15534e-07,4.11351e-05,-2.06951e-05,0.529243,-0.235264303787608,-2.1553397677731567e-07,4.1135946059922546e-05,0.7058559359705767,-2.0694885857874823e-05,-0.2320740732267379
717,0.7069,0.00831974,929.836,0.0101401,0.0120442,0.0206748,0.0011232,-0.26852,0.534653,-0.264353,-1.88012e-07,4.11733e-05,-2.06875e-05,0.529827,-0.23548986754570045,-1.8801198231610528e-07,4.1174147632050406e-05,0.7068558604983282,-2.068728601511971e-05,-0.2322975071602149
718,0.7079,0.00830441,930.028,0.0101218,0.0120686,0.0206557,0.00113826,-0.268815,0.535239,-0.264644,-1.60453e-07,4.12115e-05,-2.06798e-05,0.530412,-0.23571536477229826,-1.604529871190863e-07,4.1212349205510534e-05,0.707856371153571,-2.0679586174354725e-05,-0.23252087608387662
719,0.7089,0.00828912,930.22,0.0101036,0.0120929,0.0206368,0.00115326,-0.269109,0.535824,-0.264934,-1.32858e-07,4.12496e-05,-2.06721e-05,0.530996,-0.23594003142743858,-1.32857991164137e-07,4.12504507765199e-05,0.7088557594232634,-2.067188633358974e-05,-0.23274341276043453
720,0.7099,0.00827387,930.411,0.0100854,0.0121172,0.0206178,0.00116822,-0.269404,0.536409,-0.265224,-1.05226e-07,4.12876e-05,-2.06644e-05,0.531579,-0.23616539587527707,-1.052259944733791e-07,4.128845234463441e-05,0.709855732506135,-2.0664186492713732e-05,-0.23296588491071313
721,0.7109,0.00825865,930.603,0.0100672,0.0121415,0.0205989,0.00118312,-0.269698,0.536994,-0.265514,-7.75579e-08,4.13256e-05,-2.06567e-05,0.532163,-0.23638993024072075,-7.755789699359639e-08,4.132645391430323e-05,0.7108562907444009,-2.0656486651837724e-05,-0.2331882925534221
722,0.7119,0.00824348,930.794,0.0100491,0.0121658,0.0205801,0.00119797,-0.269992,0.537578,-0.265804,-4.98537e-08,4.13635e-05,-2.06489e-05,0.532746,-0.2366143986027639,-4.985369872478884e-08,4.136435548129924e-05,0.7118557226238993,-2.0648686812951844e-05,-0.23341063570726606
723,0.7129,0.00822834,930.985,0.0100311,0.01219,0.0205612,0.00121276,-0.270286,0.538162,-0.266094,-2.21134e-08,4.14014e-05,-2.06411e-05,0.533328,-0.23683880098080878,-2.211339977797877e-08,4.140225704984957e-05,0.7128557383420797,-2.064088697395494e-05,-0.23363291439094402
724,0.7139,0.00821324,931.175,0.0100131,0.0122142,0.0205424,0.00122751,-0.27058,0.538746,-0.266383,5.66288e-09,4.14392e-05,-2.06332e-05,0.533911,-0.23706313739425167,5.662879942747168e-09,4.144005861550504e-05,0.7138563382400032,-2.0632987136948167e-05,-0.23385436247789515
725,0.7149,0.00819818,931.365,0.00999513,0.0122384,0.0205237,0.0012422,-0.270874,0.539329,-0.266673,3.34751e-08,4.14769e-05,-2.06254e-05,0.534493,-0.2372874078624836,3.3475100469360086e-08,4.14777601784877e-05,0.7148558078022653,-2.0625187297951264e-05,-0.23407651249946648
726,0.7159,0.00818315,931.555,0.00997721,0.0122625,0.020505,0.00125684,-0.271167,0.539912,-0.266962,6.13231e-08,4.15146e-05,-2.06175e-05,0.535074,-0.23751084991612048,6.132310192974444e-08,4.151546174302467e-05,0.7158558602251697,-2.0617287460833467e-05,-0.2342978324050874
727,0.7169,0.00816816,931.745,0.00995934,0.0122866,0.0204863,0.00127142,-0.27146,0.540494,-0.267251,8.92068e-08,4.15522e-05,-2.06095e-05,0.535656,-0.23773422651082587,8.920680394375324e-08,4.155306330466679e-05,0.716854778992986,-2.0609287625705797e-05,-0.2345190883584971
728,0.7179,0.00815321,931.934,0.0099415,0.0123107,0.0204676,0.00128595,-0.271753,0.541077,-0.26754,1.17126e-07,4.15897e-05,-2.06016e-05,0.536237,-0.23795753766577643,1.1712600689328667e-07,4.1590564863636104e-05,0.7178559971558747,-2.0601387788476977e-05,-0.23474028037817518
729,0.7189,0.0081383,932.124,0.00992371,0.0123347,0.020449,0.00130043,-0.272046,0.541659,-0.267829,1.45081e-07,4.16272e-05,-2.05936e-05,0.536817,-0.23818078340014315,1.4508101053856137e-07,4.162806642393768e-05,0.7188560803421973,-2.0593387953238285e-05,-0.23496140848259572
730,0.7199,0.00812342,932.312,0.00990597,0.0123588,0.0204304,0.00131486,-0.272339,0.54224,-0.268117,1.73071e-07,4.16646e-05,-2.05855e-05,0.537398,-0.23840396373309147,1.730710150749104e-07,4.166546798156645e-05,0.7198550258904575,-2.0585288120100742e-05,-0.23518170787231785
731,0.7209,0.00810858,932.501,0.00988826,0.0123827,0.0204118,0.00132924,-0.272631,0.542822,-0.268405,2.01097e-07,4.1702e-05,-2.05775e-05,0.537978,-0.23862631731047923,2.0109702014714514e-07,4.170286954052749e-05,0.7208562728501289,-2.0577288284751027e-05,-0.23540194382495117
732,0.7219,0.00809377,932.689,0.0098706,0.0124067,0.0203933,0.00134356,-0.272924,0.543402,-0.268694,2.29157e-07,4.17393e-05,-2.05694e-05,0.538557,-0.23884936712111426,2.2915702624359824e-07,4.174017109659367e-05,0.7218546589923751,-2.056918845139144e-05,-0.23562288073626436
733,0.7229,0.008079,932.877,0.00985298,0.0124307,0.0203748,0.00135782,-0.273216,0.543983,-0.268982,2.57253e-07,4.17765e-05,-2.05613e-05,0.539136,-0.2390715906596993,2.5725303309798164e-07,4.177737265020909e-05,0.7228553472210306,-2.056108861792083e-05,-0.23584298964940742
734,0.7239,0.00806427,933.065,0.00983541,0.0124546,0.0203564,0.00137204,-0.273508,0.544563,-0.269269,2.85384e-07,4.18136e-05,-2.05531e-05,0.539715,-0.2392937493184839,2.853840406213948e-07,4.181447420070761e-05,0.7238548931627213,-2.055288878644035e-05,-0.2360622712429642
735,0.7249,0.00804958,933.253,0.00981787,0.0124785,0.0203379,0.0013862,-0.2738,0.545143,-0.269557,3.1355e-07,4.18507e-05,-2.0545e-05,0.540294,-0.2395158431164104,3.1355004925792684e-07,4.185157575276044e-05,0.7248550190092142,-2.054478895296974e-05,-0.236282253629862
736,0.7259,0.00803492,933.44,0.00980038,0.0125023,0.0203196,0.00140031,-0.274092,0.545723,-0.269845,3.41751e-07,4.18878e-05,-2.05368e-05,0.540872,-0.23973787207241526,3.4175105834144404e-07,4.188867730614554e-05,0.7258557250969517,-2.0536589121378235e-05,-0.23650217267095464
737,0.7269,0.00802029,933.627,0.00978293,0.0125261,0.0203012,0.00141437,-0.274383,0.546302,-0.270132,3.69986e-07,4.19248e-05,-2.05285e-05,0.54145,-0.23995907616488577,3.699860684491796e-07,4.1925678856635784e-05,0.7268552849064234,-2.0528289291776858e-05,-0.23672126510612967
738,0.7279,0.00800571,933.814,0.00976553,0.0125499,0.0202829,0.00142837,-0.274675,0.546881,-0.270419,3.98256e-07,4.19617e-05,-2.05203e-05,0.542028,-0.2401809757157345,3.9825607922594486e-07,4.196258040445322e-05,0.7278554236286037,-2.052008946007433e-05,-0.23694029467079836
739,0.7289,0.00799115,934.0,0.00974816,0.0125737,0.0202646,0.00144232,-0.274966,0.54746,-0.270706,4.26561e-07,4.19985e-05,-2.0512e-05,0.542605,-0.24040205088380417,4.2656109089378447e-07,4.19993819493758e-05,0.72885614159878,-2.0511789630361932e-05,-0.23715926138300158
740,0.7299,0.00797664,934.186,0.00973084,0.0125975,0.0202463,0.00145621,-0.275257,0.548038,-0.270993,4.549e-07,4.20353e-05,-2.05037e-05,0.543182,-0.24062306172835946,4.549001033637978e-07,4.203618349563065e-05,0.7298557092958604,-2.050348980053851e-05,-0.2373781652607756
741,0.7309,0.00796216,934.372,0.00971355,0.0126212,0.0202281,0.00147006,-0.275548,0.548616,-0.27128,4.83274e-07,4.2072e-05,-2.04953e-05,0.543759,-0.24084400826811592,4.832741167248855e-07,4.207288503899065e-05,0.7308558549100717,-2.049508997281624e-05,-0.2375970063221513
742,0.7319,0.00794771,934.558,0.00969631,0.0126449,0.0202099,0.00148385,-0.275838,0.549193,-0.271566,5.11682e-07,4.21087e-05,-2.04869e-05,0.544335,-0.24106413158629436,5.11682130888147e-07,4.210958658368291e-05,0.7318548469198334,-2.0486690144871922e-05,-0.23781502240055785
743,0.7329,0.0079333,934.743,0.00967911,0.0126685,0.0201918,0.00149758,-0.276129,0.549771,-0.271853,5.40124e-07,4.21453e-05,-2.04785e-05,0.544911,-0.24128494979339532,5.401241458535821e-07,4.2146188125702366e-05,0.7328561483695955,-2.0478290316927605e-05,-0.23803373810192452
744,0.7339,0.00791893,934.928,0.00966195,0.0126922,0.0201737,0.00151127,-0.276419,0.550348,-0.272139,5.686e-07,4.21819e-05,-2.04701e-05,0.545486,-0.24150494525707122,5.686001616211911e-07,4.2182789668832044e-05,0.7338562948817253,-2.046989048898329e-05,-0.2382516292929019
745,0.7349,0.00790459,935.113,0.00964483,0.0127158,0.0201556,0.0015249,-0.276709,0.550924,-0.272425,5.9711e-07,4.22183e-05,-2.04616e-05,0.546062,-0.2417248769313125,5.971101781909738e-07,4.221919120506179e-05,0.7348552837887623,-2.0461390662918078e-05,-0.23846945817590903
746,0.7359,0.00789028,935.298,0.00962776,0.0127394,0.0201375,0.00153847,-0.276999,0.5515,-0.272711,6.25654e-07,4.22548e-05,-2.04531e-05,0.546637,-0.24194474483461548,6.256541957849748e-07,4.225569274662888e-05,0.735854848279162,-2.0452890836741844e-05,-0.23868722476876358
747,0.7369,0.00787601,935.482,0.00961072,0.0127629,0.0201195,0.00155199,-0.277289,0.552076,-0.272997,6.54232e-07,4.22911e-05,-2.04446e-05,0.547211,-0.24216454898547113,6.54232213959105e-07,4.2291994281074e-05,0.7368549886845557,-2.044439101056561e-05,-0.23890492908927785
748,0.7379,0.00786178,935.666,0.00959372,0.0127865,0.0201015,0.00156546,-0.277579,0.552652,-0.273282,6.82843e-07,4.23274e-05,-2.04361e-05,0.547786,-0.2423842894023649,6.82843233068553e-07,4.2328295817073425e-05,0.737855705336766,-2.0435891184278354e-05,-0.23912181027745016
749,0.7389,0.00784758,935.85,0.00957677,0.01281,0.0200835,0.00157888,-0.277869,0.553227,-0.273567,7.11489e-07,4.23637e-05,-2.04275e-05,0.54836,-0.24260396610377688,7.114892530690753e-07,4.2364597354183076e-05,0.7388552597116775,-2.0427291360092248e-05,-0.239338629663291
750,0.7399,0.00783341,936.033,0.00955985,0.0128335,0.0200656,0.00159224,-0.278158,0.553802,-0.273853,7.40167e-07,4.23999e-05,-2.04189e-05,0.548933,-0.2428228219313826,7.401672739160148e-07,4.240079888839787e-05,0.7398553889956254,-2.0418691535684097e-05,-0.23955614770864408
751,0.7409,0.00781928,936.216,0.00954298,0.0128569,0.0200477,0.00160555,-0.278447,0.554377,-0.274138,7.6888e-07,4.2436e-05,-2.04103e-05,0.549506,-0.2430416145187927,7.688802956540286e-07,4.2436900419717816e-05,0.740856093519277,-2.0410091711275946e-05,-0.23977284332595494
752,0.7419,0.00780518,936.4,0.00952614,0.0128804,0.0200298,0.0016188,-0.278736,0.554951,-0.274423,7.97626e-07,4.2472e-05,-2.04017e-05,0.550079,-0.24326034388428108,7.976263181053156e-07,4.2472901948142905e-05,0.7418556317569873,-2.0401491886756773e-05,-0.23998947719381447
753,0.7429,0.00779112,936.582,0.00950935,0.0129038,0.020012,0.001632,-0.279025,0.555525,-0.274707,8.26405e-07,4.25081e-05,-2.0393e-05,0.550652,-0.24347901004611627,8.264053414919204e-07,4.250900348212738e-05,0.7428557438943402,-2.0392792064227727e-05,-0.24020528953548836
754,0.7439,0.00777709,936.765,0.0094926,0.0129272,0.0199942,0.00164515,-0.279314,0.556098,-0.274992,8.55217e-07,4.2544e-05,-2.03843e-05,0.551224,-0.24369761302256132,8.552173655917983e-07,4.254490500876784e-05,0.7438546864052891,-2.038409224158766e-05,-0.24042180017373938
755,0.7449,0.0077631,936.947,0.00947588,0.0129505,0.0199765,0.00165824,-0.279602,0.556672,-0.275276,8.84062e-07,4.25799e-05,-2.03755e-05,0.551796,-0.24391539674764906,8.840623908490386e-07,4.258080653674057e-05,0.7448559463293929,-2.037529242093772e-05,-0.24063748975312005
756,0.7459,0.00774914,937.129,0.00945921,0.0129739,0.0199587,0.00167128,-0.279891,0.557245,-0.27556,9.12941e-07,4.26157e-05,-2.03668e-05,0.552368,-0.24413387362655936,9.12941416686408e-07,4.261660806181844e-05,0.7458560352847623,-2.0366592598186628e-05,-0.2408531180853577
757,0.7469,0.00773521,937.311,0.00944257,0.0129972,0.019941,0.00168427,-0.280179,0.557817,-0.275845,9.41852e-07,4.26515e-05,-2.0358e-05,0.552939,-0.2443515317266841,9.418524435922393e-07,4.265240958822858e-05,0.7468549505994893,-2.0357792777314643e-05,-0.24106944411877929
758,0.7479,0.00772132,937.492,0.00942597,0.0130205,0.0199233,0.0016972,-0.280467,0.55839,-0.276129,9.70797e-07,4.26872e-05,-2.03492e-05,0.55351,-0.24456912715030177,9.707974713002443e-07,4.268811111152182e-05,0.7478561853125336,-2.0348992956442657e-05,-0.24128494979339532
759,0.7489,0.00770746,937.673,0.00940942,0.0130437,0.0199057,0.00171008,-0.280755,0.558962,-0.276412,9.99774e-07,4.27228e-05,-2.03404e-05,0.554081,-0.24478665991546067,9.997744998546665e-07,4.272371263192021e-05,0.7488562450403475,-2.034019313545965e-05,-0.24149963577310474
760,0.7499,0.00769363,937.854,0.0093929,0.013067,0.0198881,0.0017229,-0.281042,0.559533,-0.276696,1.02878e-06,4.27584e-05,-2.03315e-05,0.554651,-0.24500337504395653,1.0287805292108487e-06,4.275931415342882e-05,0.7498551271099567,-2.033129331646677e-05,-0.2417150192906381
761,0.7509,0.00767984,938.035,0.00937642,0.0130902,0.0198705,0.00173567,-0.28133,0.560104,-0.276979,1.05783e-06,4.2794e-05,-2.03226e-05,0.555221,-0.2452207827637295,1.0578305595920767e-06,4.2794915676269696e-05,0.7508545797040971,-2.0322393497362867e-05,-0.24192958357790018
762,0.7519,0.00766608,938.216,0.00935998,0.0131134,0.019853,0.00174839,-0.281617,0.560676,-0.277263,1.0869e-06,4.28294e-05,-2.03137e-05,0.555791,-0.24543737331684523,1.0869005906410933e-06,4.2830317191766554e-05,0.7518563550041097,-2.0313493678147942e-05,-0.24214484500759414
763,0.7529,0.00765235,938.396,0.00934358,0.0131365,0.0198355,0.00176105,-0.281905,0.561246,-0.277546,1.11601e-06,4.28649e-05,-2.03048e-05,0.556361,-0.24565465606311265,1.1160106228036426e-06,4.2865818713044845e-05,0.7528551977696067,-2.0304593858933018e-05,-0.24235928767138892
764,0.7539,0.00763866,938.576,0.00932722,0.0131597,0.019818,0.00177365,-0.282192,0.561817,-0.277829,1.14515e-06,4.29002e-05,-2.02958e-05,0.55693,-0.24587112211245865,1.1451506556348079e-06,4.290112022675707e-05,0.7538563638932596,-2.0295594041597198e-05,-0.24257366965649618
765,0.7549,0.007625,938.755,0.00931089,0.0131828,0.0198005,0.00178621,-0.282478,0.562387,-0.278111,1.17432e-06,4.29355e-05,-2.02868e-05,0.557498,-0.24608677213211172,1.1743206895786784e-06,4.293642174180157e-05,0.7548563469887863,-2.028659422426138e-05,-0.24278723376769806
766,0.7559,0.00761137,938.935,0.00929461,0.0132059,0.0197831,0.00179871,-0.282765,0.562956,-0.278394,1.20353e-06,4.29708e-05,-2.02778e-05,0.558067,-0.24630311418194062,1.2035307241919924e-06,4.2971723257956285e-05,0.7558551443811337,-2.0277594406814536e-05,-0.24300149466119536
767,0.7569,0.00759778,939.114,0.00927836,0.013229,0.0197657,0.00181115,-0.283052,0.563526,-0.278676,1.23276e-06,4.3006e-05,-2.02688e-05,0.558635,-0.24651939415051038,1.2327607599171841e-06,4.300692477121615e-05,0.7568562671063019,-2.0268594589256672e-05,-0.24321493814275552
768,0.7579,0.00758422,939.293,0.00926215,0.013252,0.0197484,0.00182354,-0.283338,0.564095,-0.278959,1.26203e-06,4.30411e-05,-2.02597e-05,0.559203,-0.2467348587908711,1.2620307963118194e-06,4.3042026281359114e-05,0.7578562027770055,-2.0259494773688935e-05,-0.24342907801304037
769,0.7589,0.00757069,939.472,0.00924598,0.013275,0.019731,0.00183588,-0.283624,0.564663,-0.279241,1.29133e-06,4.30762e-05,-2.02507e-05,0.55977,-0.24695026181715585,1.2913308338191598e-06,4.3077127792834347e-05,0.7588549487171783,-2.0250494955909026e-05,-0.2436424009330952
770,0.7599,0.00755719,939.65,0.00922985,0.013298,0.0197137,0.00184816,-0.28391,0.565232,-0.279523,1.32066e-06,4.31112e-05,-2.02416e-05,0.560337,-0.2471656032469839,1.3206608719951163e-06,4.311212930119268e-05,0.7598560219613273,-2.0241395140230267e-05,-0.24385566370456802
771,0.7609,0.00754373,939.828,0.00921375,0.013321,0.0196965,0.00186039,-0.284196,0.5658,-0.279805,1.35003e-06,4.31461e-05,-2.02324e-05,0.560904,-0.24738088309796913,1.3500309112846054e-06,4.314703080643412e-05,0.7608559041214527,-2.0232195326430613e-05,-0.24406886634441827
772,0.7619,0.00753029,940.006,0.0091977,0.013344,0.0196792,0.00187256,-0.284482,0.566368,-0.280086,1.37943e-06,4.3181e-05,-2.02233e-05,0.561471,-0.2475961013877207,1.3794309514647551e-06,4.3181932312785776e-05,0.7618563543759684,-2.0223095510418787e-05,-0.24428125315123161
773,0.7629,0.00751689,940.184,0.00918168,0.0133669,0.019662,0.00188468,-0.284768,0.566935,-0.280368,1.40885e-06,4.32159e-05,-2.02141e-05,0.562037,-0.24781125813384253,1.4088509925347381e-06,4.32168338204697e-05,0.7628556101911523,-2.021389569650811e-05,-0.24449433579177848
774,0.7639,0.00750353,940.362,0.00916569,0.0133898,0.0196448,0.00189674,-0.285053,0.567502,-0.280649,1.43831e-06,4.32507e-05,-2.02049e-05,0.562603,-0.24802560137991092,1.4383110342741645e-06,4.325163532503673e-05,0.7638554327450386,-2.020469588237539e-05,-0.24470660305847325
775,0.7649,0.00749019,940.539,0.00914975,0.0134127,0.0196277,0.00190875,-0.285338,0.568069,-0.28093,1.4678e-06,4.32854e-05,-2.01957e-05,0.563168,-0.24823988354685844,1.4678010771262961e-06,4.328633682648686e-05,0.7648558223590598,-2.019549606824267e-05,-0.24491881068644583
776,0.7659,0.00747689,940.716,0.00913384,0.0134356,0.0196106,0.0019207,-0.285623,0.568635,-0.281211,1.49733e-06,4.33201e-05,-2.01864e-05,0.563733,-0.24845410465209006,1.4973311210919604e-06,4.332103832904721e-05,0.7658550134989328,-2.0186196255989053e-05,-0.24513095869245205
777,0.7669,0.00746361,940.893,0.00911797,0.0134585,0.0195935,0.0019326,-0.285908,0.569201,-0.281492,1.52688e-06,4.33547e-05,-2.01772e-05,0.564298,-0.24866826471300596,1.5268811657254133e-06,4.3355639828490666e-05,0.7668547703410695,-2.0176996441634287e-05,-0.24534304709324373
778,0.7679,0.00745037,941.069,0.00910214,0.0134813,0.0195764,0.00194445,-0.286193,0.569767,-0.281773,1.55647e-06,4.33893e-05,-2.01679e-05,0.564863,-0.24888236374700123,1.5564712112503543e-06,4.339024132926639e-05,0.7678550932057484,-2.016769662926965e-05,-0.24555507590556713
779,0.7689,0.00743717,941.245,0.00908635,0.0135041,0.0195594,0.00195624,-0.286478,0.570333,-0.282053,1.58608e-06,4.34238e-05,-2.01586e-05,0.565427,-0.24909640177146608,1.586081257887173e-06,4.342474282692521e-05,0.7688559824134285,-2.015839681679399e-05,-0.24576629091283264
780,0.7699,0.00742399,941.421,0.00907059,0.0135269,0.0195424,0.00196797,-0.286762,0.570898,-0.282334,1.61573e-06,4.34582e-05,-2.01492e-05,0.565991,-0.2493096281137892,1.6157313051934352e-06,4.345914432124509e-05,0.7698556684281976,-2.0148997006197433e-05,-0.24597820081035116
781,0.7709,0.00741084,941.597,0.00905486,0.0135496,0.0195255,0.00197965,-0.287046,0.571463,-0.282614,1.64541e-06,4.34926e-05,-2.01399e-05,0.566554,-0.24952279390842935,1.6454113536124026e-06,4.349354581689724e-05,0.7708559194251574,-2.013969719361075e-05,-0.24618929735922823
782,0.7719,0.00739773,941.773,0.00903918,0.0135724,0.0195085,0.00199128,-0.287331,0.572027,-0.282894,1.67512e-06,4.3527e-05,-2.01305e-05,0.567118,-0.24973664943630514,1.6751214029220307e-06,4.352794731365961e-05,0.7718549638677632,-2.013029738279215e-05,-0.24640033480934587
783,0.7729,0.00738465,941.948,0.00902353,0.0135951,0.0194916,0.00200285,-0.287615,0.572592,-0.283174,1.70486e-06,4.35612e-05,-2.01211e-05,0.567681,-0.24994969397410893,1.704861453344364e-06,4.3562148802855916e-05,0.7728563447858192,-2.012089757197355e-05,-0.24661131317724938
784,0.7739,0.00737159,942.123,0.00900792,0.0136178,0.0194747,0.00201436,-0.287898,0.573155,-0.283454,1.73463e-06,4.35955e-05,-2.01117e-05,0.568243,-0.25016192817815786,1.7346315044353133e-06,4.359645029761161e-05,0.7738547439309211,-2.011149776115495e-05,-0.24682223247947943
785,0.7749,0.00735857,942.298,0.00899234,0.0136405,0.0194579,0.00202582,-0.288182,0.573719,-0.283733,1.76443e-06,4.36297e-05,-2.01022e-05,0.568806,-0.25037485195394804,1.7644315566389679e-06,4.363065178925041e-05,0.7748554801875949,-2.0101997952104433e-05,-0.24703233976528838
786,0.7759,0.00734558,942.472,0.0089768,0.0136632,0.0194411,0.00203723,-0.288466,0.574282,-0.284013,1.79427e-06,4.36638e-05,-2.00927e-05,0.569368,-0.25058771526797174,1.7942716097341105e-06,4.366475327755026e-05,0.7758550051628195,-2.0092498143053916e-05,-0.24724314119657642
787,0.7769,0.00733262,942.647,0.0089613,0.0136858,0.0194243,0.00204858,-0.288749,0.574845,-0.284292,1.82413e-06,4.36978e-05,-2.00833e-05,0.569929,-0.2507997689375414,1.8241316637190863e-06,4.3698754762733216e-05,0.7768550930290443,-2.008309833190225e-05,-0.2474531310652338
788,0.7779,0.00731969,942.821,0.00894583,0.0137084,0.0194075,0.00205988,-0.289032,0.575408,-0.284571,1.85402e-06,4.37319e-05,-2.00738e-05,0.570491,-0.2510117626044134,1.8540217185947228e-06,4.373285625347556e-05,0.7778557441032656,-2.0073598522629688e-05,-0.24766306235488988
789,0.7789,0.0073068,942.995,0.0089304,0.013731,0.0193908,0.00207112,-0.289315,0.57597,-0.28485,1.88395e-06,4.37658e-05,-2.00642e-05,0.571052,-0.25122369628556596,1.8839517745838918e-06,4.376675773665184e-05,0.7788551798465901,-2.006399871523623e-05,-0.24787293508188613
790,0.7799,0.00729393,943.168,0.008915,0.0137536,0.0193741,0.0020823,-0.289598,0.576532,-0.285129,1.91391e-06,4.37997e-05,-2.00547e-05,0.571613,-0.2514355699979728,1.9139118314637216e-06,4.380065922093834e-05,0.7798551774306648,-2.0054498905852647e-05,-0.24808274926255902
791,0.7809,0.00728109,943.342,0.00889964,0.0137762,0.0193574,0.00209343,-0.289881,0.577094,-0.285408,1.94389e-06,4.38336e-05,-2.00451e-05,0.572173,-0.2516473837586026,1.943891889455429e-06,4.383456070633507e-05,0.7808557371713329,-2.0044899098348168e-05,-0.24829250491324084
792,0.7819,0.00726829,943.515,0.00888432,0.0137987,0.0193408,0.00210451,-0.290163,0.577655,-0.285686,1.97391e-06,4.38674e-05,-2.00355e-05,0.572733,-0.25185838944318284,1.97391194811658e-06,4.386836218839285e-05,0.7818550775286468,-2.0035299290732667e-05,-0.2485014505520855
793,0.7829,0.00725551,943.688,0.00886903,0.0138212,0.0193242,0.00211552,-0.290446,0.578216,-0.285965,2.00395e-06,4.39011e-05,-2.00259e-05,0.573293,-0.25207008356283955,2.003952007889609e-06,4.3902063667333735e-05,0.7828549786731871,-2.0025699483006143e-05,-0.24871108940140219
794,0.7839,0.00724277,943.861,0.00885378,0.0138437,0.0193076,0.00212649,-0.290728,0.578777,-0.286243,2.03403e-06,4.39348e-05,-2.00163e-05,0.573853,-0.25228097006288075,2.0340320685541258e-06,4.393576514738484e-05,0.7838554409196441,-2.0016099675168597e-05,-0.24891991868993246
795,0.7849,0.00723005,944.033,0.00883856,0.0138662,0.019291,0.0021374,-0.29101,0.579337,-0.286521,2.06414e-06,4.39684e-05,-2.00066e-05,0.574412,-0.25249179710131353,2.064142130331348e-06,4.396936662431905e-05,0.7848546797273117,-2.000639986932118e-05,-0.24912868993198956
796,0.7859,0.00721736,944.205,0.00882338,0.0138887,0.0192745,0.00214825,-0.291292,0.579898,-0.286799,2.09427e-06,4.4002e-05,-1.99969e-05,0.574971,-0.2527025646949035,2.094272192998403e-06,4.400296810214144e-05,0.7858562641207929,-1.9996700063362738e-05,-0.24933740314370778
797,0.7869,0.00720471,944.377,0.00880823,0.0139111,0.019258,0.00215905,-0.291573,0.580457,-0.287076,2.12444e-06,4.40355e-05,-1.99872e-05,0.575529,-0.25291252577331114,2.1244422565569465e-06,4.4036469576846926e-05,0.7868548368475106,-1.9987000257293275e-05,-0.24954530788690066
798,0.7879,0.00719208,944.549,0.00879311,0.0139336,0.0192415,0.00216979,-0.291855,0.581017,-0.287354,2.15464e-06,4.4069e-05,-1.99775e-05,0.576088,-0.25312317473814305,2.154642321228195e-06,4.406997105266264e-05,0.787855755787291,-1.997730045111279e-05,-0.24975390529492492
799,0.7889,0.00717949,944.721,0.00877804,0.013956,0.0192251,0.00218047,-0.292136,0.581576,-0.287631,2.18486e-06,4.41024e-05,-1.99678e-05,0.576645,-0.2533330176417329,2.184862386789277e-06,4.4103372525139406e-05,0.7888554465423101,-1.9967600644821282e-05,-0.24996169468299945
800,0.7899,0.00716692,944.892,0.00876299,0.0139784,0.0192086,0.0021911,-0.292418,0.582135,-0.287909,2.21512e-06,4.41358e-05,-1.9958e-05,0.577203,-0.2535435480445759,2.2151224534638914e-06,4.41367739987264e-05,0.7898556962806824,-1.995780084040888e-05,-0.2501701763515829
801,0.7909,0.00715438,945.063,0.00874798,0.0140008,0.0191923,0.00220168,-0.292699,0.582693,-0.288186,2.2454e-06,4.41691e-05,-1.99482e-05,0.57776,-0.2537532728398617,2.2454025208062944e-06,4.4170075468974446e-05,0.7908547144593576,-1.9948001035996477e-05,-0.2503778504485432
802,0.7919,0.00714188,945.234,0.00873301,0.0140231,0.0191759,0.0022122,-0.29298,0.583252,-0.288463,2.27572e-06,4.42024e-05,-1.99385e-05,0.578317,-0.25396293871075926,2.2757225894842747e-06,4.420337694055476e-05,0.7918560821009204,-1.9938301229482924e-05,-0.2505854670277452
803,0.7929,0.0071294,945.405,0.00871807,0.0140454,0.0191596,0.00222266,-0.293261,0.58381,-0.28874,2.30607e-06,4.42356e-05,-1.99286e-05,0.578874,-0.25417254567382397,2.3060726590529157e-06,4.423657840857409e-05,0.7928562168063651,-1.9928401426727582e-05,-0.2507930261051191
804,0.7939,0.00711695,945.575,0.00870316,0.0140678,0.0191433,0.00223307,-0.293541,0.584367,-0.289016,2.33644e-06,4.42688e-05,-1.99188e-05,0.579431,-0.2543813481273276,2.33644272951139e-06,4.426977987770364e-05,0.7938551158866944,-1.9918601621982113e-05,-0.25099977869674406
805,0.7949,0.00710453,945.745,0.00868829,0.0140901,0.019127,0.00224342,-0.293822,0.584925,-0.289293,2.36684e-06,4.43019e-05,-1.9909e-05,0.579987,-0.2545908375338638,2.3668428008605247e-06,4.4302881343716294e-05,0.7948563663642632,-1.990880181712562e-05,-0.2512072230256791
806,0.7959,0.00709214,945.915,0.00867346,0.0141124,0.0191107,0.00225372,-0.294102,0.585482,-0.289569,2.39728e-06,4.43349e-05,-1.98991e-05,0.580542,-0.2547995228820421,2.3972828735452367e-06,4.433588280616796e-05,0.7958563798382259,-1.9898902014259257e-05,-0.2514138613147284
807,0.7969,0.00707978,946.085,0.00865865,0.0141346,0.0190945,0.00226396,-0.294382,0.586038,-0.289845,2.42774e-06,4.43679e-05,-1.98892e-05,0.581098,-0.25500814980650266,2.4277429468977374e-06,4.436888426972985e-05,0.7968551536187971,-1.9889002211170848e-05,-0.2516204425794796
808,0.7979,0.00706745,946.254,0.00864389,0.0141569,0.0190783,0.00227414,-0.294662,0.586595,-0.290121,2.45823e-06,4.44009e-05,-1.98793e-05,0.581653,-0.2552167183236018,2.4582330213629433e-06,4.4401885734624e-05,0.7978562807273795,-1.9879102407971416e-05,-0.2518269668356693
809,0.7989,0.00705514,946.424,0.00862915,0.0141791,0.0190622,0.00228427,-0.294942,0.587151,-0.290397,2.48875e-06,4.44338e-05,-1.98694e-05,0.582208,-0.2554252284496913,2.4887530969408544e-06,4.443478719595717e-05,0.7988561667620231,-1.9869202604771985e-05,-0.2520334340990297
810,0.7999,0.00704287,946.593,0.00861445,0.0142013,0.019046,0.00229434,-0.295222,0.587706,-0.290673,2.5193e-06,4.44666e-05,-1.98594e-05,0.582762,-0.2556336802011183,2.5193031734094262e-06,4.4467588653951395e-05,0.799854809032172,-1.985920280345166e-05,-0.25223984438528846
811,0.8009,0.00703062,946.762,0.00859978,0.0142235,0.0190299,0.00230436,-0.295501,0.588262,-0.290948,2.54988e-06,4.44994e-05,-1.98495e-05,0.583317,-0.25584132943592697,2.5498832509907032e-06,4.450039011305584e-05,0.8008558065575189,-1.9849303000030183e-05,-0.2524454501559933
812,0.8019,0.0070184,946.93,0.00858515,0.0142457,0.0190138,0.00231431,-0.295781,0.588817,-0.291224,2.58049e-06,4.45321e-05,-1.98395e-05,0.583871,-0.2560496646953875,2.580493329462641e-06,4.4533091568599303e-05,0.801855558935781,-1.983930319837679e-05,-0.2526517467415119
813,0.8029,0.00700622,947.099,0.00857055,0.0142679,0.0189978,0.00232422,-0.29606,0.589372,-0.291499,2.61113e-06,4.45648e-05,-1.98295e-05,0.584424,-0.256257197886711,2.6111334090472837e-06,4.456579302547503e-05,0.8028558663306158,-1.9829303396723397e-05,-0.25285723925464243
814,0.8039,0.00699406,947.267,0.00855598,0.01429,0.0189818,0.00233406,-0.296339,0.589926,-0.291774,2.6418e-06,4.45975e-05,-1.98195e-05,0.584978,-0.25646467318435073,2.6418034895225873e-06,4.459849448323894e-05,0.8038549251943159,-1.981930359495898e-05,-0.2530626752651013
815,0.8049,0.00698192,947.435,0.00854145,0.0143121,0.0189658,0.00234386,-0.296618,0.590481,-0.292049,2.67249e-06,4.46301e-05,-1.98095e-05,0.585531,-0.2566720906044567,2.6724935711097686e-06,4.46310959376639e-05,0.8048563425454087,-1.9809303793194566e-05,-0.2532680547884246
816,0.8059,0.00696982,947.602,0.00852694,0.0143343,0.0189498,0.00235359,-0.296897,0.591034,-0.292324,2.70322e-06,4.46626e-05,-1.97994e-05,0.586083,-0.2568794501631746,2.7032236538104826e-06,4.466359738874992e-05,0.8058547041243704,-1.9799203993198233e-05,-0.2534733778401441
817,0.8069,0.00695774,947.77,0.00851248,0.0143564,0.0189338,0.00236327,-0.297175,0.591588,-0.292599,2.73397e-06,4.46951e-05,-1.97894e-05,0.586636,-0.2570860089630258,2.7339737374010298e-06,4.4696098840946163e-05,0.806855424804489,-1.978920419110075e-05,-0.2536786444357877
818,0.8079,0.0069457,947.937,0.00849804,0.0143785,0.0189179,0.00237289,-0.297454,0.592141,-0.292873,2.76475e-06,4.47275e-05,-1.97793e-05,0.587188,-0.2572932530546299,2.7647538218822376e-06,4.472850028958142e-05,0.8078548921816653,-1.9779104390882374e-05,-0.2538831084743598
819,0.8089,0.00693368,948.104,0.00848364,0.0144005,0.018902,0.00238245,-0.297732,0.592694,-0.293147,2.79556e-06,4.47599e-05,-1.97692e-05,0.58774,-0.2574996968332659,2.7955639074761507e-06,4.47609017393269e-05,0.8088549124171522,-1.9769004590663997e-05,-0.25408751649745975
820,0.8099,0.00692169,948.271,0.00846927,0.0144226,0.0188862,0.00239196,-0.29801,0.593247,-0.293422,2.8264e-06,4.47923e-05,-1.97591e-05,0.588291,-0.2577060832285082,2.826403994182769e-06,4.4793303189960554e-05,0.809855485816765,-1.9758904790223575e-05,-0.2542926142281925
821,0.8109,0.00690972,948.438,0.00845493,0.0144446,0.0188703,0.00240141,-0.298288,0.593799,-0.293696,2.85727e-06,4.48245e-05,-1.97489e-05,0.588842,-0.2579124122563069,2.8572740820020925e-06,4.48255046328061e-05,0.8108548018307811,-1.974870499177328e-05,-0.2544969100620865
822,0.8119,0.00689779,948.604,0.00844063,0.0144666,0.0188545,0.00241081,-0.298566,0.594351,-0.29397,2.88816e-06,4.48568e-05,-1.97388e-05,0.589393,-0.2581186839326083,2.8881641707112493e-06,4.485780608121104e-05,0.8118546696195128,-1.9738605191221836e-05,-0.2547011499265903
823,0.8129,0.00688588,948.77,0.00842636,0.0144887,0.0188387,0.00242015,-0.298844,0.594903,-0.294243,2.91909e-06,4.4889e-05,-1.97286e-05,0.589944,-0.2583248982733535,2.9190942605339387e-06,4.489000752627703e-05,0.8128550894876236,-1.9728405392438475e-05,-0.2549045887419985
824,0.8139,0.006874,948.936,0.00841212,0.0145106,0.018823,0.00242943,-0.299121,0.595455,-0.294517,2.95004e-06,4.49211e-05,-1.97185e-05,0.590494,-0.25853031382516445,2.950044351468506e-06,4.492210896778204e-05,0.8138560617399457,-1.9718305591664986e-05,-0.255108716917846
825,0.8149,0.00686215,949.102,0.00839792,0.0145326,0.0188073,0.00243865,-0.299399,0.596006,-0.29479,2.98102e-06,4.49532e-05,-1.97083e-05,0.591044,-0.2587364137487044,2.981024443293734e-06,4.495421041017522e-05,0.8148557718248002,-1.9708105792770603e-05,-0.2553120444826521
826,0.8159,0.00685032,949.268,0.00838374,0.0145546,0.0187915,0.00244782,-0.299676,0.596557,-0.295064,3.01203e-06,4.49852e-05,-1.96981e-05,0.591594,-0.25894171532651467,3.012034536231667e-06,4.498621184922946e-05,0.8158560329016957,-1.9697905993654174e-05,-0.2555160610309203
827,0.8169,0.00683852,949.433,0.0083696,0.0145765,0.0187759,0.00245693,-0.299953,0.597107,-0.295337,3.04307e-06,4.50172e-05,-1.96878e-05,0.592143,-0.25914696004366355,3.0430746300602607e-06,4.501821328939393e-05,0.8168550284183758,-1.9687606196527874e-05,-0.25571927740596156
828,0.8179,0.00682675,949.598,0.00835549,0.0145985,0.0187602,0.00246599,-0.30023,0.597658,-0.29561,3.07413e-06,4.50491e-05,-1.96776e-05,0.592692,-0.2593521479158991,3.074134725222777e-06,4.50501147259974e-05,0.8178563913891981,-1.9677406397300423e-05,-0.25592243831050443
829,0.8189,0.00681501,949.763,0.00834141,0.0146204,0.0187446,0.00247499,-0.300507,0.598207,-0.295883,3.10523e-06,4.5081e-05,-1.96673e-05,0.593241,-0.2595572789589654,3.105234821276781e-06,4.508201616348906e-05,0.8188546685500779,-1.9667106599952078e-05,-0.25612554375969043
830,0.8199,0.00680329,949.928,0.00832736,0.0146423,0.018729,0.00248393,-0.300784,0.598757,-0.296155,3.13635e-06,4.51129e-05,-1.96571e-05,0.593789,-0.25976235318860164,3.136354918442663e-06,4.5113917602090936e-05,0.8198553137699913,-1.9656906800502583e-05,-0.25632785009687864
831,0.8209,0.0067916,950.092,0.00831335,0.0146642,0.0187134,0.00249281,-0.30106,0.599306,-0.296428,3.1675e-06,4.51446e-05,-1.96468e-05,0.594337,-0.25996663058754377,3.167505016499206e-06,4.514561903268266e-05,0.8208546886405521,-1.9646607002932193e-05,-0.2565308448837531
832,0.8219,0.00677994,950.257,0.00829937,0.0146861,0.0186979,0.00250164,-0.301336,0.599855,-0.2967,3.19867e-06,4.51764e-05,-1.96365e-05,0.594885,-0.2601708516137037,3.1986751156676263e-06,4.517742046883377e-05,0.8218546123185504,-1.963630720525078e-05,-0.25673304099402705
833,0.8229,0.0067683,950.421,0.00828542,0.0147079,0.0186824,0.00251041,-0.301613,0.600404,-0.296973,3.22988e-06,4.52081e-05,-1.96262e-05,0.595433,-0.2603757559072518,3.229885216171624e-06,4.520912190164594e-05,0.8228550851053649,-1.9626007407347323e-05,-0.2569359251788844
834,0.8239,0.0067567,950.584,0.0082715,0.0147298,0.0186669,0.00251912,-0.301889,0.600953,-0.297245,3.26111e-06,4.52397e-05,-1.96158e-05,0.59598,-0.2605798640304048,3.2611153173434104e-06,4.524072333067508e-05,0.8238561073025381,-1.9615607611433994e-05,-0.2571380111223015
835,0.8249,0.00674511,950.748,0.00825761,0.0147516,0.0186514,0.00252777,-0.302164,0.601501,-0.297517,3.29237e-06,4.52713e-05,-1.96055e-05,0.596527,-0.26078317661103523,3.2923754198499466e-06,4.527232476081444e-05,0.8248558543550133,-1.9605307813419515e-05,-0.25734004210581685
836,0.8259,0.00673356,950.912,0.00824375,0.0147735,0.0186359,0.00253637,-0.30244,0.602049,-0.297788,3.32366e-06,4.53028e-05,-1.95951e-05,0.597074,-0.2609871723015903,3.323665523469188e-06,4.5303826187392815e-05,0.8258561494190146,-1.959490801728414e-05,-0.2575412756860246
837,0.8269,0.00672203,951.075,0.00822993,0.0147953,0.0186205,0.00254491,-0.302716,0.602596,-0.29806,3.35498e-06,4.53343e-05,-1.95848e-05,0.59762,-0.26119111169710385,3.35498562797909e-06,4.5335327614859366e-05,0.8268551659388557,-1.9584608219047617e-05,-0.25774319699649484
838,0.8279,0.00671053,951.238,0.00821613,0.0148171,0.0186051,0.00255339,-0.302991,0.603143,-0.298332,3.38632e-06,4.53658e-05,-1.95744e-05,0.598166,-0.2613942562077368,3.38632573360087e-06,4.536682904343614e-05,0.8278547290702174,-1.9574208422690198e-05,-0.2579450633918374
839,0.8289,0.00669905,951.401,0.00820237,0.0148389,0.0185898,0.00256182,-0.303266,0.60369,-0.298603,3.41769e-06,4.53972e-05,-1.9564e-05,0.598712,-0.2615973448613099,3.4176958403353552e-06,4.539823046845193e-05,0.8288548391121784,-1.9563808626221757e-05,-0.2581461330334912
840,0.8299,0.0066876,951.563,0.00818864,0.0148606,0.0185744,0.00257019,-0.303542,0.604237,-0.298874,3.44909e-06,4.54285e-05,-1.95536e-05,0.599257,-0.26180111587243504,3.4490959481825456e-06,4.542953188990673e-05,0.8298554963639808,-1.9553408829642294e-05,-0.2583471481926548
841,0.8309,0.00667618,951.726,0.00817494,0.0148824,0.0185591,0.0025785,-0.303817,0.604783,-0.299145,3.48052e-06,4.54598e-05,-1.95431e-05,0.599802,-0.26200409265498337,3.4805260569203966e-06,4.546083331247175e-05,0.830854870269244,-1.9542909034830913e-05,-0.2585481088840911
842,0.8319,0.00666478,951.888,0.00816126,0.0149042,0.0185438,0.00258675,-0.304091,0.605329,-0.299416,3.51197e-06,4.54911e-05,-1.95327e-05,0.600347,-0.26220627583323564,3.51197616699217e-06,4.5492134735702905e-05,0.8318547899816515,-1.9532509238029405e-05,-0.25874901512255866
843,0.8329,0.00665341,952.05,0.00814762,0.0149259,0.0185286,0.00259495,-0.304366,0.605875,-0.299687,3.54345e-06,4.55223e-05,-1.95222e-05,0.600892,-0.26240914121211334,3.543456277954604e-06,4.552333615559512e-05,0.8328552557992954,-1.9522009443107002e-05,-0.2589498669228122
844,0.8339,0.00664207,952.211,0.00813401,0.0149476,0.0185133,0.00260308,-0.304641,0.606421,-0.299957,3.57496e-06,4.55534e-05,-1.95118e-05,0.601436,-0.2626119508106821,3.574966390251788e-06,4.555443757192634e-05,0.8338562680204298,-1.951160964608345e-05,-0.2591499234498965
845,0.8349,0.00663075,952.373,0.00812044,0.0149693,0.0184981,0.00261116,-0.304915,0.606966,-0.300228,3.6065e-06,4.55846e-05,-1.95013e-05,0.60198,-0.2628139674586153,3.6065065034396326e-06,4.558563899359491e-05,0.8348559920865637,-1.9501109850939002e-05,-0.25935066661871364
846,0.8359,0.00661946,952.534,0.00810689,0.014991,0.0184829,0.00261919,-0.305189,0.607511,-0.300498,3.63806e-06,4.56156e-05,-1.94908e-05,0.602524,-0.26301592876156965,3.638066617739355e-06,4.561664040725333e-05,0.8358562611508122,-1.949061005557251e-05,-0.25955061494448795
847,0.8369,0.00660819,952.695,0.00809337,0.0150127,0.0184678,0.00262715,-0.305463,0.608055,-0.300768,3.66965e-06,4.56466e-05,-1.94803e-05,0.603067,-0.2632178347347074,3.6696567331517826e-06,4.564764182179992e-05,0.836855238654123,-1.948011026020602e-05,-0.2597505092915018
848,0.8379,0.00659695,952.856,0.00807988,0.0150344,0.0184526,0.00263506,-0.305737,0.608599,-0.301039,3.70127e-06,4.56776e-05,-1.94698e-05,0.60361,-0.26341968539318705,3.7012768496769155e-06,4.567864323745674e-05,0.8378547597490391,-1.9469610464728504e-05,-0.2599510897236077
849,0.8389,0.00658573,953.017,0.00806642,0.0150561,0.0184375,0.00264291,-0.306011,0.609143,-0.301308,3.73291e-06,4.57085e-05,-1.94592e-05,0.604153,-0.26362148075216263,3.732916967313926e-06,4.5709544649330525e-05,0.838854824731355,-1.9459010671019072e-05,-0.2601501361075331
850,0.8399,0.00657454,953.178,0.008053,0.0150777,0.0184224,0.0026507,-0.306285,0.609687,-0.301578,3.76458e-06,4.57394e-05,-1.94487e-05,0.604696,-0.2638232208267842,3.764587086063642e-06,4.574044606231453e-05,0.8398554338970254,-1.944851087520849e-05,-0.26034986860568343
851,0.8409,0.00656338,953.338,0.0080396,0.0150994,0.0184074,0.00265843,-0.306558,0.61023,-0.301848,3.79628e-06,4.57702e-05,-1.94381e-05,0.605238,-0.26402416965673514,3.7962872059260633e-06,4.577124747151551e-05,0.8408547466865002,-1.9437911081388037e-05,-0.2605495471833389
852,0.8419,0.00655224,953.498,0.00802623,0.015121,0.0183923,0.0026661,-0.306831,0.610774,-0.302117,3.82801e-06,4.5801e-05,-1.94276e-05,0.60578,-0.2642250636351431,3.82801732690119e-06,4.580204888182671e-05,0.8418564441056924,-1.942741128535541e-05,-0.26074843260385816
853,0.8429,0.00654113,953.658,0.00801289,0.0151426,0.0183773,0.00267372,-0.307104,0.611316,-0.302386,3.85976e-06,4.58317e-05,-1.9417e-05,0.606321,-0.2644259027769805,3.859767448988194e-06,4.583275028835487e-05,0.842855000882839,-1.9416811491312913e-05,-0.2609472645313945
854,0.8439,0.00653004,953.818,0.00799959,0.0151643,0.0183623,0.00268128,-0.307378,0.611859,-0.302656,3.89154e-06,4.58624e-05,-1.94064e-05,0.606863,-0.2646274224701609,3.891547571965859e-06,4.586345169599326e-05,0.843855942879477,-1.940621169704837e-05,-0.26114678183392315
855,0.8449,0.00651898,953.977,0.00798631,0.0151859,0.0183473,0.00268878,-0.30765,0.612401,-0.302925,3.92335e-06,4.58931e-05,-1.93958e-05,0.607404,-0.26482741661081277,3.9233576962782735e-06,4.589415310451983e-05,0.8448555836787024,-1.9395611902672805e-05,-0.2613455066199277
856,0.8459,0.00650794,954.137,0.00797306,0.0152075,0.0183324,0.00269622,-0.307923,0.612943,-0.303193,3.95518e-06,4.59237e-05,-1.93852e-05,0.607945,-0.2650280913327322,3.955187821702566e-06,4.5924754509263366e-05,0.8458557664300972,-1.9385012108186217e-05,-0.26154343949996295
857,0.8469,0.00649693,954.296,0.00795984,0.015229,0.0183175,0.0027036,-0.308196,0.613484,-0.303462,3.98704e-06,4.59542e-05,-1.93746e-05,0.608485,-0.2652287112779299,3.987047948239564e-06,4.5955255910445914e-05,0.8468546445719105,-1.937441231369963e-05,-0.2617420575994055
858,0.8479,0.00648594,954.455,0.00794665,0.0152506,0.0183026,0.00271093,-0.308468,0.614026,-0.303731,4.01892e-06,4.59847e-05,-1.93639e-05,0.609025,-0.265428541890267,4.018928075888439e-06,4.598575731251664e-05,0.8478559111079884,-1.9363712520870102e-05,-0.2619406222777646
859,0.8489,0.00647498,954.613,0.00793349,0.0152722,0.0182877,0.0027182,-0.30874,0.614567,-0.303999,4.05084e-06,4.60152e-05,-1.93533e-05,0.609565,-0.2656283181560689,4.050848204650848e-06,4.6016258715475544e-05,0.8488558716208274,-1.9353112726050448e-05,-0.26213839568817343
860,0.8499,0.00646404,954.772,0.00792036,0.0152937,0.0182729,0.0027254,-0.309013,0.615108,-0.304267,4.08278e-06,4.60456e-05,-1.93426e-05,0.610105,-0.2658287742617089,4.082788334525134e-06,4.604666011487346e-05,0.849856373258665,-1.9342412933109898e-05,-0.26233611610241014
861,0.8509,0.00645312,954.93,0.00790725,0.0153153,0.0182581,0.00273255,-0.309285,0.615648,-0.304536,4.11474e-06,4.60759e-05,-1.9332e-05,0.610644,-0.26602844167911,4.114748465511298e-06,4.6076961510488346e-05,0.850855565457838,-1.93318131380682e-05,-0.2625345210005233
862,0.8519,0.00644224,955.088,0.00789418,0.0153368,0.0182433,0.00273965,-0.309556,0.616188,-0.304804,4.14674e-06,4.61062e-05,-1.93213e-05,0.611183,-0.2662273210220468,4.146748597833039e-06,4.610726290721345e-05,0.8518552973665072,-1.9321113344905605e-05,-0.2627321352674007
863,0.8529,0.00643137,955.246,0.00788114,0.0153583,0.0182285,0.00274668,-0.309828,0.616728,-0.305071,4.17876e-06,4.61365e-05,-1.93106e-05,0.611722,-0.2664268800494707,4.178768731044613e-06,4.6137564304604695e-05,0.8528555692761943,-1.9310413551520966e-05,-0.26292895951007855
864,0.8539,0.00642053,955.404,0.00786812,0.0153798,0.0182138,0.00275365,-0.3101,0.617267,-0.305339,4.2108e-06,4.61667e-05,-1.92999e-05,0.61226,-0.26662638480422063,4.210808865368065e-06,4.616776569843495e-05,0.8538545276231235,-1.9299713758136328e-05,-0.2631264680815991
865,0.8549,0.00640972,955.562,0.00785514,0.0154014,0.018199,0.00276057,-0.310371,0.617807,-0.305607,4.24287e-06,4.61969e-05,-1.92892e-05,0.612798,-0.2668251021265253,4.242879001026267e-06,4.619796709315338e-05,0.8548558794086893,-1.9289013964529644e-05,-0.2633239237279148
866,0.8559,0.00639893,955.719,0.00784218,0.0154229,0.0181843,0.00276742,-0.310642,0.618346,-0.305874,4.27497e-06,4.62271e-05,-1.92785e-05,0.613336,-0.267023765603732,4.274979137797175e-06,4.622816848875999e-05,0.8558559162133985,-1.927831417092296e-05,-0.26352058998416594
867,0.8569,0.00638816,955.876,0.00782925,0.0154443,0.0181697,0.00277422,-0.310913,0.618884,-0.306141,4.3071e-06,4.62572e-05,-1.92677e-05,0.613874,-0.2672223752504308,4.3071092754587426e-06,4.6258269880805614e-05,0.8568546353276736,-1.926751437908436e-05,-0.26371720373753604
868,0.8579,0.00637742,956.033,0.00781635,0.0154658,0.018155,0.00278096,-0.311184,0.619423,-0.306409,4.33925e-06,4.62872e-05,-1.9257e-05,0.614411,-0.2674209310812077,4.339259414454233e-06,4.6288271269068204e-05,0.8578557497522155,-1.925681458514461e-05,-0.2639145010879085
869,0.8589,0.0063667,956.19,0.00780348,0.0154873,0.0181404,0.00278764,-0.311455,0.619961,-0.306676,4.37143e-06,4.63172e-05,-1.92463e-05,0.614948,-0.26761943311064484,4.371439554784473e-06,4.631827265799693e-05,0.8588555450664064,-1.924611479120486e-05,-0.2641110096810535
870,0.8599,0.00635601,956.346,0.00779063,0.0155088,0.0181258,0.00279426,-0.311726,0.620499,-0.306942,4.40363e-06,4.63471e-05,-1.92355e-05,0.615484,-0.2678178813533204,4.4036396960045465e-06,4.6348174043364665e-05,0.8598558784151946,-1.923531499892217e-05,-0.2643067301205059
871,0.8609,0.00634534,956.503,0.00777782,0.0155302,0.0181112,0.00280082,-0.311996,0.621036,-0.307209,4.43586e-06,4.63771e-05,-1.92247e-05,0.616021,-0.2680155438397186,4.435869838337325e-06,4.637817543429179e-05,0.8608548892323011,-1.922451520663948e-05,-0.2645031340024786
872,0.8619,0.0063347,956.659,0.00776503,0.0155517,0.0180967,0.00280733,-0.312267,0.621574,-0.307476,4.46812e-06,4.64069e-05,-1.92139e-05,0.616557,-0.26821388475093066,4.468129982004854e-06,4.640797681676467e-05,0.8618562985176512,-1.921371541424577e-05,-0.26469948545161504
873,0.8629,0.00632408,956.815,0.00775228,0.0155731,0.0180821,0.00281377,-0.312537,0.622111,-0.307742,4.5004e-06,4.64367e-05,-1.92032e-05,0.617093,-0.2684114403308445,4.50041012678426e-06,4.643777820034778e-05,0.8628563838488339,-1.9203015619750907e-05,-0.26489504937732966
874,0.8639,0.00631348,956.971,0.00773954,0.0155945,0.0180676,0.00282015,-0.312807,0.622647,-0.308008,4.53271e-06,4.64665e-05,-1.91924e-05,0.617628,-0.268608942577952,4.5327202726763716e-06,4.646757958459702e-05,0.8638551425139875,-1.919221582702413e-05,-0.2650905612899581
875,0.8649,0.00630291,957.126,0.00772684,0.015616,0.0180531,0.00282648,-0.313077,0.623184,-0.308274,4.56504e-06,4.64963e-05,-1.91816e-05,0.618164,-0.2688063915066511,4.5650504199024056e-06,4.6497380969734436e-05,0.86485630151265,-1.918141603429735e-05,-0.265286021203334
876,0.8659,0.00629236,957.282,0.00771417,0.0156374,0.0180387,0.00283274,-0.313347,0.62372,-0.30854,4.5974e-06,4.65259e-05,-1.91708e-05,0.618698,-0.26900378713133577,4.5974105680191e-06,4.652698234641761e-05,0.8658561324210072,-1.9170616241348526e-05,-0.26548142913128725
877,0.8669,0.00628183,957.437,0.00770152,0.0156588,0.0180242,0.00283895,-0.313617,0.624255,-0.308806,4.62979e-06,4.65556e-05,-1.91599e-05,0.619233,-0.2692011294663962,4.629800717470545e-06,4.6556683728660175e-05,0.8668546325268143,-1.9159716450278808e-05,-0.26567678508764436
878,0.8679,0.00627133,957.592,0.0076889,0.0156802,0.0180098,0.0028451,-0.313886,0.624791,-0.309072,4.6622e-06,4.65852e-05,-1.91491e-05,0.619768,-0.2693976879242719,4.662210868033867e-06,4.658628510734175e-05,0.8678555348277024,-1.914891665710794e-05,-0.2658720890862276
879,0.8689,0.00626085,957.747,0.00767631,0.0157016,0.0179954,0.00285119,-0.314156,0.625326,-0.309338,4.69464e-06,4.66147e-05,-1.91383e-05,0.620302,-0.2695949239204747,4.694651019931939e-06,4.661578648201825e-05,0.8688551048999877,-1.913811686393707e-05,-0.2660673411408562
880,0.8699,0.00625039,957.901,0.00766375,0.015723,0.0179811,0.00285721,-0.314425,0.625861,-0.309603,4.7271e-06,4.66442e-05,-1.91274e-05,0.620835,-0.26979137646188867,4.7271111727198445e-06,4.664528785758293e-05,0.8698552098853383,-1.9127217072423264e-05,-0.2662618075275196
881,0.8709,0.00623996,958.056,0.00765121,0.0157444,0.0179667,0.00286318,-0.314694,0.626396,-0.309868,4.75959e-06,4.66737e-05,-1.91166e-05,0.621369,-0.26998777616467606,4.7596013268425e-06,4.6674789234035785e-05,0.8708558500700088,-1.911641727891933e-05,-0.26645622238741806
882,0.8719,0.00622955,958.21,0.00763871,0.0157658,0.0179524,0.00286909,-0.314963,0.62693,-0.310133,4.79211e-06,4.67031e-05,-1.91057e-05,0.621902,-0.2701841230430486,4.79212148207786e-06,4.670419060670561e-05,0.8718551538843182,-1.91055174872945e-05,-0.2666505857342045
883,0.8729,0.00621917,958.364,0.00762623,0.0157871,0.0179381,0.00287494,-0.315232,0.627464,-0.310398,4.82465e-06,4.67325e-05,-1.90948e-05,0.622435,-0.2703804171112142,4.824661638647143e-06,4.673359198026361e-05,0.8728549914693686,-1.9094617695447624e-05,-0.2668448975815281
884,0.8739,0.00620881,958.518,0.00761377,0.0158085,0.0179238,0.00288073,-0.3155,0.627998,-0.310663,4.85722e-06,4.67618e-05,-1.9084e-05,0.622968,-0.27057592895967053,4.857231796329131e-06,4.676289335003858e-05,0.8738553631102695,-1.9083817901610622e-05,-0.26703915794303423
885,0.8749,0.00619847,958.672,0.00760135,0.0158299,0.0179096,0.00288646,-0.315769,0.628532,-0.310928,4.88981e-06,4.67911e-05,-1.90731e-05,0.6235,-0.270772117646219,4.889821955122997e-06,4.679219472070173e-05,0.874856269092283,-1.9072918109541703e-05,-0.267233366832365
886,0.8759,0.00618815,958.825,0.00758895,0.0158512,0.0178953,0.00289213,-0.316037,0.629065,-0.311192,4.92243e-06,4.68204e-05,-1.90622e-05,0.624032,-0.27096752453299733,4.922442115251613e-06,4.682149609203101e-05,0.8758558338440519,-1.9062018317472784e-05,-0.2674267916903166
887,0.8769,0.00617786,958.978,0.00757658,0.0158726,0.0178811,0.00289774,-0.316305,0.629598,-0.311457,4.95507e-06,4.68496e-05,-1.90513e-05,0.624564,-0.27116287905774694,4.955082276270062e-06,4.685069745957726e-05,0.8768559315058411,-1.905111852518182e-05,-0.26762089787031385
888,0.8779,0.00616759,959.132,0.00756423,0.0158939,0.0178669,0.00290329,-0.316573,0.63013,-0.311721,4.98774e-06,4.68788e-05,-1.90404e-05,0.625096,-0.27135818123449884,4.987752438845305e-06,4.687989882801169e-05,0.8778546845061443,-1.9040218732779834e-05,-0.26781422043357495
889,0.8789,0.00615734,959.284,0.00755191,0.0159152,0.0178528,0.00290878,-0.316841,0.630663,-0.311985,5.02044e-06,4.69079e-05,-1.90295e-05,0.625627,-0.27155343107728036,5.020452602533254e-06,4.6909000192663086e-05,0.8788558478393129,-1.9029318940266826e-05,-0.2680074919664156
890,0.8799,0.00614712,959.437,0.00753962,0.0159366,0.0178386,0.00291421,-0.317109,0.631195,-0.312249,5.05316e-06,4.69369e-05,-1.90186e-05,0.626158,-0.2717486286001153,5.053172767333081e-06,4.693800155353145e-05,0.8798556650781677,-1.9018419147531773e-05,-0.26820071248230615
891,0.8809,0.00613692,959.59,0.00752736,0.0159579,0.0178245,0.00291958,-0.317377,0.631727,-0.312513,5.08591e-06,4.6966e-05,-1.90076e-05,0.626689,-0.2719437738170234,5.085922933245612e-06,4.696710291973716e-05,0.8808560143613053,-1.9007419356675825e-05,-0.26839388199471326
892,0.8819,0.00612674,959.742,0.00751512,0.0159792,0.0178104,0.00292489,-0.317644,0.632258,-0.312777,5.11868e-06,4.6995e-05,-1.89967e-05,0.627219,-0.27213813888052363,5.118693100492067e-06,4.699610428238188e-05,0.8818550141158927,-1.899651956382975e-05,-0.26858700051710005
893,0.8829,0.00611658,959.894,0.00750291,0.0160005,0.0177964,0.00293014,-0.317912,0.632789,-0.313041,5.15148e-06,4.70239e-05,-1.89858e-05,0.627749,-0.27233317972266335,5.151493268851226e-06,4.702500564102152e-05,0.8828545444802143,-1.8985619770872653e-05,-0.2687800680629262
894,0.8839,0.00610645,960.046,0.00749073,0.0160218,0.0177823,0.00293533,-0.318179,0.63332,-0.313304,5.1843e-06,4.70528e-05,-1.89748e-05,0.628279,-0.27252744082866576,5.184313438544308e-06,4.70539070003273e-05,0.8838546057360985,-1.8974619979572616e-05,-0.2689723536183668
895,0.8849,0.00609634,960.198,0.00747857,0.0160432,0.0177683,0.00294045,-0.318446,0.633851,-0.313567,5.21715e-06,4.70817e-05,-1.89639e-05,0.628809,-0.2727216500738765,5.217163609350095e-06,4.7082808360521256e-05,0.8848551981655237,-1.8963720186393473e-05,-0.26916458860935566
896,0.8859,0.00608625,960.35,0.00746644,0.0160645,0.0177543,0.00294552,-0.318713,0.634382,-0.31383,5.25002e-06,4.71105e-05,-1.89529e-05,0.629338,-0.2729158074721407,5.250033781489805e-06,4.711160971693218e-05,0.8858563220506179,-1.8952720394871392e-05,-0.2693567730491898
897,0.8869,0.00607619,960.501,0.00745433,0.0160858,0.0177403,0.00295053,-0.31898,0.634912,-0.314093,5.28292e-06,4.71393e-05,-1.8942e-05,0.629867,-0.2731099130372995,5.282933954742219e-06,4.714041107423128e-05,0.886856090816625,-1.8941820601470205e-05,-0.2695489069511623
898,0.8879,0.00606614,960.653,0.00744226,0.016107,0.0177263,0.00295548,-0.319246,0.635442,-0.314356,5.31585e-06,4.7168e-05,-1.8931e-05,0.630396,-0.2733032400867941,5.315864129107339e-06,4.7169112427525306e-05,0.8878563896005198,-1.893082080972608e-05,-0.2697409903285629
899,0.8889,0.00605612,960.804,0.0074302,0.0161283,0.0177124,0.00296036,-0.319513,0.635971,-0.314619,5.3488e-06,4.71967e-05,-1.892e-05,0.630924,-0.2734972422212535,5.348814304806382e-06,4.719781378170751e-05,0.8888553298270132,-1.8919821017981953e-05,-0.2699330231946777
900,0.8899,0.00604612,960.955,0.00741818,0.0161496,0.0176985,0.00296519,-0.319779,0.6365,-0.314882,5.38177e-06,4.72254e-05,-1.89091e-05,0.631452,-0.2736904662548868,5.381784481839347e-06,4.722651513677789e-05,0.889854798632683,-1.8908921224136677e-05,-0.2701250055627895
901,0.8909,0.00603615,961.105,0.00740618,0.0161709,0.0176846,0.00296995,-0.320046,0.637029,-0.315144,5.41477e-06,4.7254e-05,-1.88981e-05,0.63198,-0.27388436501376057,5.414784659985017e-06,4.7255116487843196e-05,0.890854796297222,-1.8897921432059483e-05,-0.2703162077627501
902,0.8919,0.00602619,961.256,0.00739421,0.0161922,0.0176707,0.00297466,-0.320312,0.637558,-0.315407,5.4478e-06,4.72825e-05,-1.88871e-05,0.632508,-0.27407748608642557,5.447814839243392e-06,4.728361783512547e-05,0.8918553231004702,-1.8886921639871268e-05,-0.27050808936657156
903,0.8929,0.00601626,961.406,0.00738226,0.0162135,0.0176568,0.0029793,-0.320578,0.638087,-0.315669,5.48085e-06,4.73111e-05,-1.88761e-05,0.633035,-0.2742705557957168,5.48086501983569e-06,4.7312219187745086e-05,0.8928563793224165,-1.887592184757203e-05,-0.2706991912117226
904,0.8939,0.00600635,961.557,0.00737034,0.0162347,0.017643,0.00298389,-0.320843,0.638615,-0.315931,5.51393e-06,4.73396e-05,-1.88651e-05,0.633562,-0.27446284861850656,5.513945201762738e-06,4.734072053658167e-05,0.8938560713861787,-1.886492205516177e-05,-0.27089024299474873
905,0.8949,0.00599646,961.707,0.00735844,0.016256,0.0176292,0.00298841,-0.321109,0.639143,-0.316193,5.54703e-06,4.7368e-05,-1.88541e-05,0.634089,-0.27465581583499643,5.547045384801663e-06,4.736912188141318e-05,0.8948562914267242,-1.8853922262529466e-05,-0.27108124472876427
906,0.8959,0.00598659,961.856,0.00734657,0.0162773,0.0176154,0.00299287,-0.321375,0.63967,-0.316454,5.58016e-06,4.73964e-05,-1.88431e-05,0.634616,-0.274848731729033,5.5801755691753385e-06,4.7397523227132865e-05,0.8958551438668065,-1.884292246989716e-05,-0.2712714676987127
907,0.8969,0.00597675,962.006,0.00733472,0.0162986,0.0176017,0.00299727,-0.32164,0.640198,-0.316716,5.61331e-06,4.74248e-05,-1.88321e-05,0.635142,-0.2750408713554998,5.613325754660892e-06,4.7425924573518685e-05,0.8968564196963256,-1.8831922677153834e-05,-0.2714623695649391
908,0.8979,0.00596692,962.156,0.00732291,0.0163198,0.0175879,0.00300161,-0.321905,0.640725,-0.316978,5.64649e-06,4.74531e-05,-1.88211e-05,0.635668,-0.2752329600717116,5.646505941481195e-06,4.745422591612147e-05,0.8978563264818016,-1.8820922884188462e-05,-0.2716532214214281
909,0.8989,0.00595712,962.305,0.00731111,0.0163411,0.0175742,0.00300588,-0.32217,0.641251,-0.317239,5.67969e-06,4.74813e-05,-1.88101e-05,0.636193,-0.2754249978911577,5.6797061294133755e-06,4.7482427254719184e-05,0.8988548615012186,-1.880992309122309e-05,-0.2718432951249399
910,0.8999,0.00594734,962.454,0.00729934,0.0163623,0.0175605,0.0030101,-0.322435,0.641778,-0.3175,5.71292e-06,4.75096e-05,-1.87991e-05,0.636719,-0.275616984827324,5.712936318680306e-06,4.7510728598876284e-05,0.899855821743087,-1.8798923298035675e-05,-0.2720333192256884
911,0.9009,0.00593758,962.603,0.0072876,0.0163836,0.0175468,0.00301425,-0.3227,0.642304,-0.317761,5.74617e-06,4.75378e-05,-1.8788e-05,0.637244,-0.2758089208936927,5.746186509281159e-06,4.753892993902831e-05,0.9008554087736662,-1.878782350661634e-05,-0.27222329373661835
912,0.9019,0.00592784,962.752,0.00727588,0.0164049,0.0175332,0.00301835,-0.322965,0.64283,-0.318022,5.77945e-06,4.75659e-05,-1.8777e-05,0.637769,-0.27600080610374267,5.779466700994718e-06,4.75670312753973e-05,0.9018555217253286,-1.877682371320688e-05,-0.27241321867067114
913,0.9029,0.00591813,962.9,0.00726419,0.0164261,0.0175195,0.00302238,-0.323229,0.643356,-0.318283,5.81275e-06,4.75941e-05,-1.8766e-05,0.638293,-0.2761919166632274,5.812766894042198e-06,4.759523261710363e-05,0.9028561608747814,-1.8765823919686397e-05,-0.2726030940407843
914,0.9039,0.00590843,963.049,0.00725253,0.0164474,0.0175059,0.00302635,-0.323494,0.643881,-0.318544,5.84608e-06,4.76221e-05,-1.87549e-05,0.638818,-0.2763837003928452,5.846097088424429e-06,4.762323395013368e-05,0.9038554226425028,-1.8754724127933997e-05,-0.27279291985989274
915,0.9049,0.00589876,963.197,0.00724088,0.0164686,0.0174923,0.00303026,-0.323758,0.644406,-0.318804,5.87943e-06,4.76502e-05,-1.87439e-05,0.639342,-0.2765747098815796,5.8794472839185374e-06,4.765133528872312e-05,0.9048552091603872,-1.874372433419147e-05,-0.2729819691232599
916,0.9059,0.00588911,963.345,0.00722927,0.0164899,0.0174788,0.00303411,-0.324022,0.644931,-0.319065,5.9128e-06,4.76781e-05,-1.87329e-05,0.639865,-0.2767656689504646,5.912817480746568e-06,4.767923661863627e-05,0.9058555207040007,-1.873272454033792e-05,-0.27317169606887537
917,0.9069,0.00587947,963.493,0.00721768,0.0165111,0.0174652,0.00303789,-0.324286,0.645456,-0.319325,5.94621e-06,4.77061e-05,-1.87218e-05,0.640389,-0.27695657761280956,5.946227678688132e-06,4.7707237954108805e-05,0.9068563575490542,-1.872162474814143e-05,-0.2733606468632298
918,0.9079,0.00586986,963.641,0.00720611,0.0165324,0.0174517,0.00304162,-0.32455,0.64598,-0.319585,5.97963e-06,4.7734e-05,-1.87108e-05,0.640912,-0.2771474358819197,5.97964787796279e-06,4.773513928557627e-05,0.9078558121146372,-1.8710624954065835e-05,-0.2735495485367636
919,0.9089,0.00586028,963.788,0.00719457,0.0165536,0.0174382,0.00304528,-0.324814,0.646504,-0.319845,6.01309e-06,4.77619e-05,-1.86997e-05,0.641435,-0.2773382437710973,6.013108078573026e-06,4.776304061770986e-05,0.9088557905316497,-1.86995251616473e-05,-0.2737384011022467
920,0.9099,0.00585071,963.936,0.00718305,0.0165748,0.0174247,0.00304888,-0.325077,0.647028,-0.320105,6.04656e-06,4.77897e-05,-1.86887e-05,0.641958,-0.2775282788222809,6.046578280516357e-06,4.779084194583838e-05,0.9098562930746619,-1.8688525367349662e-05,-0.27392720457244535
921,0.9109,0.00584116,964.083,0.00717156,0.0165961,0.0174112,0.00305242,-0.325341,0.647551,-0.320365,6.08006e-06,4.78175e-05,-1.86776e-05,0.64248,-0.2777189861821927,6.080078483572393e-06,4.781864327485508e-05,0.9108554091620227,-1.8677425574709083e-05,-0.27411595896012275
922,0.9119,0.00583163,964.23,0.00716009,0.0166173,0.0173978,0.0030559,-0.325604,0.648074,-0.320624,6.11359e-06,4.78452e-05,-1.86666e-05,0.643002,-0.27790892111128873,6.113608687963179e-06,4.78463445998667e-05,0.9118550479237648,-1.8666425780078377e-05,-0.27430393858234026
923,0.9129,0.00582213,964.377,0.00714865,0.0166386,0.0173844,0.00305931,-0.325867,0.648597,-0.320884,6.14714e-06,4.7873e-05,-1.86555e-05,0.643524,-0.2780988060940668,6.147158893687887e-06,4.7874145930437706e-05,0.912855209633318,-1.8655325987215754e-05,-0.2744925950319076
924,0.9139,0.00581264,964.523,0.00713723,0.0166598,0.017371,0.00306266,-0.32613,0.64912,-0.321143,6.18072e-06,4.79006e-05,-1.86445e-05,0.644046,-0.2782886411436607,6.1807391007473456e-06,4.790174725211038e-05,0.9138558945642561,-1.8644326192363003e-05,-0.2746804771180139
925,0.9149,0.00580318,964.67,0.00712583,0.0166811,0.0173576,0.00306595,-0.326393,0.649642,-0.321402,6.21432e-06,4.79283e-05,-1.86334e-05,0.644567,-0.2784784262732015,6.214339308918682e-06,4.792944857934245e-05,0.9148551881341496,-1.8633226399278335e-05,-0.2748683105489611
926,0.9159,0.00579374,964.816,0.00711446,0.0167023,0.0173442,0.00306918,-0.326656,0.650164,-0.321661,6.24794e-06,4.79558e-05,-1.86223e-05,0.645088,-0.2786681614958162,6.24795951842394e-06,4.795694989767618e-05,0.9158550034714557,-1.8622126606082645e-05,-0.275056095337349
927,0.9169,0.00578432,964.962,0.00710312,0.0167236,0.0173309,0.00307235,-0.326919,0.650686,-0.32192,6.28159e-06,4.79834e-05,-1.86113e-05,0.645609,-0.2788578468246288,6.281609729263948e-06,4.798455122179135e-05,0.9168553408486086,-1.8611126810785805e-05,-0.2752438314957747
928,0.9179,0.00577491,965.108,0.0070918,0.0167448,0.0173176,0.00307545,-0.327181,0.651208,-0.322179,6.31527e-06,4.80109e-05,-1.86002e-05,0.646129,-0.27904676131988115,6.3152899414387065e-06,4.8012052541679395e-05,0.9178562005381841,-1.860002701736807e-05,-0.2754315190368315
929,0.9189,0.00576553,965.254,0.0070805,0.0167661,0.0173043,0.00307849,-0.327444,0.651729,-0.322438,6.34897e-06,4.80384e-05,-1.85891e-05,0.646649,-0.2792363470900324,6.3489901547253424e-06,4.803955386245562e-05,0.9188556639562768,-1.858892722372829e-05,-0.27561915797310976
930,0.9199,0.00575617,965.4,0.00706922,0.0167873,0.017291,0.00308147,-0.327706,0.65225,-0.322696,6.38269e-06,4.80658e-05,-1.85781e-05,0.647169,-0.2794251624312051,6.382710369345901e-06,4.806695517900472e-05,0.9198556482304818,-1.8577927428209406e-05,-0.2758060241235828
931,0.9209,0.00574683,965.545,0.00705798,0.0168085,0.0172777,0.00308439,-0.327968,0.652771,-0.322955,6.41644e-06,4.80932e-05,-1.8567e-05,0.647689,-0.27961392830923826,6.416460585301209e-06,4.8094356496442003e-05,0.9208561536322355,-1.8566827634347582e-05,-0.27599356607560366
932,0.9219,0.00573751,965.691,0.00704675,0.0168298,0.0172645,0.00308724,-0.32823,0.653291,-0.323213,6.45022e-06,4.81206e-05,-1.85559e-05,0.648208,-0.2798026447370897,6.450240802813312e-06,4.812175781454542e-05,0.9218552585768967,-1.8555727840374736e-05,-0.2761803356412461
933,0.9229,0.00572821,965.836,0.00703555,0.0168511,0.0172513,0.00309003,-0.328492,0.653811,-0.323471,6.48402e-06,4.81479e-05,-1.85449e-05,0.648727,-0.27999131172771363,6.484041021215248e-06,4.8149059128643756e-05,0.9228548831912315,-1.8544728044411762e-05,-0.2763670570265563
934,0.9239,0.00571893,965.981,0.00702437,0.0168723,0.0172381,0.00309276,-0.328753,0.654331,-0.323729,6.51784e-06,4.81751e-05,-1.85338e-05,0.649246,-0.2801792094736302,6.517861241173151e-06,4.817626043873702e-05,0.9238550277455386,-1.853362825021687e-05,-0.2765537302439629
935,0.9249,0.00570967,966.125,0.00701322,0.0168936,0.0172249,0.00309542,-0.329015,0.654851,-0.323987,6.55169e-06,4.82024e-05,-1.85227e-05,0.649765,-0.28036777781721633,6.5517114624658035e-06,4.820356175438967e-05,0.9248556925102567,-1.8522528455799936e-05,-0.2767403553058917
936,0.9259,0.00570043,966.27,0.00700209,0.0169148,0.0172117,0.00309802,-0.329276,0.65537,-0.324245,6.58556e-06,4.82296e-05,-1.85116e-05,0.650283,-0.28055557731830516,6.585581684870334e-06,4.8230763065815196e-05,0.9258549519000512,-1.8511428661383e-05,-0.2769269322247654
937,0.9269,0.00569121,966.415,0.00699098,0.0169361,0.0171986,0.00310056,-0.329537,0.655889,-0.324502,6.61946e-06,4.82567e-05,-1.85006e-05,0.650801,-0.28074332781012,6.619481908609615e-06,4.825786437323565e-05,0.9268547300400729,-1.8500428864975937e-05,-0.2771127381261026
938,0.9279,0.00568201,966.559,0.0069799,0.0169573,0.0171855,0.00310304,-0.329799,0.656408,-0.32476,6.65338e-06,4.82839e-05,-1.84895e-05,0.651319,-0.2809317483740621,6.6534021336828175e-06,4.828506568621549e-05,0.9278550271996231,-1.8489329070225935e-05,-0.2772992189826011
939,0.9289,0.00567283,966.703,0.00696884,0.0169786,0.0171724,0.00310545,-0.33006,0.656927,-0.325017,6.68732e-06,4.83109e-05,-1.84784e-05,0.651837,-0.281119400698043,6.687342360089943e-06,4.8312066990297e-05,0.9288558436481431,-1.847822927536491e-05,-0.27748492921853507
940,0.9299,0.00566367,966.847,0.00695781,0.0169999,0.0171593,0.0031078,-0.33032,0.657445,-0.325274,6.72129e-06,4.8338e-05,-1.84674e-05,0.652354,-0.2813062853578029,6.721312587831818e-06,4.8339168299937896e-05,0.9298552497989987,-1.846722947862478e-05,-0.27767059173307096
941,0.9309,0.00565453,966.991,0.00694679,0.0170211,0.0171463,0.00311009,-0.330581,0.657963,-0.325531,6.75529e-06,4.8365e-05,-1.84563e-05,0.652871,-0.2814938399403868,6.755312817130488e-06,4.836616960557372e-05,0.930855173776346,-1.845612968354171e-05,-0.27785620653847143
942,0.9319,0.00564541,967.134,0.0069358,0.0170424,0.0171332,0.00311231,-0.330842,0.658481,-0.325788,6.78931e-06,4.8392e-05,-1.84452e-05,0.653387,-0.28168134557761226,6.7893330473189906e-06,4.839317091165363e-05,0.9318556158484887,-1.844502988834762e-05,-0.2780417736469962
943,0.9329,0.00563631,967.278,0.00692484,0.0170637,0.0171202,0.00311447,-0.331102,0.658998,-0.326045,6.82335e-06,4.84189e-05,-1.84341e-05,0.653904,-0.28186808415069564,6.8233732790634605e-06,4.8420072213950505e-05,0.9328546434282592,-1.8433930093042505e-05,-0.27822729307090177
944,0.9339,0.00562723,967.421,0.0069139,0.017085,0.0171072,0.00311657,-0.331363,0.659516,-0.326301,6.85742e-06,4.84458e-05,-1.84231e-05,0.65442,-0.282055492122928,6.85744351214268e-06,4.844697351669147e-05,0.9338561214939809,-1.8422930295747264e-05,-0.2784120432348457
945,0.9349,0.00561816,967.564,0.00690298,0.0171062,0.0170942,0.0031186,-0.331623,0.660033,-0.326558,6.89152e-06,4.84726e-05,-1.8412e-05,0.654936,-0.2822421334305546,6.89154374655665e-06,4.847377481542736e-05,0.9348561836025728,-1.8411830500220105e-05,-0.27859746751169423
946,0.9359,0.00560912,967.707,0.00689208,0.0171275,0.0170813,0.00312057,-0.331883,0.660549,-0.326814,6.92563e-06,4.84994e-05,-1.84009e-05,0.655452,-0.28242872621774917,6.9256539823037144e-06,4.8500576114829386e-05,0.935854827021156,-1.8400730704470902e-05,-0.2787821229231101
947,0.9369,0.0056001,967.85,0.00688121,0.0171488,0.0170684,0.00312248,-0.332143,0.661066,-0.327071,6.95978e-06,4.85262e-05,-1.83899e-05,0.655967,-0.2826152704971254,6.959804219386356e-06,4.852737741511959e-05,0.9368559227276674,-1.8389730906842594e-05,-0.27896745210169926
948,0.9379,0.0055911,967.993,0.00687036,0.0171701,0.0170554,0.00312432,-0.332402,0.661582,-0.327327,6.99394e-06,4.8553e-05,-1.83788e-05,0.656482,-0.2828010490827013,6.993964457580049e-06,4.8554178716075924e-05,0.937855598277906,-1.8378631110871346e-05,-0.2791520128091828
949,0.9389,0.00558211,968.135,0.00685953,0.0171914,0.0170425,0.0031261,-0.332662,0.662098,-0.327583,7.02813e-06,4.85797e-05,-1.83677e-05,0.656997,-0.2829874965707161,7.028154697330535e-06,4.858088001280514e-05,0.9388557897938363,-1.8367531314789076e-05,-0.27933652627517225
950,0.9399,0.00557315,968.277,0.00684873,0.0172127,0.0170297,0.00312781,-0.332922,0.662613,-0.327839,7.06235e-06,4.86063e-05,-1.83567e-05,0.657512,-0.28317389558868533,7.062374938415772e-06,4.860748130530723e-05,0.9398545576862376,-1.83565315168277e-05,-0.2795209925117601
951,0.9409,0.0055642,968.42,0.00683795,0.017234,0.0170168,0.00312947,-0.333181,0.663129,-0.328094,7.09659e-06,4.86329e-05,-1.83456e-05,0.658026,-0.2833595295090974,7.096615180834931e-06,4.86340825986975e-05,0.9408557809313858,-1.8345431720523386e-05,-0.2797046912360869
952,0.9419,0.00555528,968.562,0.00682719,0.0172553,0.017004,0.00313105,-0.33344,0.663644,-0.32835,7.13086e-06,4.86595e-05,-1.83346e-05,0.65854,-0.2835451153565499,7.13088542458884e-06,4.866068389275391e-05,0.9418555790844922,-1.8334431922228944e-05,-0.2798890632345077
953,0.9429,0.00554637,968.703,0.00681645,0.0172766,0.0169912,0.00313258,-0.333699,0.664159,-0.328605,7.16514e-06,4.86861e-05,-1.83235e-05,0.659054,-0.283730653143492,7.165165669675844e-06,4.868728518747645e-05,0.9428558922662562,-1.8323332125702585e-05,-0.280072668112766
954,0.9439,0.00553748,968.845,0.00680574,0.0172979,0.0169784,0.00313403,-0.333958,0.664673,-0.328861,7.19946e-06,4.87126e-05,-1.83125e-05,0.659567,-0.28391614288236966,7.199485916098425e-06,4.8713786477971865e-05,0.9438547768862364,-1.8312332327186098e-05,-0.28025694592116324
955,0.9449,0.00552862,968.987,0.00679505,0.0173193,0.0169656,0.00313543,-0.334217,0.665188,-0.329116,7.2338e-06,4.87391e-05,-1.83014e-05,0.66008,-0.28410158458562595,7.233826164076973e-06,4.874028776913342e-05,0.9448561199200323,-1.8301232530437694e-05,-0.2804404570012963
956,0.9459,0.00551977,969.128,0.00678438,0.0173406,0.0169528,0.00313676,-0.334476,0.665702,-0.329371,7.26816e-06,4.87655e-05,-1.82904e-05,0.660594,-0.2842869782657004,7.268186413167399e-06,4.876668905628989e-05,0.9458560329212982,-1.8290232731699163e-05,-0.2806239212920697
957,0.9469,0.00551094,969.269,0.00677373,0.0173619,0.0169401,0.00313803,-0.334734,0.666215,-0.329626,7.30255e-06,4.87919e-05,-1.82793e-05,0.661106,-0.28447160840699537,7.302576663592575e-06,4.87930903441125e-05,0.9468545131544692,-1.8279132934617692e-05,-0.2808073388054134
958,0.9479,0.00550212,969.41,0.00676311,0.0173833,0.0169274,0.00313923,-0.334993,0.666729,-0.329881,7.33696e-06,4.88183e-05,-1.82683e-05,0.661619,-0.28465690626330975,7.336986915573718e-06,4.881949163260124e-05,0.9478554535938866,-1.8268133135657116e-05,-0.280990709553254
959,0.9489,0.00549333,969.551,0.00675251,0.0174046,0.0169147,0.00314037,-0.335251,0.667242,-0.330135,7.37139e-06,4.88446e-05,-1.82572e-05,0.662131,-0.28484144097549235,7.3714171686667385e-06,4.884579291686286e-05,0.9488549597930003,-1.82570333383536e-05,-0.28117331472118945
960,0.9499,0.00548456,969.692,0.00674193,0.017426,0.016902,0.00314144,-0.335509,0.667755,-0.33039,7.40585e-06,4.88709e-05,-1.82462e-05,0.662643,-0.2850259280838604,7.405877423316554e-06,4.887209420179062e-05,0.9498549788703361,-1.8246033539059958e-05,-0.2813565921570693
961,0.9509,0.0054758,969.832,0.00673137,0.0174473,0.0168893,0.00314245,-0.335767,0.668268,-0.330644,7.44034e-06,4.88971e-05,-1.82352e-05,0.663155,-0.28521036760069396,7.440367679301119e-06,4.8898295482713294e-05,0.9508555110890684,-1.8235033739766315e-05,-0.281539104402625
962,0.9519,0.00546707,969.973,0.00672084,0.0174687,0.0168767,0.00314339,-0.336025,0.66878,-0.330899,7.47485e-06,4.89234e-05,-1.82241e-05,0.663666,-0.2853947595382702,7.474877936841651e-06,4.8924596768973316e-05,0.9518546048569252,-1.8223933942129733e-05,-0.2817222885740278
963,0.9529,0.00545835,970.113,0.00671032,0.01749,0.016864,0.00314427,-0.336283,0.669293,-0.331153,7.50938e-06,4.89495e-05,-1.82131e-05,0.664177,-0.285579103908863,7.509408195494061e-06,4.8950698046335006e-05,0.9528561631469532,-1.8212934142503023e-05,-0.2819047079444892
964,0.9539,0.00544965,970.253,0.00669983,0.0175114,0.0168514,0.00314508,-0.336541,0.669805,-0.331407,7.54394e-06,4.89757e-05,-1.82021e-05,0.664688,-0.28576340072474293,7.54396845548122e-06,4.8976899329256085e-05,0.9538562815109375,-1.820193434276529e-05,-0.2820870809863145
965,0.9549,0.00544097,970.393,0.00668936,0.0175328,0.0168388,0.00314583,-0.336798,0.670316,-0.331661,7.57852e-06,4.90018e-05,-1.81911e-05,0.665199,-0.2859469359454706,7.578548717024347e-06,4.9003000607728e-05,0.9548549572106997,-1.8190934542916537e-05,-0.2822694077112696
966,0.9559,0.00543231,970.533,0.00667892,0.0175542,0.0168263,0.00314652,-0.337056,0.670828,-0.331914,7.61313e-06,4.90279e-05,-1.81801e-05,0.665709,-0.2861311378729263,7.613158979902224e-06,4.902910188708809e-05,0.9558560992192755,-1.817993474295676e-05,-0.28245097058244706
967,0.9569,0.00542366,970.672,0.00666849,0.0175756,0.0168137,0.00314713,-0.337313,0.671339,-0.332168,7.64776e-06,4.90539e-05,-1.8169e-05,0.666219,-0.2863145785973502,7.647789244114023e-06,4.905510316222106e-05,0.9568557970870284,-1.8168834944765067e-05,-0.28263320489118215
968,0.9579,0.00541504,970.812,0.00665809,0.017597,0.0168012,0.00314769,-0.33757,0.67185,-0.332422,7.68242e-06,4.90799e-05,-1.8158e-05,0.666729,-0.28649797218356543,7.682449509882616e-06,4.908110443802016e-05,0.9578560059309347,-1.8157835144472223e-05,-0.28281539291828084
969,0.9589,0.00540643,970.951,0.00664771,0.0176184,0.0167887,0.00314818,-0.337827,0.67236,-0.332675,7.7171e-06,4.91059e-05,-1.8147e-05,0.667239,-0.28668131864368496,7.717129776985132e-06,4.91071057144854e-05,0.9588547671564238,-1.814683534417938e-05,-0.2829968176726734
970,0.9599,0.00539784,971.09,0.00663735,0.0176398,0.0167762,0.0031486,-0.338084,0.672871,-0.332928,7.7518e-06,4.91318e-05,-1.8136e-05,0.667748,-0.28686461798981866,7.751830045199526e-06,4.9133006986723515e-05,0.9598559977350667,-1.8135835543775514e-05,-0.28317819653240894
971,0.9609,0.00538927,971.229,0.00662701,0.0176612,0.0167637,0.00314896,-0.338341,0.673381,-0.333181,7.78653e-06,4.91577e-05,-1.8125e-05,0.668257,-0.2870478702340733,7.786560315192759e-06,4.9158908259627765e-05,0.9608557792165191,-1.8124835743149603e-05,-0.2833595295090974
972,0.9619,0.00538072,971.368,0.00661669,0.0176827,0.0167513,0.00314925,-0.338597,0.673891,-0.333434,7.82128e-06,4.91835e-05,-1.81141e-05,0.668766,-0.2872303626192714,7.82131058629787e-06,4.918470952808285e-05,0.9618560707165709,-1.8113935940644588e-05,-0.2835408166143458
973,0.9629,0.00537219,971.506,0.0066064,0.0177041,0.0167388,0.00314948,-0.338854,0.6744,-0.333687,7.85606e-06,4.92093e-05,-1.81031e-05,0.669274,-0.28741352087923366,7.856090858959774e-06,4.921051079742611e-05,0.9628549096395063,-1.8102936139907655e-05,-0.2837220578597581
974,0.9639,0.00536367,971.645,0.00659612,0.0177256,0.0167264,0.00314964,-0.33911,0.67491,-0.33394,7.89086e-06,4.92351e-05,-1.80921e-05,0.669783,-0.2875959196698473,7.890891132955602e-06,4.9236312067435506e-05,0.9638562209561048,-1.8091936338948678e-05,-0.28390325325693533
975,0.9649,0.00535517,971.783,0.00658587,0.017747,0.016714,0.00314974,-0.339366,0.675419,-0.334192,7.92569e-06,4.92609e-05,-1.80811e-05,0.670291,-0.2877782717723468,7.92572140828618e-06,4.9262113338111035e-05,0.9648560782146567,-1.8080936537878678e-05,-0.2840836869015204
976,0.9659,0.00534669,971.921,0.00657564,0.0177685,0.0167016,0.00314977,-0.339622,0.675928,-0.334445,7.96054e-06,4.92866e-05,-1.80701e-05,0.670799,-0.28796057719868284,7.960571685172724e-06,4.92878146043374e-05,0.9658564445300972,-1.8069936736697656e-05,-0.28426479081812295
977,0.9669,0.00533823,972.059,0.00656543,0.0177899,0.0166893,0.00314973,-0.339878,0.676436,-0.334697,7.99542e-06,4.93123e-05,-1.80592e-05,0.671306,-0.28814283596080315,7.995451963394018e-06,4.931351587145194e-05,0.9668553533052657,-1.805903693363753e-05,-0.2844451333667213
978,0.9679,0.00532979,972.197,0.00655524,0.0178114,0.0166769,0.00314963,-0.340134,0.676944,-0.334949,8.03032e-06,4.93379e-05,-1.80482e-05,0.671813,-0.28832504807065196,8.03035224317128e-06,4.9339117134117316e-05,0.9678547696550048,-1.8048037132234462e-05,-0.2846254304747231
979,0.9689,0.00532136,972.335,0.00654507,0.0178329,0.0166646,0.00314946,-0.34039,0.677452,-0.335202,8.06524e-06,4.93635e-05,-1.80373e-05,0.67232,-0.28850721354017095,8.065272524060418e-06,4.936471839767087e-05,0.9688546938372282,-1.803713732884127e-05,-0.2848063973475383
980,0.9699,0.00531295,972.473,0.00653493,0.0178544,0.0166523,0.00314923,-0.340645,0.67796,-0.335454,8.10019e-06,4.93891e-05,-1.80263e-05,0.672827,-0.28868862107027504,8.100222806728397e-06,4.9390319661668514e-05,0.9698551261099801,-1.8026137527216157e-05,-0.2849866034284868
981,0.9709,0.00530456,972.61,0.0065248,0.0178759,0.01664,0.00314893,-0.340901,0.678468,-0.335705,8.13516e-06,4.94146e-05,-1.80154e-05,0.673334,-0.28887069347701866,8.135193090508253e-06,4.9415820921439035e-05,0.9708560667314361,-1.801523772360092e-05,-0.2851660492696311
982,0.9719,0.00529619,972.747,0.0065147,0.0178974,0.0166277,0.00314857,-0.341156,0.678975,-0.335957,8.17016e-06,4.94401e-05,-1.80044e-05,0.67384,-0.28905200833155553,8.170193375844903e-06,4.944132218187569e-05,0.9718555441033734,-1.8004237921753763e-05,-0.2853461647297141
983,0.9729,0.00528784,972.884,0.00650462,0.017919,0.0166155,0.00314813,-0.341411,0.679482,-0.336209,8.20518e-06,4.94656e-05,-1.79935e-05,0.674346,-0.2892332769566991,8.205213662515476e-06,4.946682344297848e-05,0.9728555283388169,-1.799333811791648e-05,-0.2855262348064196
984,0.9739,0.0052795,973.021,0.00649455,0.0179405,0.0166032,0.00314764,-0.341666,0.679989,-0.33646,8.24023e-06,4.9491e-05,-1.79826e-05,0.674852,-0.28941449936423613,8.240263950742843e-06,4.949222469985415e-05,0.9738560196948121,-1.7982438313968174e-05,-0.28570554521708524
985,0.9749,0.00527118,973.158,0.00648451,0.0179621,0.016591,0.00314707,-0.341921,0.680495,-0.336711,8.2753e-06,4.95164e-05,-1.79717e-05,0.675357,-0.2895956755659508,8.275334240304133e-06,4.9517625957173905e-05,0.9748550435725032,-1.797153851001987e-05,-0.28588481062648563
986,0.9759,0.00526288,973.295,0.00647449,0.0179836,0.0165788,0.00314644,-0.342176,0.681001,-0.336963,8.31039e-06,4.95417e-05,-1.79608e-05,0.675862,-0.28977680557362395,8.31042453142139e-06,4.954292721026654e-05,0.9758545730841912,-1.796063870584952e-05,-0.2860647449815269
987,0.9769,0.00525459,973.431,0.00646449,0.0180052,0.0165666,0.00314574,-0.34243,0.681507,-0.337214,8.34551e-06,4.95671e-05,-1.79499e-05,0.676367,-0.28995717935656806,8.345544823873396e-06,4.9568328468918565e-05,0.9768546084857912,-1.7949738901457124e-05,-0.2862439202431005
988,0.9779,0.00524632,973.568,0.00645451,0.0180268,0.0165545,0.00314498,-0.342685,0.682013,-0.337465,8.38066e-06,4.95924e-05,-1.7939e-05,0.676872,-0.2901382171925271,8.380695117882198e-06,4.959362972334347e-05,0.9778551500333488,-1.793883909706473e-05,-0.2864230505373271
989,0.9789,0.00523807,973.704,0.00644455,0.0180483,0.0165423,0.00314415,-0.342939,0.682519,-0.337715,8.41583e-06,4.96176e-05,-1.79281e-05,0.677376,-0.29031849918857744,8.415865413224921e-06,4.961883097354125e-05,0.9788561979830381,-1.7927939292561312e-05,-0.2866014224772713
990,0.9799,0.00522984,973.84,0.00643461,0.0180699,0.0165302,0.00314325,-0.343194,0.683024,-0.337966,8.45102e-06,4.96428e-05,-1.79172e-05,0.677881,-0.2904994448997257,8.451055709901567e-06,4.964403222418312e-05,0.9798557727344013,-1.7917039487946873e-05,-0.2867804630496976
991,0.9809,0.00522163,973.976,0.0064247,0.0180916,0.0165181,0.00314229,-0.343448,0.683529,-0.338217,8.48624e-06,4.9668e-05,-1.79063e-05,0.678385,-0.2906796351555899,8.486276008135007e-06,4.9669233475491126e-05,0.9808558523984938,-1.790613968322141e-05,-0.28695945868857975
992,0.9819,0.00521343,974.111,0.0064148,0.0181132,0.016506,0.00314126,-0.343702,0.684034,-0.338467,8.52148e-06,4.96932e-05,-1.78955e-05,0.678888,-0.29085977964894116,8.521516307924415e-06,4.9694434727465264e-05,0.9818564372303604,-1.7895339876505822e-05,-0.2871376965432475
993,0.9829,0.00520525,974.247,0.00640492,0.0181348,0.0164939,0.00314016,-0.343956,0.684538,-0.338717,8.55674e-06,4.97183e-05,-1.78846e-05,0.679392,-0.2910398783914018,8.556776609047745e-06,4.971953597521228e-05,0.9828555446286398,-1.7884440071447294e-05,-0.2873158898440209
994,0.9839,0.00519709,974.383,0.00639507,0.0181564,0.0164819,0.00313899,-0.344209,0.685042,-0.338968,8.59204e-06,4.97434e-05,-1.78737e-05,0.679895,-0.291219222614168,8.592076911728697e-06,4.974463722340339e-05,0.9838551557039639,-1.7873540266388765e-05,-0.28749475110764244
995,0.9849,0.00518894,974.518,0.00638523,0.0181781,0.0164698,0.00313776,-0.344463,0.685546,-0.339218,8.62735e-06,4.97684e-05,-1.78629e-05,0.680398,-0.29139923006970936,8.627387215742743e-06,4.976963846736737e-05,0.9848552707102498,-1.786274045934011e-05,-0.2876728551559319
996,0.9859,0.00518081,974.653,0.00637541,0.0181998,0.0164578,0.00313646,-0.344717,0.68605,-0.339468,8.66269e-06,4.97934e-05,-1.78521e-05,0.6809,-0.29157919180916314,8.662727521313585e-06,4.979463971199749e-05,0.9858558899015428,-1.785194065218043e-05,-0.28785091468377455
997,0.9869,0.0051727,974.788,0.00636562,0.0182215,0.0164458,0.00313509,-0.34497,0.686553,-0.339717,8.69806e-06,4.98184e-05,-1.78412e-05,0.681403,-0.2917583996028936,8.698097828219176e-06,4.98196409570717e-05,0.9868550266759961,-1.7841040846788836e-05,-0.28802821773087284
998,0.9879,0.0051646,974.923,0.00635584,0.0182431,0.0164338,0.00313366,-0.345223,0.687056,-0.339967,8.73344e-06,4.98433e-05,-1.78304e-05,0.681905,-0.2919375620627873,8.733478136679906e-06,4.9844542197918784e-05,0.9878546661426635,-1.7830241039407113e-05,-0.2882061884291759
999,0.9889,0.00515652,975.057,0.00634609,0.0182648,0.0164219,0.00313215,-0.345476,0.687559,-0.340217,8.76886e-06,4.98682e-05,-1.78196e-05,0.682407,-0.29211667920031203,8.768898446476214e-06,4.9869443439432004e-05,0.9888548085544628,-1.7819441231914368e-05,-0.2883841146403655
