,Time,S11,S22,S33,S12,S13,S23,LE11,LE22,LE33,LE12,LE13,LE23,SDV_EPBAR,E11,E12,E13,E22,E23,E33
0,1e-05,-1.66533e-16,2.08407,-2.22045e-16,-1.69736e-17,0.0,-3.59433e-39,-2.99999e-06,9.99995e-06,-2.99999e-06,0.0,0.0,0.0,0.0,-2.999985500018454e-06,0.0,0.0,9.999999999621423e-06,0.0,-2.999985500018454e-06
1,2e-05,3.33067e-16,4.16811,4.44089e-16,2.20659e-22,0.0,-3.59433e-39,-5.99994e-06,1.99998e-05,-5.99994e-06,0.0,0.0,0.0,0.0,-5.999922000343716e-06,0.0,0.0,1.9999999997244444e-05,0.0,-5.999922000343716e-06
2,3.5e-05,-1.11022e-16,7.29414,-2.22045e-16,2.20659e-22,1.37033e-38,-3.59433e-39,-1.04998e-05,3.49994e-05,-1.04998e-05,0.0,0.0,0.0,0.0,-1.0499744877323636e-05,0.0,0.0,3.5000012486241516e-05,0.0,-1.0499744877323636e-05
3,5.75e-05,-4.21885e-15,11.9831,-4.44089e-15,-1.69731e-17,3.39477e-17,-1.0783e-38,-1.72495e-05,5.74983e-05,-1.72495e-05,0.0,0.0,0.0,0.0,-1.7249351228265652e-05,0.0,0.0,5.749995305892597e-05,0.0,-1.7249351228265652e-05
4,9.125e-05,-2.88658e-14,19.0163,-2.93099e-14,-1.69724e-17,0.0,-3.39462e-17,-2.73738e-05,9.12458e-05,-2.73738e-05,0.0,0.0,0.0,0.0,-2.737342534098186e-05,0.0,0.0,9.124996302456445e-05,0.0,-2.737342534098186e-05
5,0.00014188,-1.57208e-13,29.5657,-1.57208e-13,1.69742e-17,1.35791e-16,1.48934e-21,-4.25595e-05,0.000141865,-4.25595e-05,0.0,0.0,0.0,0.0,-4.255859435731146e-05,0.0,0.0,0.00014187506331508892,0.0,-4.255859435731146e-05
6,0.00021781,-8.01581e-13,45.3888,-8.01137e-13,8.48612e-17,6.78954e-17,-6.78872e-17,-6.53366e-05,0.000217789,-6.53366e-05,0.0,0.0,0.0,0.0,-6.533446561085565e-05,0.0,0.0,0.0002178127177461242,0.0,-6.533446561085565e-05
7,0.00033172,-4.04787e-12,69.1212,-4.05009e-12,-1.86693e-16,4.75268e-16,-6.78772e-17,-9.94991e-05,0.000331664,-9.94991e-05,0.0,0.0,0.0,0.0,-9.949415012866503e-05,0.0,0.0,0.0003317190065854625,0.0,-9.949415012866503e-05
8,0.00050258,-2.05174e-11,104.715,-2.05169e-11,-1.86651e-16,3.39477e-16,2.03659e-16,-0.000150736,0.000502452,-0.000150736,0.0,0.0,0.0,0.0,-0.00015072463989995732,0.0,0.0,0.0005025782501502096,0.0,-0.00015072463989995732
9,0.00075887,-1.03756e-10,158.094,-1.03753e-10,-1.86589e-16,6.78954e-17,2.03591e-16,-0.000227574,0.000758579,-0.000227574,0.0,0.0,0.0,0.0,-0.0002275481070015406,0.0,0.0,0.0007588667938165372,0.0,-0.0002275481070015406
10,0.0011433,-5.24726e-10,238.136,-5.24729e-10,3.56396e-16,6.11059e-16,2.0349e-16,-0.000342794,0.00114265,-0.000342794,0.0,0.0,0.0,0.0,-0.00034273525284966855,0.0,0.0,0.0011433030732321825,0.0,-0.00034273525284966855
11,0.00172,-0.000137316,357.635,-0.000184975,2.76716e-05,-4.14128e-05,-3.8816e-05,-0.00051603,0.00171847,-0.00051603,3.45914e-10,-5.54192e-10,-4.85226e-10,2.43749e-06,-0.0005158968794185537,3.459139641392994e-10,-5.541920256035837e-10,0.001719947415747436,-4.852259705145912e-10,-0.0005158968794185537
12,0.0025849,-0.173421,372.128,-0.282775,0.0369281,-0.0172144,-0.0886063,-0.00093446,0.00258159,-0.000934567,7.82872e-07,-4.17964e-06,1.80649e-06,0.000798196,-0.0009340235282199183,7.828723065372856e-07,-4.179631265310846e-06,0.0025849251728629064,1.8064916316173907e-06,-0.0009341304282737273
13,0.0032337,0.0883325,382.11,0.106753,-0.0409371,0.028441,0.000963421,-0.00124838,0.00322844,-0.00124735,-3.45968e-07,-4.68034e-06,3.98347e-06,0.00139905,-0.0012476010978434982,-3.4596794018515453e-07,-4.68032904721305e-06,0.003233657025190295,3.9834779339553705e-06,-0.0012465723823428254
14,0.0038824,-0.187333,390.55,-0.289639,0.0364971,-0.0283224,-0.102228,-0.00156386,0.00387487,-0.0015636,8.20291e-07,-6.48368e-06,3.06354e-06,0.0020048,-0.0015626378081455838,8.202913364119269e-07,-6.483658981037976e-06,0.003882387014774169,3.063544692594178e-06,-0.0015623782143976417
15,0.0048555,-0.18911,402.364,-0.306403,0.0310798,-0.00649004,-0.111993,-0.00203723,0.00484374,-0.00203696,1.01394e-06,-8.73173e-06,4.43254e-06,0.00291875,-0.0020351562554341562,1.0139405139941715e-06,-8.731691878538506e-06,0.004855489872042096,4.432549823629728e-06,-0.002034886804889946
16,0.0058555,0.0718914,413.527,0.123144,-0.047391,0.0408882,-0.0174931,-0.00252419,0.00583841,-0.00252233,-2.50893e-07,-9.89667e-06,7.34545e-06,0.00386233,-0.0025210069112254763,-2.5089296851188436e-07,-9.89662102812705e-06,0.0058554867331450655,7.345476977782539e-06,-0.0025191515985729662
17,0.0068555,0.167943,423.407,0.261541,-0.0705848,0.0668426,0.00692511,-0.00301191,0.0068321,-0.00300921,-9.83378e-07,-1.07183e-05,9.14471e-06,0.00481012,-0.0030073787494571125,-9.833775165279945e-07,-1.0718242559271118e-05,0.00685549203710667,9.144751812906193e-06,-0.0030046868657457315
18,0.0078555,-0.172061,431.885,-0.272798,0.0203674,0.00115624,-0.115873,-0.00350041,0.00782479,-0.00349908,3.13469e-07,-1.28142e-05,8.01103e-06,0.00576183,-0.003494290707009684,3.1346904916240703e-07,-1.2814117898440891e-05,0.007855483674227282,8.01106208836444e-06,-0.003492965353534938
19,0.0088555,-0.218808,440.034,-0.331426,0.0321245,-0.00440292,-0.128862,-0.00398849,0.00881651,-0.00398748,6.91356e-07,-1.39625e-05,7.9632e-06,0.00671508,-0.003980546538075336,6.913562389243566e-07,-1.3962402524714257e-05,0.008855489895622126,7.963231706265006e-06,-0.00397954055791927
20,0.0098555,0.193142,448.143,0.27711,-0.076601,0.0818759,0.00685979,-0.00447597,0.00980724,-0.00447339,-1.13732e-06,-1.32362e-05,1.04904e-05,0.00766903,-0.004465967775063806,-1.1373193532504544e-06,-1.3236112401893152e-05,0.009855488577678262,1.0490455024436685e-05,-0.0044633992939473455
21,0.010855,0.208216,455.269,0.31872,-0.0840309,0.0832148,0.0132927,-0.00496431,0.010797,-0.00496117,-1.74415e-06,-1.34361e-05,1.1323e-05,0.00862524,-0.004952008178216172,-1.7441484789770811e-06,-1.3436009736023102e-05,0.010855497949054271,1.1323064105450698e-05,-0.004948883722616482
22,0.011855,-0.101482,461.529,-0.179353,0.00623181,0.0227251,-0.100212,-0.00545283,0.0117858,-0.00545109,-5.64086e-07,-1.46861e-05,9.85599e-06,0.00958331,-0.005437990307521012,-5.64085840926154e-07,-1.4685992159813033e-05,0.011855526197913191,9.856038570399406e-06,-0.005436259768118568
23,0.012855,-0.187353,467.709,-0.284893,0.0255937,0.0034526,-0.122454,-0.00594082,0.0127736,-0.00593951,-1.52431e-07,-1.5456e-05,9.32169e-06,0.0105416,-0.005923208222256893,-1.524309883871311e-07,-1.5455880556625168e-05,0.01285553090770497,9.321733447142933e-06,-0.005921905980806663
24,0.013855,0.213765,474.133,0.300735,-0.0799733,0.0915718,0.0104881,-0.00642787,0.0137604,-0.00642516,-1.94489e-06,-1.42811e-05,1.14762e-05,0.0114994,-0.0064072554365256496,-1.944888108673659e-06,-1.4280998025584246e-05,0.013855510054169295,1.1476265851850798e-05,-0.006404562796539337
25,0.014855,0.181451,479.741,0.279308,-0.0766977,0.0802203,0.00407818,-0.00691567,0.0147462,-0.00691264,-2.35474e-06,-1.43653e-05,1.18012e-05,0.0124586,-0.006891811784422108,-2.3547372276500056e-06,-1.4365196819521309e-05,0.01485546161112361,1.1801269634403866e-05,-0.006888802662053051
26,0.015855,-0.0385616,484.815,-0.090297,-0.00743826,0.0380707,-0.080721,-0.00740327,0.0157311,-0.00740138,-1.52519e-06,-1.50422e-05,1.06011e-05,0.0134186,-0.007375933298579107,-1.525188836892788e-06,-1.5042086866645654e-05,0.015855485136011538,1.0601156191780703e-05,-0.0073740572373200974
27,0.016855,0.215918,490.267,0.319785,-0.0799984,0.0941823,0.0183516,-0.00789,0.016715,-0.00788689,-2.89331e-06,-1.41247e-05,1.22465e-05,0.0143776,-0.007858955650294153,-2.8933058143776336e-06,-1.4124600246856467e-05,0.0168554772132683,1.2246574988772352e-05,-0.007855870086848182
28,0.017855,-0.212305,494.63,-0.342031,0.0398968,-0.000526013,-0.136981,-0.00837741,0.017698,-0.0083762,-1.15622e-06,-1.56128e-05,9.78056e-06,0.0153383,-0.008342417285131631,-1.1562193316105862e-06,-1.5612678120890955e-05,0.017855537596518367,9.780607829856791e-06,-0.008341217378730614
29,0.018855,-0.254954,499.288,-0.388352,0.0485729,-0.0121856,-0.146798,-0.0088638,0.0186799,-0.00886308,-7.60986e-07,-1.61018e-05,9.05624e-06,0.016298,-0.008824632334992644,-7.609857104462492e-07,-1.6101670366697185e-05,0.018855460780834,9.056281007779887e-06,-0.008823918688470989
30,0.019855,0.236679,504.411,0.338735,-0.0855619,0.0985383,0.0209393,-0.00934909,0.0196609,-0.00934668,-2.91834e-06,-1.44052e-05,1.14908e-05,0.0172564,-0.00930552313398103,-2.918335741619593e-06,-1.4405096245617699e-05,0.019855448401592257,1.149086601959226e-05,-0.009303135557414799
31,0.020855,0.194601,508.722,0.302614,-0.0797645,0.0840222,0.0114512,-0.0098352,0.020641,-0.00983254,-3.29217e-06,-1.43365e-05,1.16387e-05,0.0182158,-0.009786992593090016,-3.2921645808370315e-06,-1.4336397232916909e-05,0.02085549872117598,1.16387677300267e-05,-0.0097843586229871
32,0.021855,-0.0284468,512.618,-0.0782103,-0.0066682,0.0405466,-0.0767739,-0.010321,0.0216201,-0.0103196,-2.4115e-06,-1.48583e-05,1.02903e-05,0.0191756,-0.010267921245060374,-2.4114970923472256e-06,-1.4858189615996054e-05,0.0218555078145386,1.0290352945308001e-05,-0.010266535619180228
33,0.022855,0.212399,516.985,0.316961,-0.0777933,0.0948362,0.0205657,-0.0108059,0.0225982,-0.0108033,-3.72813e-06,-1.38427e-05,1.17891e-05,0.0201338,-0.010747725991986479,-3.728123050494858e-06,-1.3842604190239527e-05,0.022855473640298385,1.178916949173825e-05,-0.010745153932730345
34,0.023855,-0.187545,520.393,-0.309313,0.037535,0.00413767,-0.128501,-0.0112913,0.0235754,-0.0112905,-2.07546e-06,-1.51269e-05,9.37294e-06,0.0210933,-0.011227792524216795,-2.075457846251183e-06,-1.5126785589014702e-05,0.023855496540750476,9.372983926114742e-06,-0.011227001506134315
35,0.024855,-0.222962,524.153,-0.34192,0.0434219,-0.00717968,-0.135552,-0.0117756,0.0245516,-0.0117753,-1.75945e-06,-1.54694e-05,8.68554e-06,0.0220516,-0.011706538966488877,-1.7594484521543663e-06,-1.546928034945605e-05,0.024855472285222335,8.685577719491633e-06,-0.011706242478406126
36,0.025855,0.210937,528.364,0.299566,-0.0766303,0.0933329,0.0141348,-0.0122589,0.0255269,-0.0122572,-3.67189e-06,-1.38574e-05,1.07647e-05,0.0230083,-0.012184065792553822,-3.6718832586712935e-06,-1.3857303986730685e-05,0.025855501412276105,1.0764757939485392e-05,-0.012182386504038356
37,0.026855,-0.269775,531.34,-0.415669,0.0590462,-0.0173556,-0.151452,-0.0127434,0.0265012,-0.0127436,-1.65379e-06,-1.54721e-05,8.00122e-06,0.0239668,-0.01266254669131972,-1.6537886324829998e-06,-1.5471980307713018e-05,0.026855479487518208,8.001252009837145e-06,-0.01266274415879065
38,0.027855,-0.258717,534.823,-0.394369,0.0547073,-0.0158434,-0.145939,-0.0132265,0.0274746,-0.0132272,-1.41075e-06,-1.56681e-05,7.40217e-06,0.0249236,-0.01313941421838749,-1.4107490048376192e-06,-1.5667977255939824e-05,0.027855507245800215,7.402197396144672e-06,-0.013140105020555737
39,0.028855,0.206475,538.77,0.297976,-0.0760671,0.0924205,0.0164166,-0.0137086,0.028447,-0.0137077,-3.44633e-06,-1.39462e-05,9.62469e-06,0.0258789,-0.013615065041949204,-3.4463240614623913e-06,-1.3946102752182554e-05,0.02885548004902816,9.624736317492832e-06,-0.013614177295108276
40,0.029855,-0.278291,541.448,-0.431379,0.0629029,-0.019868,-0.153976,-0.014192,0.0294185,-0.0141931,-1.37347e-06,-1.55663e-05,6.78068e-06,0.0268359,-0.014091768291049855,-1.3734690568201202e-06,-1.556617884579392e-05,0.029855498828365468,6.780702988873344e-06,-0.014092852789508226
41,0.030855,-0.255522,544.675,-0.391427,0.0550559,-0.0156358,-0.143916,-0.0146739,0.030389,-0.0146754,-1.17875e-06,-1.57021e-05,6.24339e-06,0.0277911,-0.014566763008740935,-1.178749305275062e-06,-1.57019767226263e-05,0.03085545874204043,6.243409490069851e-06,-0.014568241157487782
42,0.031855,0.196378,548.351,0.283604,-0.0731692,0.0903588,0.015193,-0.0151549,0.0313586,-0.0151548,-3.16034e-06,-1.40074e-05,8.39858e-06,0.0287448,-0.015040642418599148,-3.1603350061359947e-06,-1.4007301896823421e-05,0.03185546091754765,8.39861526813479e-06,-0.015040543922658522
43,0.032855,-0.26133,550.82,-0.407469,0.0593082,-0.0163696,-0.146931,-0.0156369,0.0323273,-0.0156389,-1.19378e-06,-1.55185e-05,5.69202e-06,0.0297001,-0.015515278432485013,-1.1937792874228137e-06,-1.551837958868596e-05,0.03285550359500755,5.692036199489436e-06,-0.015517247399959078
44,0.033855,-0.236007,553.823,-0.362421,0.0503322,-0.0117942,-0.135783,-0.0161177,0.033295,-0.01612,-1.0433e-06,-1.5611e-05,5.20824e-06,0.0306536,-0.015988504913852286,-1.043299455716351e-06,-1.5610878148941687e-05,0.03385548162717211,5.20825356287169e-06,-0.015990768137688183
45,0.034855,0.182057,557.24,0.261725,-0.0687794,0.087257,0.0119345,-0.0165975,0.0342618,-0.0165984,-2.88235e-06,-1.40111e-05,7.18885e-06,0.0316056,-0.01646052038362822,-2.8823458460003337e-06,-1.4011001844949078e-05,0.03485549643607477,7.188875839947428e-06,-0.016461405568761522
46,0.035855,-0.232612,559.556,-0.364857,0.0521075,-0.0100498,-0.135386,-0.0170783,0.0352276,-0.017081,-1.10297e-06,-1.53558e-05,4.72593e-06,0.0325589,-0.016933292501903008,-1.1029693917086192e-06,-1.535568210031535e-05,0.03585544267084306,4.725941167293968e-06,-0.016935946778430022
47,0.036855,-0.209915,562.359,-0.322697,0.0434513,-0.00643536,-0.125174,-0.0175579,0.0361926,-0.0175609,-9.88211e-07,-1.54184e-05,4.28399e-06,0.0335105,-0.017404658252276994,-9.882105117542395e-07,-1.541828113704735e-05,0.03685552563544214,4.283999176291076e-06,-0.017407606033880585
48,0.037855,0.167083,565.538,0.238374,-0.0640313,0.0839045,0.00808163,-0.0180366,0.0371566,-0.0180383,-2.65269e-06,-1.39389e-05,6.05249e-06,0.0344607,-0.017874914077659843,-2.6526864815856754e-06,-1.3938802853941112e-05,0.03785553628984806,6.0525083163121e-06,-0.01787658368888667
49,0.038855,-0.201039,567.734,-0.317348,0.0438832,-0.0029914,-0.122696,-0.0185161,0.0381196,-0.0185194,-1.08123e-06,-1.51057e-05,3.86068e-06,0.035412,-0.01834573016918073,-1.081229415444973e-06,-1.5105585909447328e-05,0.03885547256333499,3.860687452394984e-06,-0.018348969622926092
50,0.039855,-0.18354,570.362,-0.282177,0.0363319,-0.000959315,-0.114436,-0.0189944,0.0390817,-0.0189981,-9.92059e-07,-1.51493e-05,3.44849e-06,0.0363617,-0.01881514313738053,-9.920585078981858e-07,-1.5149185249918595e-05,0.0398554363689434,3.4484959461345e-06,-0.01881877351463468
51,0.040855,0.153573,573.327,0.217114,-0.05962,0.080793,0.00451321,-0.0194719,0.040043,-0.0194745,-2.48596e-06,-1.3789e-05,5.01122e-06,0.0373099,-0.019283547066194506,-2.485956909992204e-06,-1.3788904932199308e-05,0.04085553001792186,5.011232556251244e-06,-0.019286096925657303
52,0.041855,-0.171842,575.421,-0.273107,0.0361896,0.00355415,-0.11085,-0.0199502,0.0410032,-0.0199541,-1.10734e-06,-1.47933e-05,3.07162e-06,0.0382591,-0.019752511583827848,-1.1073393868521464e-06,-1.4793190579731608e-05,0.04185543947755166,3.071624717465582e-06,-0.01975633454157788
53,0.042855,0.311144,578.477,0.455677,-0.104641,0.120116,0.0636299,-0.0204266,0.0419626,-0.0204289,-3.38097e-06,-1.2804e-05,5.61414e-06,0.0392056,-0.0202193902679767,-3.380964284538379e-06,-1.2803918029158368e-05,0.04285547522662836,5.614155759392503e-06,-0.0202216437607875
54,0.043855,-0.321768,580.09,-0.504897,0.0818579,-0.0321651,-0.165936,-0.0209045,0.0429211,-0.0209094,-6.4598e-07,-1.49148e-05,1.97678e-06,0.0401541,-0.02068751555392101,-6.459797913249687e-07,-1.4914688774902984e-05,0.04385553139998977,1.97678195390516e-06,-0.020692314173338167
55,0.044855,-0.272716,582.518,-0.424018,0.0654636,-0.0222431,-0.146681,-0.0213807,0.0438786,-0.0213858,-5.30063e-07,-1.49501e-05,1.54683e-06,0.0411002,-0.02115375313903456,-5.300628594939738e-07,-1.4949988247803248e-05,0.04485550173070285,1.5468311962418824e-06,-0.021158745242163768
56,0.045855,0.181899,585.408,0.266138,-0.0687212,0.0869094,0.0187156,-0.0218559,0.0448352,-0.0218595,-2.53963e-06,-1.32155e-05,3.74782e-06,0.0420446,-0.021618790373944874,-2.53962677509989e-06,-1.3215412675626759e-05,0.04585548872117995,3.747827023170558e-06,-0.02162231253995961
57,0.046855,-0.239436,587.156,-0.380312,0.0578004,-0.0137277,-0.13568,-0.0223322,0.0457909,-0.0223376,-6.7653e-07,-1.45839e-05,1.20196e-06,0.0429905,-0.02208468238310002,-6.765297712041374e-07,-1.458379365548712e-05,0.04685549058652838,1.2019607222857331e-06,-0.022089963111557198
58,0.047855,-0.195249,589.457,-0.303635,0.0423115,-0.0048888,-0.116963,-0.0228071,0.0467457,-0.0228128,-6.65265e-07,-1.45415e-05,9.12529e-07,0.0439345,-0.02254898411026507,-6.652647787097621e-07,-1.4541394272926667e-05,0.04785550554010798,9.125294162526387e-07,-0.022554555565176937
59,0.048855,0.142035,592.08,0.202175,-0.0560049,0.0776562,0.00472628,-0.0232813,0.0476996,-0.0232859,-2.16151e-06,-1.3183e-05,2.49416e-06,0.044877,-0.023012381501794965,-2.161507663966944e-06,-1.3182913104592409e-05,0.04885553179353508,2.4941631104891115e-06,-0.023016875634503497
60,0.049855,-0.161499,593.866,-0.259957,0.0352016,0.00482414,-0.10514,-0.0237561,0.0486525,-0.0237621,-8.51569e-07,-1.41096e-05,6.54494e-07,0.0458204,-0.023476145116863245,-8.515686373833375e-07,-1.4109500460102176e-05,0.049855462571137155,6.544942141584187e-07,-0.0234820042424152
61,0.050855,0.286526,596.56,0.422219,-0.0978949,0.114227,0.0597403,-0.0242293,0.0496046,-0.0242336,-2.97939e-06,-1.22427e-05,3.03418e-06,0.0467612,-0.023938126891485556,-2.9793855615967146e-06,-1.22426250585006e-05,0.050855505952158264,3.0341846031234354e-06,-0.023942323948516253
62,0.051855,-0.284476,597.938,-0.451853,0.0734405,-0.0247166,-0.151013,-0.0247038,0.0505557,-0.0247105,-4.87339e-07,-1.41309e-05,-2.8347e-07,0.0477037,-0.024401158387365562,-4.873388812498547e-07,-1.4130800159328771e-05,0.05185545007191705,-2.8346995983863366e-07,-0.02440769487770711
63,0.052855,-0.233227,600.072,-0.364845,0.0555726,-0.0145135,-0.130281,-0.0251766,0.051506,-0.0251835,-4.48004e-07,-1.41082e-05,-6.05467e-07,0.048644,-0.02486231249425863,-4.480038996446112e-07,-1.4108100479859331e-05,0.052855503406202375,-6.054668166832755e-07,-0.024869040921089325
64,0.053855,0.155128,602.592,0.224977,-0.0600454,0.0803467,0.0121775,-0.0256486,0.0524553,-0.0256542,-2.17459e-06,-1.25837e-05,1.26419e-06,0.0495827,-0.025322468877311932,-2.174587635628278e-06,-1.2583620825568076e-05,0.05385545368689293,1.2641907991550738e-06,-0.025327927056203348
65,0.054855,-0.189198,604.159,-0.30459,0.044787,-0.00277543,-0.114854,-0.0261213,0.0534038,-0.0261285,-6.52608e-07,-1.36674e-05,-8.32163e-07,0.0505224,-0.02578309006987778,-6.526077870327995e-07,-1.3667306601461426e-05,0.05485550978634479,-8.321626537854954e-07,-0.025790104406377634
66,0.055855,0.314241,606.767,0.467893,-0.106649,0.120884,0.072996,-0.0265923,0.0543513,-0.0265976,-3.04183e-06,-1.15963e-05,1.88541e-06,0.0514593,-0.026241838190791622,-3.0418253736952394e-06,-1.1596232763144698e-05,0.05585545903301381,1.885411777369228e-06,-0.02624699909537287
67,0.056855,-0.318933,607.91,-0.50758,0.0854369,-0.0340129,-0.163542,-0.0270648,0.055298,-0.0270728,-2.40751e-07,-1.37177e-05,-1.80543e-06,0.0523982,-0.026701830240566715,-2.407509710478095e-07,-1.3717605912733077e-05,0.05685551069584438,-1.805428370249551e-06,-0.02670961659477933
68,0.057855,-0.247482,609.921,-0.389434,0.0614581,-0.018626,-0.135005,-0.0275354,0.0562437,-0.0275436,-2.56162e-07,-1.36417e-05,-2.04469e-06,0.0533347,-0.027159756600731777,-2.56161967193691e-07,-1.364160695238592e-05,0.05785545169988837,-2.0446879096525095e-06,-0.02716773385802085
69,0.058855,0.150019,612.311,0.219135,-0.0585373,0.0787536,0.0127088,-0.0280053,0.0571886,-0.0280121,-2.02581e-06,-1.20948e-05,-1.12328e-07,0.0542696,-0.027616786843439933,-2.0258079480584e-06,-1.2094726858147276e-05,0.058855491710696706,-1.1232799368432467e-07,-0.027623399026807993
70,0.059855,-0.188478,613.744,-0.305234,0.0457172,-0.00337677,-0.113835,-0.028476,0.0581326,-0.0284843,-5.10477e-07,-1.31631e-05,-2.19302e-06,0.0552055,-0.028074379918893833,-5.104768696639894e-07,-1.3163013366734866e-05,0.05985552323548782,-2.193017595297775e-06,-0.028082446868062605
71,0.060855,0.306084,616.208,0.457961,-0.10457,0.118798,0.0727278,-0.0289449,0.0590756,-0.0289514,-2.86733e-06,-1.11256e-05,4.97163e-07,0.0561386,-0.028530009011560886,-2.8673258891664943e-06,-1.1125538110778876e-05,0.06085543837979146,4.971631235584084e-07,-0.028536323545980125
72,0.061855,-0.3066,617.242,-0.490873,0.0831288,-0.0318881,-0.15845,-0.0294152,0.0600178,-0.0294243,-1.38308e-07,-1.31769e-05,-3.09471e-06,0.0570736,-0.028986783929281668,-1.3830799039382669e-07,-1.3176813185022951e-05,0.06185544740410531,-3.0947052114260742e-06,-0.0289956201093432
73,0.062855,-0.232221,619.13,-0.366831,0.0578502,-0.015804,-0.128384,-0.0298837,0.0609591,-0.029893,-1.9184e-07,-1.30731e-05,-3.27729e-06,0.0580062,-0.02944159707271299,-1.918399815670213e-07,-1.3073014547448913e-05,0.06285544251060693,-3.277284629676913e-06,-0.029450623223888583
74,0.063855,0.13839,621.363,0.201384,-0.0546659,0.075705,0.0101128,-0.0303515,0.0618996,-0.0303596,-1.84624e-06,-1.16154e-05,-1.47624e-06,0.0589373,-0.02989551811319313,-1.8462382956885293e-06,-1.1615332541459189e-05,0.0638555282708988,-1.476238910336214e-06,-0.029903375927672227
75,0.064855,-0.168452,622.715,-0.274932,0.0405682,0.000872654,-0.105136,-0.03082,0.0628391,-0.0308295,-4.70403e-07,-1.25689e-05,-3.37132e-06,0.0598693,-0.030349905614373673,-4.7040288930766394e-07,-1.2568821011749165e-05,0.06485549019827253,-3.3713143171576476e-06,-0.030359117246515077
76,0.065855,0.277092,625.0,0.414555,-0.0958605,0.111571,0.0640568,-0.0312869,0.0637778,-0.0312947,-2.6072e-06,-1.07126e-05,-9.45851e-07,0.0607986,-0.03080252957015739,-2.6071966012786163e-06,-1.0712542620305854e-05,0.06585553934655586,-9.458505526582783e-07,-0.030810089280943864
77,0.066855,-0.267112,626.007,-0.431044,0.0722133,-0.0230322,-0.142754,-0.031755,0.0647155,-0.0317652,-1.78604e-07,-1.25171e-05,-4.15425e-06,0.0617296,-0.031256104738515256,-1.786039840467879e-07,-1.2517021661384575e-05,0.06685546082571903,-4.154241371123746e-06,-0.03126598587585305
78,0.067855,-0.201705,627.773,-0.319301,0.0491561,-0.00931974,-0.115745,-0.0322215,0.0656524,-0.0322318,-2.47813e-07,-1.24091e-05,-4.31185e-06,0.0626583,-0.03170791837193099,-2.4781296925624474e-07,-1.2409023007475817e-05,0.06785546608628223,-4.311840704041003e-06,-0.03171789172900885
79,0.068855,0.125093,629.842,0.180033,-0.0500297,0.0722827,0.00639801,-0.0326873,0.0665884,-0.0326965,-1.71121e-06,-1.10926e-05,-2.73517e-06,0.0635856,-0.03215884379486922,-1.7112085358705897e-06,-1.1092538477308622e-05,0.06885544672046917,-2.7351662593710913e-06,-0.032167747892547394
80,0.069855,-0.140743,631.141,-0.231914,0.0328682,0.00712143,-0.0932896,-0.0331537,0.0675236,-0.0331641,-5.26659e-07,-1.18945e-05,-4.37845e-06,0.0645136,-0.032610139659746795,-5.266588612995449e-07,-1.189442926075035e-05,0.0698555078899572,-4.3784404145652545e-06,-0.03262020046197811
81,0.070855,0.241131,633.244,0.359417,-0.0847312,0.10254,0.0522165,-0.0336186,0.0684578,-0.0336276,-2.37229e-06,-1.02738e-05,-2.30841e-06,0.0654392,-0.03305977468006016,-2.372287186136468e-06,-1.0273747224731622e-05,0.07085543389814442,-2.3084073356161028e-06,-0.03306847710292704
82,0.071855,-0.219184,634.257,-0.357188,0.0583923,-0.011979,-0.123588,-0.0340844,0.0693913,-0.0340954,-3.21635e-07,-1.17743e-05,-5.03726e-06,0.0663661,-0.033510070554963245,-3.216349482304537e-07,-1.1774230683214704e-05,0.07185554417453321,-5.037247313044446e-06,-0.033520701885714654
83,0.072855,0.361772,636.578,0.548661,-0.122245,0.132622,0.099218,-0.0345482,0.0703238,-0.0345569,-3.11882e-06,-9.41096e-06,-1.79554e-06,0.0672897,-0.033958224649271784,-3.118815136482489e-06,-9.41091571704522e-06,0.07285551563370785,-1.7955383879719733e-06,-0.03396662917615756
84,0.073855,0.168739,637.909,0.277117,-0.0699586,0.0779917,0.0303131,-0.035013,0.0712554,-0.0350221,-2.76849e-06,-9.77123e-06,-2.5106e-06,0.0682143,-0.0344071365312516,-2.7684861677590433e-06,-9.771182261641975e-06,0.07385545353082601,-2.5105968484151475e-06,-0.03441592338632893
85,0.074855,0.0588491,639.289,0.055776,-0.0239429,0.0573191,-0.0244547,-0.0354769,0.0721862,-0.0354869,-2.29536e-06,-9.79819e-06,-3.28774e-06,0.0691381,-0.03485497117733727,-2.2953573656225856e-06,-9.798141997863219e-06,0.0748554635194214,-3.28773459534748e-06,-0.0348646225793684
86,0.075855,0.085249,640.868,0.131479,-0.0369802,0.0632373,-0.00104878,-0.0359404,0.0731161,-0.0359501,-2.6185e-06,-9.46824e-06,-2.98376e-06,0.0700606,-0.03530221224207297,-2.6184965716824493e-06,-9.468195176332017e-06,0.07585543648031878,-2.9837555486356138e-06,-0.0353115697652302
87,0.076855,0.000749125,642.258,-0.0263844,-0.00699738,0.0427723,-0.0427741,-0.0364035,0.0740452,-0.0364139,-2.27229e-06,-9.55596e-06,-3.6769e-06,0.0709827,-0.035748860358229995,-2.272287418336738e-06,-9.555914341929928e-06,0.07685547826382466,-3.6768932402120313e-06,-0.03575888851793574
88,0.077855,0.0974871,643.886,0.145085,-0.0401201,0.0655843,0.00123373,-0.036866,0.0749734,-0.0368759,-2.85977e-06,-9.00604e-06,-3.10554e-06,0.0719035,-0.03619472339653895,-2.85976591085646e-06,-9.005999445754753e-06,0.07785547954754857,-3.1055351777942164e-06,-0.03620426502154628
89,0.078855,-0.0320605,645.192,-0.0726883,0.00272588,0.0337517,-0.0538833,-0.0373284,0.0759007,-0.0373391,-2.31025e-06,-9.27449e-06,-4.01407e-06,0.0728241,-0.03664028393490504,-2.310247331327453e-06,-9.274446992058039e-06,0.07885543849304377,-4.014061943613534e-06,-0.03665059182871955
90,0.079855,0.129248,646.867,0.191798,-0.0494826,0.0734885,0.0127185,-0.03779,0.0768272,-0.0378,-3.17617e-06,-8.48064e-06,-3.1109e-06,0.0737432,-0.037084868161906925,-3.1761649559314264e-06,-8.480604039462492e-06,0.07985546124581266,-3.11089516114027e-06,-0.03709449726507974
91,0.080855,-0.0727144,648.052,-0.13386,0.0154693,0.0231941,-0.0685216,-0.0382516,0.0777528,-0.0382627,-2.29493e-06,-9.02442e-06,-4.40904e-06,0.0746624,-0.03752924721618722,-2.2949273666972303e-06,-9.024379280075934e-06,0.08085543817867347,-4.4090302802057835e-06,-0.03753993058225025
92,0.081855,0.176743,649.807,0.264837,-0.0640565,0.0853411,0.0309284,-0.0387122,0.0786776,-0.0387222,-3.56432e-06,-7.90195e-06,-3.01729e-06,0.0755797,-0.03797245916537184,-3.564313647785866e-06,-7.901918779640305e-06,0.08185547563394646,-3.0172854479371125e-06,-0.03798207939267895
93,0.082855,-0.130513,650.829,-0.223458,0.0338674,0.00836888,-0.0904083,-0.0391732,0.0796015,-0.0391847,-2.19154e-06,-8.84113e-06,-4.91055e-06,0.0764976,-0.03841585165187589,-2.1915375986170105e-06,-8.841090917366401e-06,0.0828554637812775,-4.910537943270121e-06,-0.03842690980599739
94,0.083855,0.246028,652.717,0.373296,-0.0857547,0.102689,0.0580202,-0.0396327,0.0805246,-0.0396427,-4.05423e-06,-7.24578e-06,-2.79105e-06,0.0774131,-0.03885759806903,-4.054221781624179e-06,-7.245753749440809e-06,0.08385550915982587,-2.791046105010686e-06,-0.038867209444992334
95,0.084855,-0.214109,653.515,-0.354691,0.0606267,-0.0129111,-0.122789,-0.0400932,0.0814468,-0.0401053,-1.96092e-06,-8.75594e-06,-5.5661e-06,0.0783298,-0.039300102250711566,-1.9609180773594304e-06,-8.755901666823718e-06,0.08485550173607947,-5.56608450930085e-06,-0.03931172664914662
96,0.085855,0.346843,655.612,0.532301,-0.117685,0.128059,0.0977327,-0.0405516,0.0823681,-0.0405614,-4.6923e-06,-6.47451e-06,-2.3769e-06,0.0792432,-0.03974038616305742,-4.692288991137161e-06,-6.474489040453335e-06,0.08585543966050535,-2.3768971751936263e-06,-0.03974979666116152
97,0.086855,-0.33482,656.097,-0.545313,0.0993545,-0.0434999,-0.170127,-0.0410116,0.0832887,-0.0410244,-1.55035e-06,-8.80995e-06,-6.4417e-06,0.0801589,-0.0401820040055314,-1.5503487982293507e-06,-8.809911192453335e-06,0.08685553845309868,-6.441679252344734e-06,-0.04019428959725224
98,0.087855,-0.21986,657.599,-0.354133,0.0601876,-0.0167294,-0.122652,-0.0414697,0.0842083,-0.0414825,-1.78938e-06,-8.55828e-06,-6.34777e-06,0.0810718,-0.040621595933277854,-1.789378399008612e-06,-8.558243377976282e-06,0.08785547050455023,-6.347749852975149e-06,-0.040633875898257954
99,0.088855,0.10398,659.349,0.151384,-0.0418553,0.065027,0.00280867,-0.0419272,0.0851271,-0.0419388,-3.24416e-06,-7.28066e-06,-4.75042e-06,0.0819835,-0.041060411166499944,-3.2441547377359825e-06,-7.280633496087319e-06,0.08885545143173967,-4.750408716724941e-06,-0.04107153480121317
100,0.089855,-0.125525,660.377,-0.211515,0.0321724,0.00797314,-0.0864175,-0.0423852,0.0860451,-0.042398,-2.18033e-06,-7.97145e-06,-6.21948e-06,0.0828957,-0.04149950493803645,-2.180327623113598e-06,-7.971418228058802e-06,0.0898554796788904,-6.219460659040443e-06,-0.041511773665853235
101,0.090855,0.205414,662.113,0.309574,-0.0728214,0.0920765,0.043773,-0.0428419,0.0869622,-0.0428534,-3.79998e-06,-6.55387e-06,-4.39307e-06,0.0838057,-0.041937152169779,-3.799972780105243e-06,-6.5538485234384325e-06,0.09085544460313288,-4.393060350493805e-06,-0.04194816982917737
102,0.091855,-0.173698,662.924,-0.29014,0.0485851,-0.00373465,-0.105427,-0.0432993,0.0878785,-0.0433126,-2.07372e-06,-7.77609e-06,-6.69281e-06,0.0847168,-0.04237526991121077,-2.073717849881973e-06,-7.7760597663179e-06,0.09185545353114533,-6.692787603235217e-06,-0.04238800623542416
103,0.092855,0.287994,664.805,0.440637,-0.099106,0.113018,0.0768246,-0.043755,0.088794,-0.0437665,-4.33651e-06,-5.86699e-06,-4.07752e-06,0.085625,-0.04281156008444609,-4.336500597390547e-06,-5.866972789259073e-06,0.09285550490251993,-4.077511686961799e-06,-0.042822567688211355
104,0.093855,-0.263061,665.37,-0.432785,0.0777175,-0.0265097,-0.141026,-0.0442119,0.0897086,-0.0442258,-1.79475e-06,-7.72747e-06,-7.38493e-06,0.0865348,-0.04324879958767258,-1.7947483894609206e-06,-7.727440143212583e-06,0.09385548776976238,-7.3849027314443205e-06,-0.04326209833693184
105,0.094855,-0.174235,666.754,-0.280982,0.0461596,-0.00650795,-0.103476,-0.0446673,0.0906224,-0.0446812,-2.00099e-06,-7.51524e-06,-7.3284e-06,0.0874424,-0.043684404889484885,-2.000987998074244e-06,-7.515211760678042e-06,0.09485550975494395,-7.328373147319489e-06,-0.04369769758387243
106,0.095855,0.0918975,668.344,0.130843,-0.0371585,0.0617578,-0.000909241,-0.045122,0.0915353,-0.045135,-3.19921e-06,-6.42261e-06,-6.03426e-06,0.0883487,-0.04411914274543982,-3.1992048825646435e-06,-6.422589375110199e-06,0.09585545970750964,-6.034241793906325e-06,-0.04413156911581251
107,0.096855,-0.0948307,669.346,-0.16244,0.0231688,0.0150912,-0.0728074,-0.0455771,0.0924474,-0.045591,-2.34607e-06,-6.95372e-06,-7.22574e-06,0.0892553,-0.044554065149476685,-2.346067248026884e-06,-6.953695822931039e-06,0.09685544544647895,-7.225713894443153e-06,-0.04456734575567067
108,0.097855,0.169824,670.916,0.253532,-0.0611458,0.0827677,0.0313109,-0.0460311,0.0933587,-0.046044,-3.65401e-06,-5.78426e-06,-5.78096e-06,0.0901601,-0.044987739152451245,-3.654003324138344e-06,-5.78424327124516e-06,0.09785546540380086,-5.780943290289997e-06,-0.045000058731154646
109,0.098855,-0.128875,671.751,-0.219221,0.0350844,0.00677264,-0.0866181,-0.0464855,0.0942692,-0.0464999,-2.30149e-06,-6.71479e-06,-7.60619e-06,0.0910655,-0.04542159814355229,-2.3014873515858625e-06,-6.714767455839876e-06,0.09885551800991221,-7.606161072981621e-06,-0.045435343973568854
110,0.099855,0.229928,673.423,0.349865,-0.0804679,0.0979906,0.0557822,-0.0469386,0.0951788,-0.0469515,-4.07924e-06,-5.19177e-06,-5.58191e-06,0.0919684,-0.04585401964494429,-4.079231679887663e-06,-5.191756522804347e-06,0.09985549170818597,-5.581894421125e-06,-0.0458663280487015
111,0.1009,-0.192801,674.077,-0.322116,0.0562157,-0.00964086,-0.11238,-0.0473924,0.0960876,-0.0474073,-2.13303e-06,-6.58278e-06,-8.14188e-06,0.0928726,-0.04628691285993003,-2.133027725115255e-06,-6.582758333539829e-06,0.1008554947115885,-8.141846854936574e-06,-0.04630112307906198
112,0.1019,0.307345,675.912,0.474148,-0.105587,0.117634,0.0872302,-0.0478444,0.0969956,-0.0478573,-4.59203e-06,-4.53308e-06,-5.27285e-06,0.0937736,-0.04671789376629487,-4.592019456683971e-06,-4.533069725587424e-06,0.10185552544603271,-5.272836098524358e-06,-0.04673019102614784
113,0.1029,-0.282363,676.328,-0.46574,0.085664,-0.0325974,-0.148417,-0.0482977,0.0979027,-0.0483132,-1.84161e-06,-6.54696e-06,-8.82531e-06,0.0946766,-0.04714991861922002,-1.8416083041872255e-06,-6.5469385687189074e-06,0.10285547205038159,-8.825271057055772e-06,-0.04716468768102089
114,0.1039,-0.177132,677.639,-0.287463,0.0486154,-0.00816632,-0.103969,-0.0487494,0.098809,-0.0487648,-2.11181e-06,-6.28356e-06,-8.67544e-06,0.0955771,-0.0475802238092361,-2.111807770099894e-06,-6.2835402584449085e-06,0.10385544303310534,-8.675402368485408e-06,-0.04759489096085212
115,0.1049,0.0837933,679.131,0.119379,-0.0341555,0.0590465,-0.00211095,-0.0492005,0.0997145,-0.0492151,-3.28896e-06,-5.21892e-06,-7.39494e-06,0.0964764,-0.048009763480319045,-3.288954591340598e-06,-5.218906381498911e-06,0.10485543681562981,-7.39491265744352e-06,-0.04802366243630962
116,0.1059,-0.0884603,680.06,-0.153172,0.0221955,0.0158023,-0.0692806,-0.049652,0.100619,-0.0496674,-2.49099e-06,-5.70416e-06,-8.50872e-06,0.097376,-0.048439490054033585,-2.490986897529801e-06,-5.7041437313554155e-06,0.105855230646827,-8.508683800978467e-06,-0.048454143973051256
117,0.1069,0.15715,681.517,0.235244,-0.0568977,0.0789946,0.0284801,-0.0501024,0.101523,-0.0501169,-3.7121e-06,-4.6116e-06,-7.15785e-06,0.0982739,-0.04886797640534335,-3.712093110119774e-06,-4.611589366598778e-06,0.10685537577281745,-7.157824382653111e-06,-0.04888176771969821
118,0.1079,-0.114333,682.298,-0.19704,0.0315216,0.00953384,-0.079901,-0.0505532,0.102426,-0.050569,-2.47377e-06,-5.44865e-06,-8.8316e-06,0.0991722,-0.04929665009127138,-2.473766940180866e-06,-5.448635156168891e-06,0.10785531758292088,-8.831561001509947e-06,-0.049311671085533804
119,0.1089,0.2075,683.837,0.31634,-0.0732158,0.0918176,0.049212,-0.0510026,0.103328,-0.0510172,-4.08139e-06,-4.06875e-06,-7.0046e-06,0.100068,-0.04972380018890454,-4.08138167118377e-06,-4.068741722651481e-06,0.1088550538926738,-7.004575467872698e-06,-0.04973767412014185
120,0.1099,-0.165843,684.467,-0.280478,0.0487655,-0.00379266,-0.100871,-0.0514528,0.10423,-0.0514691,-2.35263e-06,-5.28431e-06,-9.2854e-06,0.100965,-0.050151518247500304,-2.3526272325824493e-06,-5.28429603807723e-06,0.10985569237139536,-9.285356890820218e-06,-0.05016700065157098
121,0.1109,0.26933,686.137,0.416184,-0.0934626,0.107567,0.074635,-0.0519013,0.10513,-0.0519158,-4.51088e-06,-3.48161e-06,-6.77505e-06,0.10186,-0.05057742977376711,-4.5108698260021285e-06,-3.4816039391483145e-06,0.11085501212096283,-6.775027049377158e-06,-0.05059119630122788
122,0.1119,-0.236262,686.577,-0.394035,0.0721927,-0.0219817,-0.129465,-0.0523509,0.10603,-0.0523677,-2.14033e-06,-5.19143e-06,-9.84762e-06,0.102755,-0.05100419421750502,-2.1403277095100037e-06,-5.191416524552572e-06,0.11185523166315092,-9.847571512344722e-06,-0.0510201372131206
123,0.1129,0.350869,688.428,0.547776,-0.120274,0.128449,0.108064,-0.0527984,0.106929,-0.0528127,-5.03492e-06,-2.82193e-06,-6.42642e-06,0.103648,-0.051428774833594426,-5.034907324841242e-06,-2.8219260183037775e-06,0.11285523895234206,-6.426399350556444e-06,-0.05144233930512809
124,0.1139,-0.329285,688.624,-0.544034,0.103099,-0.045964,-0.16736,-0.0532474,0.107827,-0.0532649,-1.81676e-06,-5.18429e-06,-1.05447e-05,0.104542,-0.05185458771154938,-1.8167583496486728e-06,-5.184276561598367e-06,0.11385503179672196,-1.0544644404864023e-05,-0.051871180111080495
125,0.1149,-0.191959,689.88,-0.314103,0.0554034,-0.0129007,-0.109447,-0.0536947,0.108725,-0.0537119,-2.20022e-06,-4.82896e-06,-1.02365e-05,0.105434,-0.05227859831742443,-2.200217579573227e-06,-4.828948340640515e-06,0.11485572285831513,-1.0236447607225863e-05,-0.05229489898534723
126,0.1159,0.0744621,691.286,0.106656,-0.0307828,0.0558214,-0.003453,-0.0541414,0.109621,-0.0541577,-3.40536e-06,-3.76259e-06,-8.90831e-06,0.106325,-0.0527018509270476,-3.4053542017353777e-06,-3.762582921451596e-06,0.1158550812316892,-8.908270321072997e-06,-0.052717291761034346
127,0.1169,-0.0860974,692.134,-0.150628,0.02266,0.0153424,-0.0673678,-0.0545885,0.110517,-0.0546056,-2.64338e-06,-4.21515e-06,-9.96922e-06,0.107216,-0.0531252932619104,-2.64337650623947e-06,-4.215141116259424e-06,0.11685533543143589,-9.969170307488895e-06,-0.053141484680958584
128,0.1179,0.147221,693.484,0.221735,-0.0535018,0.0757725,0.0270221,-0.0550345,0.111412,-0.0550508,-3.81027e-06,-3.17616e-06,-8.66864e-06,0.108106,-0.053547505220850056,-3.81026274087759e-06,-3.1761549560416213e-06,0.11785536840464816,-8.668602427430727e-06,-0.053562932270784125
129,0.1189,-0.104064,694.198,-0.181762,0.0294408,0.011112,-0.0747656,-0.0554809,0.112306,-0.0554985,-2.65044e-06,-3.9467e-06,-1.02348e-05,0.108996,-0.05396990732735485,-2.6504364876167585e-06,-3.946692211820313e-06,0.11885517795227951,-1.0234747624626728e-05,-0.05398655731046553
130,0.1199,0.189739,695.613,0.29041,-0.0673782,0.0866932,0.0446988,-0.0559261,0.1132,-0.0559425,-4.13063e-06,-2.678e-06,-8.55023e-06,0.109883,-0.054390986185503976,-4.130621468978468e-06,-2.677996414179873e-06,0.11985588172930717,-8.550193446921206e-06,-0.05440649404616571
131,0.1209,-0.145055,696.203,-0.248565,0.043353,0.000412611,-0.0916187,-0.0563719,0.114092,-0.0563898,-2.56694e-06,-3.7592e-06,-1.06161e-05,0.110772,-0.054812444733772114,-2.5669367054170777e-06,-3.759192934271738e-06,0.1208552388228108,-1.0616043649380735e-05,-0.05482936343958844
132,0.1219,0.238666,697.721,0.369873,-0.0835577,0.0992148,0.065068,-0.0568161,0.114984,-0.0568325,-4.48789e-06,-2.15446e-06,-8.38446e-06,0.111658,-0.05523220381042837,-4.487879929460092e-06,-2.1544576791487913e-06,0.12185548774053623,-8.384424850516048e-06,-0.0552476978752342
133,0.1229,-0.199659,698.161,-0.337141,0.0617577,-0.013816,-0.114008,-0.0572613,0.115875,-0.0572797,-2.41758e-06,-3.62343e-06,-1.10748e-05,0.112545,-0.055652720819260204,-2.4175770776402317e-06,-3.6234234354060035e-06,0.12285550642227783,-1.1074738674676787e-05,-0.055670096649338974
134,0.1239,0.30071,699.817,0.47065,-0.104169,0.115172,0.0908486,-0.0577046,0.116765,-0.0577209,-4.90846e-06,-1.58318e-06,-8.13779e-06,0.113429,-0.0560712571926798,-4.90844795353329e-06,-1.5831787467668335e-06,0.1238552926618759,-8.137756888237924e-06,-0.05608664310579203
135,0.1249,-0.269349,700.07,-0.4502,0.0852155,-0.0319426,-0.14268,-0.0581491,0.117655,-0.0581681,-2.19278e-06,-3.54578e-06,-1.16239e-05,0.114315,-0.056490740281834206,-2.1927775958330287e-06,-3.5457737137534195e-06,0.12485596910731034,-1.16238324426865e-05,-0.05650866678746658
136,0.1259,0.379626,701.907,0.59886,-0.130484,0.135563,0.123591,-0.0585914,0.118543,-0.0586076,-5.41061e-06,-9.49978e-07,-7.78844e-06,0.115198,-0.05690796215198923,-5.410595362631554e-06,-9.499775487364914e-07,0.12585528483839514,-7.788409670195229e-06,-0.05692324011925054
137,0.1269,-0.357412,701.928,-0.59321,0.114855,-0.0548025,-0.179061,-0.0590355,0.119431,-0.0590551,-1.87627e-06,-3.53793e-06,-1.22845e-05,0.116083,-0.0573266963391893,-1.8762682397754915e-06,-3.537923741525617e-06,0.12685548835596805,-1.2284424545816464e-05,-0.05734517255487348
138,0.1279,-0.195456,703.12,-0.322396,0.0585464,-0.0149918,-0.110292,-0.0594776,0.120318,-0.0594969,-2.36369e-06,-3.10332e-06,-1.18302e-05,0.116964,-0.057743360096427665,-2.3636872065191383e-06,-3.10331518471596e-06,0.12785545259271713,-1.1830130023482432e-05,-0.057761545474088294
139,0.1289,0.0633196,704.425,0.0903333,-0.0265524,0.0520787,-0.00564782,-0.0599193,0.121204,-0.0599377,-3.53788e-06,-2.07655e-06,-1.05255e-05,0.117845,-0.05815946295119245,-3.5378737417435246e-06,-2.0765478440099017e-06,0.12885517533549118,-1.0525444607112355e-05,-0.05817679265764042
140,0.1299,-0.0778701,705.204,-0.138308,0.0212417,0.0163261,-0.0628082,-0.0603612,0.12209,-0.0603804,-2.85369e-06,-2.46679e-06,-1.14793e-05,0.118727,-0.058575570338815774,-2.853685928227989e-06,-2.466786957477929e-06,0.12985578422512023,-1.147923411304319e-05,-0.058593645514342985
141,0.1309,0.131687,706.434,0.19886,-0.0480855,0.0710117,0.0232597,-0.0608022,0.122974,-0.0608206,-3.91008e-06,-1.52441e-06,-1.02995e-05,0.119606,-0.058990646981169625,-3.910072355672867e-06,-1.5244088380494958e-06,0.1308550183347803,-1.0299446960293501e-05,-0.05900796139397213
142,0.1319,-0.0873997,707.098,-0.155785,0.0252331,0.0142615,-0.0667617,-0.0612436,0.123858,-0.061263,-2.88867e-06,-2.1844e-06,-1.16825e-05,0.120486,-0.059405916852789176,-2.8886658277604838e-06,-2.1843976142355004e-06,0.13185513615793698,-1.1682431759862943e-05,-0.05942416420100227
143,0.1329,0.164828,708.372,0.252628,-0.0589806,0.0795881,0.0372206,-0.0616838,0.124741,-0.0617022,-4.17355e-06,-1.07836e-06,-1.02241e-05,0.121364,-0.0598198752492628,-4.173541290786176e-06,-1.0783594185381773e-06,0.13285500562056662,-1.0224047734097574e-05,-0.0598371744044055
144,0.1339,-0.116887,708.942,-0.204239,0.0354216,0.00647879,-0.0790269,-0.0621244,0.125624,-0.0621442,-2.84762e-06,-1.97144e-06,-1.1984e-05,0.122243,-0.06023402736781647,-2.8476159454893235e-06,-1.9714380566915324e-06,0.13385575835784014,-1.1983928192127458e-05,-0.06025263454986285
145,0.1349,0.199985,710.288,0.310147,-0.0707252,0.0886164,0.0520952,-0.0625637,0.126505,-0.0625823,-4.45295e-06,-6.23388e-07,-1.01274e-05,0.123119,-0.060646775892742366,-4.452940085664103e-06,-6.233878057093634e-07,0.134855125437513,-1.0127348718080853e-05,-0.060664247700222496
146,0.1359,-0.155225,710.749,-0.266871,0.048552,-0.00362215,-0.0949092,-0.0630037,0.127386,-0.063024,-2.76367e-06,-1.79247e-06,-1.23348e-05,0.123996,-0.06106000039529236,-2.763666181015978e-06,-1.79246839349112e-06,0.13585537334753162,-1.2334723926699098e-05,-0.06107906068382174
147,0.1369,0.242611,712.19,0.37992,-0.0850353,0.0996129,0.070105,-0.0634422,0.128266,-0.0634608,-4.76844e-06,-1.41986e-07,-9.98319e-06,0.124871,-0.06147163532756428,-4.768428631063415e-06,-1.4198598996539857e-07,0.13685536600831538,-9.983140168090543e-06,-0.0614890917928016
148,0.1379,-0.202324,712.521,-0.343809,0.0646546,-0.0160084,-0.114483,-0.0638816,0.129145,-0.0639022,-2.63488e-06,-1.64827e-06,-1.2738e-05,0.125747,-0.06188393410232684,-2.634876528739838e-06,-1.648268641574191e-06,0.13785510119428124,-1.2737918872018916e-05,-0.06190325909423633
149,0.1389,0.294677,714.081,0.465166,-0.102582,0.113105,0.0920696,-0.0643191,0.130024,-0.0643377,-5.12939e-06,3.73085e-07,-9.78031e-06,0.12662,-0.06229427011360955,-5.129376844714706e-06,3.7308506950495257e-07,0.13885571553380682,-9.780262172909282e-06,-0.062311711277982185
150,0.1399,-0.259558,714.257,-0.437395,0.084217,-0.0310315,-0.138366,-0.0647579,0.130901,-0.064779,-2.45415e-06,-1.54378e-06,-1.32029e-05,0.127495,-0.06270564512560539,-2.4541469886285583e-06,-1.5437788083438875e-06,0.1398549300878682,-1.3202812842116884e-05,-0.06272542182784835
151,0.1409,0.357961,715.964,0.568834,-0.123986,0.129572,0.118746,-0.0651945,0.131778,-0.065213,-5.54492e-06,9.28866e-07,-9.50794e-06,0.128366,-0.06311477852062441,-5.544904627008407e-06,9.288664313267248e-07,0.1408550213374682,-9.50789479969849e-06,-0.06313211073689828
152,0.1419,-0.32865,715.955,-0.550509,0.107838,-0.0491348,-0.167315,-0.0656327,0.132655,-0.0656544,-2.21302e-06,-1.48498e-06,-1.37405e-05,0.129239,-0.06352523168781976,-2.213017551322416e-06,-1.4849788974036215e-06,0.14185599005180638,-1.3740405599760308e-05,-0.06354555296980546
153,0.1429,-0.172087,717.051,-0.285794,0.052414,-0.0104749,-0.0997221,-0.0660691,0.13353,-0.0660905,-2.72018e-06,-1.04525e-06,-1.32485e-05,0.13011,-0.06393382011623172,-2.720176300319288e-06,-1.045249453768271e-06,0.14285555128736815,-1.324841223904194e-05,-0.06395385171814227
154,0.1439,0.0528006,718.223,0.0734082,-0.022051,0.0485406,-0.0080725,-0.0665051,0.134405,-0.0665257,-3.74296e-06,-1.36826e-07,-1.2114e-05,0.13098,-0.06434185601237186,-3.7429529951005236e-06,-1.3682599064868128e-07,0.1438559875217671,-1.21139266258119e-05,-0.0643611303716114
155,0.1449,-0.0601782,718.951,-0.10975,0.0166145,0.0197808,-0.0539022,-0.0669413,0.135278,-0.0669625,-3.19215e-06,-4.28049e-07,-1.28873e-05,0.13185,-0.06474990109367706,-3.1921449050731354e-06,-4.280489084296235e-07,0.14485500980865318,-1.2887216959134307e-05,-0.064769728185606
156,0.1459,0.109124,720.041,0.163665,-0.039996,0.064341,0.0162708,-0.0673767,0.136152,-0.0673973,-4.05485e-06,3.56688e-07,-1.19349e-05,0.132718,-0.06515702035044713,-4.054841779121965e-06,3.566880635297309e-07,0.145856050478276,-1.1934828779369688e-05,-0.06517627791747427
157,0.1469,-0.0624144,720.681,-0.115485,0.0181202,0.0195366,-0.0549722,-0.0678122,0.137024,-0.0678337,-3.25237e-06,-1.3574e-07,-1.30333e-05,0.133587,-0.06556405582967573,-3.2523647111037945e-06,-1.357399908030743e-07,0.14685567272625177,-1.3033215066959869e-05,-0.06558414598650542
158,0.1479,0.131488,721.795,0.200393,-0.0474255,0.0701348,0.0259303,-0.0682468,0.137895,-0.0682676,-4.25502e-06,7.44379e-07,-1.19098e-05,0.134454,-0.06597007345699102,-4.255010947362692e-06,7.443792771066882e-07,0.1478550191693937,-1.1909729078607434e-05,-0.06598950107741519
159,0.1489,-0.0803675,722.371,-0.145459,0.024502,0.0147253,-0.0625784,-0.0686817,0.138766,-0.0687035,-3.25433e-06,1.02151e-07,-1.32543e-05,0.135321,-0.06637619475456735,-3.25432470471565e-06,1.021510052101604e-07,0.14885523642247,-1.325421216213929e-05,-0.06639654753167568
160,0.1499,0.153024,723.527,0.236064,-0.0546962,0.0756566,0.035285,-0.0691155,0.139636,-0.0691364,-4.45597e-06,1.13008e-06,-1.1882e-05,0.136187,-0.06678111292818112,-4.455960072147214e-06,1.1300806386227435e-06,0.14985517538853665,-1.1881929409263137e-05,-0.06680061699910267
161,0.1509,-0.103303,724.034,-0.183302,0.0325325,0.00859039,-0.0721858,-0.0695496,0.140506,-0.0695718,-3.23223e-06,3.20318e-07,-1.35014e-05,0.137053,-0.06718613533058626,-3.232224776383852e-06,3.203180511945902e-07,0.15085598468004058,-1.3501308856467276e-05,-0.06720684356851958
162,0.1519,0.177878,725.244,0.277183,-0.0631226,0.0820605,0.0460396,-0.0699826,0.141374,-0.0700036,-4.67251e-06,1.52657e-06,-1.18322e-05,0.137916,-0.06758995630043885,-4.672499083868686e-06,1.5265711652556746e-06,0.1518553613414677,-1.1832129999778118e-05,-0.06760953670576153
163,0.1529,-0.130357,725.673,-0.227864,0.0419718,0.00136637,-0.0835346,-0.0704161,0.142242,-0.0704386,-3.18817e-06,5.20953e-07,-1.37724e-05,0.138781,-0.06799406845674416,-3.1881649178444604e-06,5.209531357408537e-07,0.15285560583842295,-1.3772305160975051e-05,-0.06801503835429168
164,0.1539,0.206925,726.947,0.325207,-0.0730061,0.0895822,0.05857,-0.0708483,0.143109,-0.0708694,-4.90861e-06,1.93686e-06,-1.17556e-05,0.139643,-0.06839679438501511,-4.908597952768545e-06,1.9368618757731326e-06,0.15385556506837283,-1.1755530903156952e-05,-0.06841645100527549
165,0.1549,-0.161847,727.286,-0.279754,0.0529468,-0.00702536,-0.0967894,-0.0712811,0.143975,-0.071304,-3.12025e-06,7.02903e-07,-1.40701e-05,0.140507,-0.06879990501297295,-3.1202451320488933e-06,7.029032469407781e-07,0.15485523678309887,-1.407000101660838e-05,-0.06882122925098477
166,0.1559,0.240713,728.637,0.381074,-0.0845436,0.09837,0.0731225,-0.0717124,0.144841,-0.0717336,-5.16715e-06,2.36309e-06,-1.16486e-05,0.141367,-0.06920144501561476,-5.167136650330306e-06,2.3630927921125533e-06,0.15585577458849276,-1.1648532155295044e-05,-0.06922117773581293
167,0.1569,-0.198253,728.874,-0.339801,0.0656313,-0.0167094,-0.112172,-0.0721447,0.145706,-0.0721679,-3.02601e-06,8.64517e-07,-1.43977e-05,0.142229,-0.06960374226811816,-3.026005421680189e-06,8.645173736887557e-07,0.1568560223783133,-1.4397596353576958e-05,-0.0696253272109113
168,0.1579,0.279781,730.316,0.445704,-0.09793,0.108571,0.0899363,-0.0725751,0.14657,-0.0725963,-5.45104e-06,2.80747e-06,-1.15079e-05,0.143088,-0.07000409865457136,-5.451025143154986e-06,2.807473940880101e-06,0.15785597790022843,-1.150783378434106e-05,-0.07002381435869265
169,0.1589,-0.240088,730.436,-0.408887,0.0802104,-0.0278202,-0.129919,-0.0730067,0.147433,-0.0730304,-2.90289e-06,1.00405e-06,-1.47587e-05,0.143949,-0.07040539827890357,-2.9028857866375546e-06,1.0040505040720404e-06,0.1588556389008351,-1.4758591090902051e-05,-0.07042742940989444
170,0.1599,0.324689,731.984,0.520045,-0.113368,0.120338,0.109257,-0.0734363,0.148295,-0.0734575,-5.76333e-06,3.27233e-06,-1.13299e-05,0.144806,-0.07080466635088056,-5.763313392082026e-06,3.2723353540209388e-06,0.15985500312566758,-1.1329835816975553e-05,-0.0708243650831466
171,0.1609,-0.287881,731.973,-0.487911,0.0968736,-0.0404956,-0.150271,-0.0738673,0.149157,-0.0738915,-2.74828e-06,1.11976e-06,-1.51566e-05,0.145666,-0.07120506324795384,-2.748276223485391e-06,1.1197606268886773e-06,0.1608552291738543,-1.5156485139278253e-05,-0.07122753981345564
172,0.1619,0.376011,733.643,0.60507,-0.131066,0.133829,0.131337,-0.074296,0.150018,-0.0743172,-6.10721e-06,3.76009e-06,-1.11111e-05,0.146521,-0.07160315230085401,-6.1071913510790665e-06,3.7600970690387925e-06,0.16185515593287048,-1.111103827200477e-05,-0.07162283410539738
173,0.1629,-0.34216,733.483,-0.577778,0.115811,-0.0548734,-0.173472,-0.0747265,0.150879,-0.0747511,-2.55961e-06,1.20995e-06,-1.55949e-05,0.14738,-0.0720027411261226,-2.5596067242394938e-06,1.2099507320506575e-06,0.16285594399956604,-1.5594778400185305e-05,-0.07202556957789974
174,0.1639,-0.165732,734.505,-0.278129,0.052737,-0.0105058,-0.0962386,-0.075155,0.151738,-0.0751792,-3.17261e-06,1.7235e-06,-1.49518e-05,0.148235,-0.07240030276788523,-3.1726049672942125e-06,1.7235014853067554e-06,0.16385526640298553,-1.4951688222408777e-05,-0.07242275040894064
175,0.1649,0.0395659,735.554,0.0531013,-0.016476,0.0438567,-0.0110139,-0.0755833,0.152597,-0.0756068,-4.10946e-06,2.55149e-06,-1.39045e-05,0.14909,-0.07279750865049794,-4.109451556155719e-06,2.551493255120718e-06,0.16485544759314563,-1.3904403332931636e-05,-0.07281929765302286
176,0.1659,-0.0477871,736.215,-0.0900072,0.014061,0.021537,-0.0469855,-0.0760117,0.153455,-0.0760357,-3.67129e-06,2.34493e-06,-1.45237e-05,0.149944,-0.07319463712679886,-3.6712832608420953e-06,2.3449327493096916e-06,0.16585532245215573,-1.4523594531579143e-05,-0.07321688018858996
177,0.1669,0.0897239,737.167,0.134084,-0.032674,0.0581095,0.0110281,-0.0764393,0.154313,-0.0764629,-4.37999e-06,3.00005e-06,-1.37437e-05,0.150798,-0.07359085438267698,-4.379980407809292e-06,3.0000545001573897e-06,0.16685605557193606,-1.3743605555838201e-05,-0.07361271738052921
178,0.1679,-0.0431689,737.76,-0.084323,0.0131579,0.0230781,-0.0451422,-0.0768671,0.155169,-0.0768913,-3.75067e-06,2.64006e-06,-1.46127e-05,0.151651,-0.07398708745487492,-3.7506629662065194e-06,2.640063484937727e-06,0.16785531197623071,-1.4612593234986093e-05,-0.0740094966962056
179,0.1689,0.104089,738.718,0.157884,-0.0374722,0.0618521,0.0173965,-0.077294,0.156025,-0.0773177,-4.52559e-06,3.33492e-06,-1.37526e-05,0.152503,-0.07438231799927841,-4.525579759495635e-06,3.33492556081616e-06,0.1688554241102076,-1.3752505433450857e-05,-0.07440425487838875
180,0.1699,-0.0522137,739.272,-0.0997783,0.0165288,0.0205855,-0.0490526,-0.077721,0.15688,-0.0777456,-3.78049e-06,2.88831e-06,-1.47658e-05,0.153355,-0.0747774723780289,-3.780482853987799e-06,2.8883141711677496e-06,0.16985522285087695,-1.4765690986129343e-05,-0.07480023257225688
181,0.1709,0.115523,740.25,0.177116,-0.0413653,0.064763,0.0225515,-0.0781472,0.157735,-0.0781711,-4.66123e-06,3.6599e-06,-1.37724e-05,0.154205,-0.07517171819954904,-4.661219136448125e-06,3.659906697484061e-06,0.17085587678501257,-1.3772305160975051e-05,-0.07519382133135055
182,0.1719,-0.0638788,740.764,-0.119267,0.0207535,0.0173833,-0.0539824,-0.0785736,0.158588,-0.0785984,-3.79799e-06,3.12581e-06,-1.49309e-05,0.155056,-0.07556598091612388,-3.7979827876011285e-06,3.125814885374112e-06,0.1718550429316883,-1.4930788534650574e-05,-0.07558890659551754
183,0.1729,0.127729,741.766,0.197617,-0.0455388,0.067883,0.0280337,-0.078999,0.159441,-0.079023,-4.79994e-06,3.98623e-06,-1.37859e-05,0.155905,-0.0759591515145267,-4.799928480347937e-06,3.98623794506392e-06,0.17285506173069165,-1.3785804974908444e-05,-0.07598132822876869
184,0.1739,-0.0769223,742.239,-0.140979,0.0254505,0.0138081,-0.0594918,-0.0794247,0.160294,-0.0794498,-3.80734e-06,3.35619e-06,-1.51033e-05,0.156754,-0.07635243198803898,-3.807332752070458e-06,3.356195632076009e-06,0.17385593390964527,-1.5103185945775088e-05,-0.07637561525104497
185,0.1749,0.141136,743.269,0.2201,-0.0501382,0.0713282,0.0340284,-0.0798494,0.161145,-0.0798735,-4.9434e-06,4.31519e-06,-1.37909e-05,0.157602,-0.07674462182276731,-4.94338778145309e-06,4.315199310545026e-06,0.1748553104838222,-1.3790804905933207e-05,-0.07676687200926557
186,0.1759,-0.091225,743.697,-0.16478,0.0305913,0.00989576,-0.0655498,-0.0802743,0.161996,-0.0802997,-3.80884e-06,3.57987e-06,-1.52827e-05,0.158449,-0.07713682970249003,-3.808832746421409e-06,3.579876407755478e-06,0.1758555378894413,-1.5282583220144197e-05,-0.07716027012932092
187,0.1769,0.155807,744.758,0.244695,-0.0551899,0.0751168,0.0405734,-0.0806983,0.162846,-0.0807226,-5.09198e-06,4.64703e-06,-1.37871e-05,0.159295,-0.07752804074409447,-5.091967035908418e-06,4.647040797500779e-06,0.17685543999483966,-1.3787004958354387e-05,-0.07755045654035142
188,0.1779,-0.106787,745.139,-0.190698,0.0361809,0.00564703,-0.0721662,-0.0811226,0.163695,-0.0811482,-3.80244e-06,3.79691e-06,-1.54693e-05,0.160142,-0.07791936257161025,-3.8024327707608663e-06,3.7969172081986358e-06,0.1778550145227411,-1.5469180351002088e-05,-0.0779429675337836
189,0.1789,0.171762,746.234,0.271451,-0.0607038,0.0792544,0.0476827,-0.0815457,0.164544,-0.0815702,-5.24587e-06,4.98187e-06,-1.37743e-05,0.160986,-0.07830941236845301,-5.245856240398972e-06,4.981882409493821e-06,0.178855438049766,-1.3774205134819972e-05,-0.07833199351122977
190,0.1799,-0.123613,746.564,-0.218751,0.0422238,0.00106077,-0.0793482,-0.0819694,0.165392,-0.0819953,-3.78811e-06,4.00733e-06,-1.56631e-05,0.161832,-0.0786998499503897,-3.788102825086348e-06,4.0073380294103345e-06,0.17985553144089916,-1.5662977334240935e-05,-0.07872371131527
191,0.1809,0.189004,747.697,0.300382,-0.0666837,0.0837425,0.0553615,-0.0823918,0.166239,-0.0824164,-5.40514e-06,5.31977e-06,-1.37523e-05,0.162675,-0.0790889249553447,-5.405125392266008e-06,5.31978415008183e-06,0.18085529241503218,-1.375220543753386e-05,-0.07911157908914379
192,0.1819,-0.141693,747.973,-0.248937,0.0487194,-0.00386103,-0.0870963,-0.0828148,0.167086,-0.082841,-3.76589e-06,4.21122e-06,-1.58643e-05,0.163519,-0.07947838796285533,-3.7658829090680968e-06,4.211228867179173e-06,0.18185590054543055,-1.5864174162660838e-05,-0.07950250531315195
193,0.1829,0.20752,749.148,0.331476,-0.0731274,0.0885785,0.0636072,-0.0832364,0.167931,-0.0832611,-5.56981e-06,5.66072e-06,-1.37212e-05,0.16436,-0.07986639807621099,-5.569794488624602e-06,5.660736021928514e-06,0.18285499083759205,-1.3721105864727967e-05,-0.07988912509549861
194,0.1839,-0.161004,749.366,-0.281219,0.055661,-0.00911207,-0.0954032,-0.0836587,0.168776,-0.0836853,-3.73593e-06,4.40872e-06,-1.60727e-05,0.165203,-0.08025488846078521,-3.735923021386256e-06,4.408729718408111e-06,0.18385492571783835,-1.6072570834801958e-05,-0.08027935335536762
195,0.1849,0.227278,750.587,0.364687,-0.0800263,0.0937553,0.0724089,-0.0840796,0.169621,-0.0841044,-5.73978e-06,6.00469e-06,-1.36812e-05,0.166043,-0.08064192772010603,-5.739763527468078e-06,6.004708028140016e-06,0.18485570590014855,-1.3681106412755106e-05,-0.08066472751757991
196,0.1859,-0.181501,750.744,-0.315533,0.0630351,-0.0146811,-0.104253,-0.0845013,0.170464,-0.0845282,-3.69847e-06,4.60006e-06,-1.62881e-05,0.166884,-0.0810295392855438,-3.6984631606173934e-06,4.600070580229598e-06,0.18585496038681182,-1.6287967349648547e-05,-0.08105425925845189
197,0.1869,0.24823,752.014,0.399937,-0.0873647,0.0992605,0.081747,-0.0849214,0.171307,-0.0849464,-5.91489e-06,6.35153e-06,-1.36327e-05,0.167722,-0.08141551769564825,-5.914872507117863e-06,6.351550170924369e-06,0.18685505760016685,-1.363260707520908e-05,-0.08143848202065063
198,0.1879,-0.203121,752.107,-0.351777,0.0708212,-0.0205516,-0.113621,-0.0853425,0.17215,-0.0853696,-3.65384e-06,4.78554e-06,-1.65101e-05,0.168563,-0.08180225218848436,-3.6538333246793897e-06,4.785551450670056e-06,0.18785599825093158,-1.6509963709054887e-05,-0.08182713501028627
199,0.1889,0.270305,753.429,0.437113,-0.0951194,0.105076,0.0915926,-0.0857618,0.172991,-0.0857869,-6.09482e-06,6.70106e-06,-1.35759e-05,0.1694,-0.08218717180010571,-6.094801426659302e-06,6.701082452043039e-06,0.18885540533723533,-1.3575807847887589e-05,-0.08221020861298023
200,0.1899,-0.22578,753.456,-0.389815,0.0789911,-0.0267015,-0.123472,-0.0861822,0.173832,-0.0862097,-3.60251e-06,4.96553e-06,-1.67383e-05,0.170238,-0.08257293921908782,-3.6025035109465975e-06,4.965542328205785e-06,0.18985565327842857,-1.6738159915430373e-05,-0.08259816811636045
201,0.1909,0.29341,754.832,0.476067,-0.10326,0.111179,0.101907,-0.0866008,0.174672,-0.0866259,-6.2792e-06,7.05298e-06,-1.35116e-05,0.171074,-0.08295689381942628,-6.279180285839736e-06,7.053004872359381e-06,0.19085555192582038,-1.3511508718755394e-05,-0.0829799113125207
202,0.1919,-0.249372,754.79,-0.429475,0.087509,-0.0331029,-0.133764,-0.0870205,0.175511,-0.0870484,-3.54503e-06,5.14049e-06,-1.69721e-05,0.171911,-0.08334169605469277,-3.5450237163558995e-06,5.140503212430758e-06,0.1918550989852439,-1.6971955974720565e-05,-0.08336727046460812
203,0.1929,0.317431,756.223,0.51661,-0.111747,0.117538,0.112643,-0.0874384,0.17635,-0.0874636,-6.4675e-06,7.40694e-06,-1.34404e-05,0.172745,-0.08372468752826923,-6.467479085725536e-06,7.406967431400346e-06,0.19285548501655003,-1.34403096782032e-05,-0.08374777737521022
204,0.1939,-0.273769,756.11,-0.47055,0.0963317,-0.0397224,-0.144443,-0.0878575,0.177188,-0.0878857,-3.48209e-06,5.31097e-06,-1.72106e-05,0.173582,-0.08410861805346503,-3.4820839375226953e-06,5.310984103168437e-06,0.19385551686781732,-1.721045189850834e-05,-0.08413444582626262
205,0.1949,0.342233,757.603,0.558521,-0.120535,0.12412,0.123743,-0.0882745,0.178025,-0.0882999,-6.65911e-06,7.76249e-06,-1.33631e-05,0.174414,-0.08449046513908609,-6.659087828153609e-06,7.762520128240524e-06,0.1948551922412176,-1.3363010714195767e-05,-0.08451371878594893
206,0.1959,-0.298826,757.417,-0.512795,0.105408,-0.046521,-0.155445,-0.0886931,0.178862,-0.0887216,-3.41447e-06,5.47759e-06,-1.7453e-05,0.175249,-0.08487361723105113,-3.414464170736764e-06,5.477605002024433e-06,0.19585570469317415,-1.745284769727462e-05,-0.08489969796130792
207,0.1969,0.367659,758.971,0.60154,-0.129568,0.130881,0.135139,-0.0891093,0.179698,-0.0891348,-6.85328e-06,8.11912e-06,-1.32807e-05,0.17608,-0.08525441358234198,-6.853256516281547e-06,8.119152960173182e-06,0.19685585806815808,-1.3280611811938847e-05,-0.08527773929739157
208,0.1979,-0.324373,758.71,-0.555933,0.11468,-0.0534547,-0.166699,-0.0895272,0.180533,-0.0895561,-3.34306e-06,5.64105e-06,-1.76983e-05,0.176914,-0.08563660589825939,-3.3430544119639194e-06,5.641065910833021e-06,0.1978556500647135,-1.7698143386035703e-05,-0.08566303061850988
209,0.1989,-0.141967,759.618,-0.241748,0.0478857,-0.00680245,-0.0847457,-0.0899434,0.181367,-0.0899717,-4.03569e-06,6.19865e-06,-1.69313e-05,0.177745,-0.08601708475974112,-4.035681856584539e-06,6.198669211698871e-06,0.1988550783805454,-1.693115666634437e-05,-0.08604295011024599
210,0.1999,0.0241614,760.492,0.0285338,-0.00917555,0.0379991,-0.0143703,-0.0903593,0.182201,-0.0903871,-4.7957e-06,6.88005e-06,-1.60758e-05,0.178575,-0.08639713121805048,-4.795688500647266e-06,6.8800736676699614e-06,0.19985534056726828,-1.6075670784987395e-05,-0.08642252902477143
211,0.2009,-0.0288493,761.076,-0.0586968,0.00984614,0.0244371,-0.0362286,-0.0907752,0.183034,-0.0908034,-4.51874e-06,6.78882e-06,-1.64733e-05,0.179405,-0.08677701964790197,-4.518729790459197e-06,6.788843044169823e-06,0.2008552364647842,-1.647316431596657e-05,-0.08680277217283561
212,0.2019,0.0639469,761.849,0.0938348,-0.0223327,0.0495149,0.00369677,-0.0911906,0.183867,-0.0912185,-5.00462e-06,7.26144e-06,-1.59465e-05,0.180234,-0.08715629369326716,-5.004607476877254e-06,7.2614663644277044e-06,0.20185596562258734,-1.5946372855291102e-05,-0.08718176167739311
213,0.2029,-0.0188209,762.387,-0.0437588,0.00690525,0.0273771,-0.0320401,-0.0916059,0.184698,-0.0916343,-4.60671e-06,7.0726e-06,-1.65074e-05,0.181063,-0.087535318974449,-4.606699389175795e-06,7.072625010984268e-06,0.20285512302242115,-1.6507263753573476e-05,-0.08756123260341486
214,0.2039,0.0703894,763.15,0.104788,-0.0244866,0.0511805,0.00674719,-0.0920206,0.185529,-0.0920486,-5.08966e-06,7.53425e-06,-1.59848e-05,0.181891,-0.08791363962746113,-5.089647047706869e-06,7.5342783825149695e-06,0.20385511106713916,-1.598467224372957e-05,-0.08793917768801696
215,0.2049,-0.0201109,763.671,-0.0463965,0.00757035,0.0269454,-0.0326511,-0.0924352,0.18636,-0.0924638,-4.65334e-06,7.3176e-06,-1.65945e-05,0.182718,-0.08829171225260068,-4.653329173209819e-06,7.317626773639674e-06,0.20485593044729455,-1.6594362312050137e-05,-0.08831778673676338
216,0.2059,0.0732381,764.435,0.10986,-0.025437,0.0518435,0.00823323,-0.0928492,0.187189,-0.0928775,-5.16007e-06,7.79455e-06,-1.604e-05,0.183545,-0.08866908136293228,-5.160056686825953e-06,7.794580377584737e-06,0.20585517014126187,-1.6039871359896374e-05,-0.08869487166299528
217,0.2069,-0.0226708,764.943,-0.0508393,0.00862657,0.0261586,-0.0337052,-0.0932632,0.188018,-0.093292,-4.69441e-06,7.55702e-06,-1.66857e-05,0.184371,-0.08904629427478761,-4.694398981319736e-06,7.5570485542630905e-06,0.20685523854838972,-1.668556079448269e-05,-0.08907252936372534
218,0.2079,0.0756914,765.708,0.11421,-0.0262455,0.052402,0.00952339,-0.0936765,0.188846,-0.0937049,-5.22766e-06,8.05204e-06,-1.60967e-05,0.185196,-0.08942271364894183,-5.22764633581474e-06,8.052072417719103e-06,0.20785492850043386,-1.609657044876478e-05,-0.08944857367666015
219,0.2089,-0.0253308,766.204,-0.055359,0.00970327,0.0253387,-0.0347759,-0.0940898,0.189674,-0.0941188,-4.73414e-06,7.79443e-06,-1.67761e-05,0.186021,-0.08979897748111387,-4.734128793981718e-06,7.79446037668663e-06,0.20885544653853838,-1.67759592820671e-05,-0.08982537292803106
220,0.2099,0.0780482,766.97,0.118359,-0.0270166,0.0529375,0.0107562,-0.0945024,0.190501,-0.0945311,-5.29357e-06,8.30757e-06,-1.61534e-05,0.186844,-0.09017444895791282,-5.293555989105414e-06,8.307604507873378e-06,0.20985558349245426,-1.615326953452456e-05,-0.09020056057652426
221,0.2109,-0.0279269,767.454,-0.0597416,0.0107531,0.0245342,-0.0358098,-0.094915,0.191327,-0.0949443,-4.77311e-06,8.03042e-06,-1.68653e-05,0.187668,-0.09054976554713601,-4.7730986086902405e-06,8.030452243845687e-06,0.21085533704579418,-1.686515778165365e-05,-0.09057641204863232
222,0.2119,0.0803068,768.221,0.122327,-0.0277526,0.0534494,0.0119398,-0.095327,0.192153,-0.0953558,-5.35782e-06,8.56112e-06,-1.621e-05,0.18849,-0.09092438186746954,-5.357805646921676e-06,8.561156646491597e-06,0.2118559167367171,-1.6209868618610734e-05,-0.09095056286826353
223,0.2129,-0.0304121,768.693,-0.0639289,0.0117625,0.0237587,-0.0367932,-0.0957389,0.192977,-0.0957684,-4.81151e-06,8.26521e-06,-1.69529e-05,0.189312,-0.09129875300754897,-4.811498424683869e-06,8.26524415686869e-06,0.21285489753567366,-1.6952756300425698e-05,-0.09132555929894048
224,0.2139,0.0824403,769.462,0.126078,-0.0284452,0.0539297,0.0130665,-0.0961502,0.193802,-0.0961792,-5.42031e-06,8.81259e-06,-1.62667e-05,0.190133,-0.0916724249795281,-5.42029531014343e-06,8.812628830900948e-06,0.21385591568935247,-1.6266567697931222e-05,-0.09169876609725569
225,0.2149,-0.0327565,769.922,-0.0678791,0.012722,0.0230208,-0.0377159,-0.0965615,0.194625,-0.0965911,-4.84951e-06,8.49891e-06,-1.70389e-05,0.190954,-0.09204594329182747,-4.8494982411995124e-06,8.498946115764738e-06,0.2148553303106704,-1.7038754838716308e-05,-0.09207281833415348
226,0.2159,0.0844223,770.691,0.129576,-0.0290857,0.0543711,0.0141263,-0.096972,0.195448,-0.0970013,-5.48091e-06,9.0619e-06,-1.63237e-05,0.191774,-0.09241858194279029,-5.480894979870143e-06,9.061941059096412e-06,0.2158555677887808,-1.6323566769171904e-05,-0.09244517368876848
227,0.2169,-0.0349351,771.141,-0.0715531,0.013623,0.0223273,-0.0385677,-0.0973826,0.19627,-0.0974126,-4.88722e-06,8.73165e-06,-1.71231e-05,0.192593,-0.092791158377868,-4.887208057580139e-06,8.731688120988679e-06,0.21685541194515334,-1.7122953400505736e-05,-0.09281837423487682
228,0.2179,0.0862291,771.91,0.13278,-0.0296658,0.0547671,0.0151093,-0.0977926,0.197092,-0.097822,-5.53952e-06,9.30897e-06,-1.63809e-05,0.193411,-0.09316303776244983,-5.539504656870697e-06,9.309013328628879e-06,0.21785607831130416,-1.6380765833767796e-05,-0.09318969837722668
229,0.2189,-0.0369253,772.349,-0.0749136,0.0144574,0.0216845,-0.0393388,-0.0982025,0.197912,-0.0982326,-4.9248e-06,8.96353e-06,-1.72054e-05,0.19423,-0.09353467406120819,-4.924787873172853e-06,8.963570172548785e-06,0.21885512985067046,-1.7205251988006154e-05,-0.09356195825688973
230,0.2199,0.0878392,773.119,0.135656,-0.0301776,0.0551117,0.0160061,-0.0986117,0.198732,-0.0986414,-5.59605e-06,9.55374e-06,-1.64387e-05,0.195046,-0.0939055237915527,-5.596034342136846e-06,9.553785637050893e-06,0.21985500094827182,-1.64385648853127e-05,-0.09393243439787169
231,0.2209,-0.038707,773.548,-0.0779267,0.0152179,0.0210978,-0.0400202,-0.099021,0.199552,-0.0990514,-4.96234e-06,9.19463e-06,-1.72857e-05,0.195863,-0.09427631237360512,-4.962327687652035e-06,9.19467227067372e-06,0.220855692276422,-1.7285550603096667e-05,-0.09430384595519636
232,0.2219,0.0892334,774.317,0.13817,-0.030614,0.0553996,0.0168079,-0.0994296,0.200371,-0.0994594,-5.65039e-06,9.79615e-06,-1.64971e-05,0.196679,-0.09464631547558777,-5.650374036547667e-06,9.79619798235909e-06,0.22185598265139195,-1.6496963923584573e-05,-0.09467329461339546
233,0.2229,-0.0402621,774.738,-0.0805613,0.0158978,0.0205721,-0.0406035,-0.0998382,0.201189,-0.0998688,-4.99998e-06,9.42506e-06,-1.73638e-05,0.197495,-0.09501616742518548,-4.999967500141089e-06,9.425104416038721e-06,0.2228558697432672,-1.7363649250090596e-05,-0.09504385950677119
234,0.2239,0.0903948,775.505,0.140294,-0.0309687,0.0556262,0.0175071,-0.100246,0.202006,-0.100276,-5.70248e-06,1.00362e-05,-1.65563e-05,0.198309,-0.09538514459255154,-5.702463740875352e-06,1.003625036277711e-05,0.22385535122143607,-1.6556162945269293e-05,-0.09541228263114121
235,0.2249,-0.0415755,775.918,-0.0827909,0.0164913,0.0201118,-0.0410817,-0.100654,0.202823,-0.100685,-5.03779e-06,9.65487e-06,-1.74397e-05,0.199123,-0.095754152170893,-5.037777310312741e-06,9.654916608425879e-06,0.224855649609635,-1.743954792932101e-05,-0.09578218335769006
236,0.2259,0.0913094,776.684,0.142002,-0.0312363,0.0557874,0.0180968,-0.101061,0.203639,-0.101092,-5.75225e-06,1.02737e-05,-1.66163e-05,0.199936,-0.09612210534740873,-5.752233455891265e-06,1.0273752774736522e-05,0.2258555397193993,-1.6616161950033792e-05,-0.09615012512783416
237,0.2269,-0.0426345,777.089,-0.0845934,0.0169935,0.0197202,-0.0414486,-0.101469,0.204454,-0.1015,-5.07587e-06,9.88414e-06,-1.75132e-05,0.200749,-0.09649081230709255,-5.075857117842197e-06,9.884188848285902e-06,0.22685501921684237,-1.751304664476816e-05,-0.09651882065777928
238,0.2279,0.091966,777.852,0.143275,-0.0314123,0.0558801,0.0185719,-0.101875,0.205269,-0.101906,-5.79965e-06,1.05088e-05,-1.66772e-05,0.201561,-0.09685756258195222,-5.7996331820353575e-06,1.0508855217583601e-05,0.22785531362210598,-1.667706093622101e-05,-0.09688555956355671
239,0.2289,-0.0434296,778.25,-0.0859515,0.0174007,0.0194001,-0.0416996,-0.102282,0.206083,-0.102313,-5.11429e-06,1.01129e-05,-1.75843e-05,0.202372,-0.09722506676180775,-5.1142769220691164e-06,1.0112951135621273e-05,0.22885519474380112,-1.7584145397098183e-05,-0.09725305235095927
240,0.2299,0.0923564,779.011,0.144098,-0.0314935,0.0559021,0.0189281,-0.102688,0.206897,-0.102718,-5.84464e-06,1.07414e-05,-1.67392e-05,0.203183,-0.0975915189898664,-5.844622920081477e-06,1.0741457689089629e-05,0.2298558901000778,-1.6739059900405806e-05,-0.097618590838217
241,0.2309,-0.0439544,779.403,-0.0868534,0.0177103,0.0191532,-0.0418313,-0.103094,0.207709,-0.103125,-5.15308e-06,1.03412e-05,-1.7653e-05,0.203993,-0.0979578224685187,-5.153066722884958e-06,1.034125347043613e-05,0.23085493864165385,-1.7652844186755168e-05,-0.09798578534259539
242,0.2319,0.0924759,780.16,0.144462,-0.0314778,0.0558518,0.0191629,-0.103499,0.208522,-0.10353,-5.8872e-06,1.09715e-05,-1.68022e-05,0.204802,-0.09832307558167097,-5.8871826704720576e-06,1.0971560187034157e-05,0.23185603059550797,-1.680205884380115e-05,-0.09835102713307664
243,0.2329,-0.0442057,780.547,-0.0872925,0.0179207,0.0189807,-0.0418417,-0.103904,0.209333,-0.103936,-5.19229e-06,1.05691e-05,-1.77192e-05,0.205611,-0.09868818079726371,-5.192276520071815e-06,1.0569155853179524e-05,0.23285547105464777,-1.7719043015951286e-05,-0.09871702231401147
244,0.2339,0.0923226,781.3,0.144363,-0.0313642,0.0557286,0.0192751,-0.104309,0.210144,-0.10434,-5.92733e-06,1.11991e-05,-1.68663e-05,0.206419,-0.09905313817518324,-5.927312433429144e-06,1.119916271008492e-05,0.23385572238876517,-1.6866157764749978e-05,-0.09908106709499942
245,0.2349,-0.0441835,781.682,-0.0872679,0.0180315,0.0188826,-0.0417304,-0.104714,0.210954,-0.104745,-5.23193e-06,1.07966e-05,-1.7783e-05,0.207227,-0.09941794777529178,-5.231916313519491e-06,1.0796658283407368e-05,0.23485555039957884,-1.7782841883362543e-05,-0.0994458653861856
246,0.2359,0.0918984,782.43,0.143803,-0.0311529,0.0555328,0.019265,-0.105117,0.211763,-0.105149,-5.96505e-06,1.14243e-05,-1.69314e-05,0.208033,-0.09978080922084609,-5.965032209176435e-06,1.1424365257584057e-05,0.2358549527435927,-1.693125666468731e-05,-0.09980961577404368
247,0.2369,-0.0438912,782.809,-0.0867843,0.0180437,0.018858,-0.0414984,-0.105522,0.212572,-0.105554,-5.27201e-06,1.10237e-05,-1.78443e-05,0.20884,-0.10014532417385125,-5.271996103006771e-06,1.1023760761119661e-05,0.23685516393123618,-1.7844140791423158e-05,-0.10017411906275697
248,0.2379,0.091208,783.552,0.142789,-0.0308452,0.0552657,0.0191343,-0.105925,0.21338,-0.105956,-6.00038e-06,1.1647e-05,-1.69976e-05,0.209645,-0.10050789254577519,-6.0003619977155864e-06,1.1647067826636714e-05,0.2378549467615625,-1.699745554162302e-05,-0.10053577636890476
249,0.2389,-0.0433351,783.928,-0.0858514,0.0179592,0.0189055,-0.0411482,-0.106328,0.214188,-0.10636,-5.3125e-06,1.12503e-05,-1.79033e-05,0.21045,-0.10087031483208353,-5.312485888642193e-06,1.1250363284753817e-05,0.23885553774286472,-1.790313973693003e-05,-0.10089908652165935
250,0.2399,0.0902593,784.664,0.141334,-0.0304439,0.0549291,0.0188861,-0.106731,0.214995,-0.106763,-6.03337e-06,1.18673e-05,-1.70648e-05,0.211254,-0.10123259109163674,-6.033351799272779e-06,1.1867370416585032e-05,0.23985569767207537,-1.706465439710314e-05,-0.10126135118855784
251,0.2409,-0.0425248,785.038,-0.0844843,0.0177811,0.0190226,-0.0406834,-0.107134,0.215801,-0.107166,-5.35336e-06,1.14765e-05,-1.79599e-05,0.212058,-0.10159472138327197,-5.353345670755516e-06,1.1476565855206289e-05,0.24085542420006822,-1.795973872198431e-05,-0.10162346989220916
252,0.2419,0.0890634,785.767,0.139454,-0.0299524,0.054526,0.0185248,-0.107536,0.216607,-0.107567,-6.06409e-06,1.20853e-05,-1.7133e-05,0.212861,-0.10195580772205903,-6.064071613409716e-06,1.2085373027437285e-05,0.2418559568324592,-1.7132853231016654e-05,-0.10198364666051385
253,0.2429,-0.0414723,786.141,-0.0827029,0.0175135,0.0192061,-0.0401092,-0.107938,0.217412,-0.10797,-5.39456e-06,1.17023e-05,-1.80142e-05,0.213663,-0.10231674893331055,-5.394545449344257e-06,1.1702368472255031e-05,0.24285605336255545,-1.8014037745262e-05,-0.10234547433773578
254,0.2439,0.0876337,786.862,0.137173,-0.0293753,0.0540599,0.0180562,-0.108339,0.218216,-0.108371,-6.09262e-06,1.23011e-05,-1.7202e-05,0.214465,-0.10267664775245233,-6.092601440021994e-06,1.2301175658757657e-05,0.24385571143815565,-1.7201852046455635e-05,-0.10270536164029964
255,0.2449,-0.0401924,787.235,-0.0805314,0.0171614,0.0194521,-0.0394318,-0.10874,0.219019,-0.108773,-5.43603e-06,1.19275e-05,-1.80663e-05,0.215266,-0.10303640228109989,-5.436015224846713e-06,1.1927571132996917e-05,0.24485492870648162,-1.8066136805439115e-05,-0.10306600159143331
256,0.2459,0.0859861,787.948,0.134516,-0.0287182,0.053535,0.0174871,-0.109141,0.219822,-0.109174,-6.11903e-06,1.25146e-05,-1.72719e-05,0.216066,-0.10339601257710207,-6.119011278782338e-06,1.251467830787334e-05,0.24585494866851265,-1.7271750841540978e-05,-0.1034256000204915
257,0.2469,-0.0387021,788.321,-0.0779977,0.0167309,0.0197562,-0.0386585,-0.109542,0.220625,-0.109575,-5.4777e-06,1.21521e-05,-1.81164e-05,0.216866,-0.10375547869828439,-5.4776849974791375e-06,1.2152173836987856e-05,0.24685577196907027,-1.8116235898979482e-05,-0.10378505427948759
258,0.2479,0.0841388,789.026,0.131514,-0.0279873,0.052956,0.0168252,-0.109942,0.221426,-0.109975,-6.14344e-06,1.2726e-05,-1.73424e-05,0.217665,-0.10411390481680238,-6.143421129145565e-06,1.2726080975911103e-05,0.24785490354119188,-1.734224962146591e-05,-0.10414346857013879
259,0.2489,-0.0370201,789.4,-0.0751334,0.0162283,0.0201133,-0.0377974,-0.110342,0.222228,-0.110375,-5.51947e-06,1.23761e-05,-1.81646e-05,0.218464,-0.10447218759354326,-5.519454767788368e-06,1.237617658422785e-05,0.2488560845937704,-1.8164435024670134e-05,-0.10450173952374309
260,0.2499,0.0821113,790.096,0.1282,-0.0271896,0.0523283,0.0160791,-0.110742,0.223028,-0.110774,-6.16595e-06,1.29354e-05,-1.74134e-05,0.219261,-0.10483032708583218,-6.1659309905648385e-06,1.2935483662657177e-05,0.24985556920198282,-1.7413248387665448e-05,-0.10485897205704342
261,0.2509,-0.0351669,790.47,-0.0719725,0.0156611,0.020518,-0.0368575,-0.111141,0.223828,-0.111175,-5.56126e-06,1.25995e-05,-1.8211e-05,0.220059,-0.10518742853884744,-5.5612445362118734e-06,1.2599579374050762e-05,0.2508558537178023,-1.8210834180742985e-05,-0.10521785164908137
262,0.2519,0.0799249,791.157,0.124608,-0.0263327,0.0516574,0.0152581,-0.11154,0.224627,-0.111573,-6.18669e-06,1.31429e-05,-1.74849e-05,0.220855,-0.10554438753680473,-6.186670862495802e-06,1.314298636834188e-05,0.25185568692509785,-1.7484747140028567e-05,-0.10557390408499023
263,0.2529,-0.033164,791.534,-0.0685513,0.0150368,0.0209646,-0.0358482,-0.111939,0.225425,-0.111972,-5.60297e-06,1.28221e-05,-1.82557e-05,0.221651,-0.10590120413653203,-5.602954303407515e-06,1.2822182203553467e-05,0.2528550664626654,-1.825553336576302e-05,-0.10593070890996414
264,0.2539,0.0776015,792.211,0.120776,-0.0254242,0.0509493,0.0143719,-0.112337,0.226223,-0.11237,-6.20577e-06,1.33485e-05,-1.75567e-05,0.222446,-0.10625698465226663,-6.205750744281424e-06,1.3348589091632945e-05,0.2538552438233932,-1.7556545882091434e-05,-0.10628647768513544
265,0.2549,-0.0310338,792.589,-0.0649074,0.0143635,0.0214471,-0.0347794,-0.112735,0.22702,-0.112769,-5.64448e-06,1.30438e-05,-1.82988e-05,0.223241,-0.10661262359553081,-5.644464069920474e-06,1.3043885070729289e-05,0.2548549647886058,-1.829863257796216e-05,-0.10664299824995649
266,0.2559,0.075164,793.256,0.116743,-0.0244725,0.0502101,0.0134306,-0.113133,0.227817,-0.113166,-6.22333e-06,1.35524e-05,-1.76287e-05,0.224035,-0.10696812102265907,-6.223310635156132e-06,1.3552491834101232e-05,0.2558554828490278,-1.7628544615400088e-05,-0.10699759058841485
267,0.2569,-0.028799,793.637,-0.0610794,0.0136494,0.0219592,-0.0336614,-0.11353,0.228613,-0.113564,-5.6857e-06,1.32647e-05,-1.83407e-05,0.224829,-0.10732258431299446,-5.685683836409439e-06,1.3264787976474679e-05,0.25685554178402725,-1.834053181037909e-05,-0.10735293482916608
268,0.2579,0.0726353,794.294,0.112547,-0.0234858,0.049446,0.0124445,-0.113927,0.229408,-0.113961,-6.23949e-06,1.37546e-05,-1.77007e-05,0.225622,-0.10767690690933307,-6.23947053446372e-06,1.3754694594858563e-05,0.2578551392270818,-1.7700543343490693e-05,-0.10770724537874132
269,0.2589,-0.0264824,794.678,-0.0571061,0.0129027,0.022495,-0.0325043,-0.114324,0.230203,-0.114359,-5.7265e-06,1.34846e-05,-1.83813e-05,0.226414,-0.10803108886751955,-5.7264836036408084e-06,1.3484690917664466e-05,0.25885553166607234,-1.838113106489292e-05,-0.10806230723308463
270,0.2599,0.0700381,795.325,0.108228,-0.0224724,0.0486631,0.0114237,-0.114721,0.230997,-0.114755,-6.25438e-06,1.39553e-05,-1.77725e-05,0.227205,-0.10838513024337604,-6.2543604414377896e-06,1.3955397375697842e-05,0.2598554598771825,-1.777234207001044e-05,-0.1084154446336002
271,0.2609,-0.0241067,795.711,-0.0530258,0.0121316,0.0230482,-0.0313182,-0.115117,0.23179,-0.115151,-5.76679e-06,1.37034e-05,-1.84209e-05,0.227997,-0.1087381398312881,-5.766773372051226e-06,1.3703493892069929e-05,0.26085492149101897,-1.842073033631042e-05,-0.1087684422193903
272,0.2619,0.0673948,796.348,0.103822,-0.0214403,0.0478675,0.0103783,-0.115513,0.232583,-0.115547,-6.26814e-06,1.41546e-05,-1.78441e-05,0.228787,-0.10909100965507845,-6.268120355201745e-06,1.4154700176849389e-05,0.26185517599225383,-1.7843940794959323e-05,-0.10912130004581067
273,0.2629,-0.0216936,796.737,-0.0488759,0.0113441,0.023613,-0.0301131,-0.115908,0.233375,-0.115943,-5.80646e-06,1.39212e-05,-1.84596e-05,0.229577,-0.10944284921337732,-5.806443142519768e-06,1.3921296900365476e-05,0.26285496115430296,-1.8459429622641466e-05,-0.10947401816819491
274,0.2639,0.064727,797.363,0.0993681,-0.0203975,0.047065,0.00931821,-0.116304,0.234167,-0.116338,-6.28087e-06,1.43525e-05,-1.79152e-05,0.230366,-0.10979544002749997,-6.280850275430794e-06,1.4352602997647068e-05,0.263855538459848,-1.791503952375262e-05,-0.1098257064680066
275,0.2649,-0.0192644,797.756,-0.0446924,0.010548,0.0241836,-0.0288986,-0.116699,0.234958,-0.116733,-5.8454e-06,1.41377e-05,-1.84975e-05,0.231154,-0.11014700139074884,-5.8453829157034676e-06,1.4137799937641304e-05,0.26485564368023895,-1.8497328922340017e-05,-0.11017725587837235
276,0.2659,0.0620551,798.372,0.0949,-0.0193515,0.0462613,0.00825263,-0.117093,0.235748,-0.117128,-6.29272e-06,1.45491e-05,-1.79858e-05,0.231942,-0.11049753441266097,-6.2927002009161015e-06,1.4549205838765289e-05,0.26585527444090773,-1.7985638256501346e-05,-0.11052866645414261
277,0.2669,-0.0168387,798.768,-0.0405095,0.00975061,0.0247546,-0.0276836,-0.117487,0.236538,-0.117522,-5.88351e-06,1.4353e-05,-1.85347e-05,0.23273,-0.11084792935176657,-5.8834926921491615e-06,1.4353103004793866e-05,0.2668556952218941,-1.853452823352697e-05,-0.11087904912963997
278,0.2679,0.0593985,799.373,0.0904513,-0.0183094,0.0454615,0.00719041,-0.117881,0.237327,-0.117916,-6.30377e-06,1.47446e-05,-1.80558e-05,0.233516,-0.11119818626245948,-6.3037501313312205e-06,1.4744708702219e-05,0.2678556387912885,-1.805563699497359e-05,-0.11122929378155555
279,0.2689,-0.0144352,799.773,-0.0363589,0.00895873,0.0253209,-0.0264767,-0.118275,0.238115,-0.11831,-5.92072e-06,1.4567e-05,-1.85715e-05,0.234302,-0.1115483051991123,-5.920702472517192e-06,1.4567106099150351e-05,0.26885510277174673,-1.8571327550787053e-05,-0.11157940046426007
280,0.2699,0.056775,800.368,0.0860526,-0.0172778,0.0446705,0.00613972,-0.118668,0.238903,-0.118703,-6.31415e-06,1.4939e-05,-1.8125e-05,0.235087,-0.11189739811391819,-6.314130065798729e-06,1.4939111587342069e-05,0.2698553546402087,-1.8124835743149603e-05,-0.11192848116102772
281,0.2709,-0.0120708,800.771,-0.0322701,0.0081787,0.025878,-0.0252856,-0.119062,0.23969,-0.119097,-5.95693e-06,1.47796e-05,-1.86079e-05,0.235872,-0.11224724161536581,-5.956912257576441e-06,1.477970921892613e-05,0.2708551241620152,-1.8607726874120267e-05,-0.1122783124181671
282,0.2719,0.0542006,801.356,0.0817318,-0.0162628,0.0438927,0.00510802,-0.119454,0.240477,-0.119489,-6.32394e-06,1.51323e-05,-1.81933e-05,0.236657,-0.11259517249774431,-6.323920003881156e-06,1.513241449391245e-05,0.27185568081212974,-1.8193134502908492e-05,-0.11262623112317771
283,0.2729,-0.00976083,801.762,-0.0282695,0.00741625,0.0264216,-0.0241176,-0.119847,0.241263,-0.119882,-5.99207e-06,1.49909e-05,-1.86441e-05,0.23744,-0.112943854074535,-5.9920520475431616e-06,1.4991012364129475e-05,0.27285575235387727,-1.8643926199879424e-05,-0.11297490049632686
284,0.2739,0.0516898,802.337,0.0775139,-0.0152697,0.0431322,0.00410203,-0.120239,0.242048,-0.120274,-6.33324e-06,1.53247e-05,-1.82606e-05,0.238223,-0.11329151193834464,-6.333219945031665e-06,1.5324817423723047e-05,0.27385533640488435,-1.8260433276240384e-05,-0.11332254619232418
285,0.2749,-0.00751877,802.746,-0.0243805,0.00667646,0.0269479,-0.0229788,-0.120631,0.242833,-0.120666,-6.02608e-06,1.52007e-05,-1.868e-05,0.239006,-0.11363903354697946,-6.026061843189545e-06,1.5200815531191125e-05,0.27485570543743654,-1.8679825529832605e-05,-0.11367005563791555
286,0.2759,0.0492551,803.311,0.073421,-0.0143032,0.0423922,0.00312764,-0.121022,0.243617,-0.121058,-6.34212e-06,1.55162e-05,-1.83269e-05,0.239787,-0.11398553293981684,-6.342099888811958e-06,1.5516320376773862e-05,0.2758555842117638,-1.8326732063367324e-05,-0.11401742888650046
287,0.2769,-0.00535633,803.723,-0.0206236,0.00596377,0.0274539,-0.0218748,-0.121413,0.2444,-0.121449,-6.0589e-06,1.5409e-05,-1.87159e-05,0.240569,-0.1143318968778747,-6.058881644954717e-06,1.5409118719222903e-05,0.2768549703428127,-1.8715724858675564e-05,-0.11436378035568107
288,0.2779,0.0469074,804.279,0.0694717,-0.0133674,0.0416758,0.00218994,-0.121804,0.245183,-0.12184,-6.35065e-06,1.57069e-05,-1.8392e-05,0.241349,-0.11467812541410571,-6.350629834672716e-06,1.5707023353961347e-05,0.27785513929963823,-1.8391830868158543e-05,-0.11470999642790913
289,0.2789,-0.00328334,804.694,-0.0170161,0.00528195,0.0279366,-0.0208101,-0.122195,0.245966,-0.122231,-6.09049e-06,1.56159e-05,-1.87517e-05,0.242129,-0.11502421860144141,-6.090471453057411e-06,1.5616021928899215e-05,0.27885609169543346,-1.8751524187954338e-05,-0.11505607715611432
290,0.2799,0.0446555,805.241,0.0656818,-0.0124659,0.0409855,0.00129316,-0.122585,0.246747,-0.122621,-6.35889e-06,1.58968e-05,-1.8456e-05,0.242908,-0.11536929186252709,-6.3588697822858364e-06,1.5896926354841412e-05,0.27985526843077446,-1.8455829689068004e-05,-0.11540113799478624
291,0.2809,-0.00130783,805.658,-0.0135722,0.00463411,0.0283939,-0.0197887,-0.122975,0.247528,-0.123012,-6.12081e-06,1.58212e-05,-1.87876e-05,0.243687,-0.11571423057128039,-6.120791267827386e-06,1.5821325155762622e-05,0.28085522582795464,-1.878742351413276e-05,-0.1157469485394631
292,0.2819,0.0425065,806.196,0.0620639,-0.0116012,0.0403233,0.000440757,-0.123365,0.248309,-0.123401,-6.36689e-06,1.60859e-05,-1.85188e-05,0.244465,-0.11605903478016644,-6.366869731433411e-06,1.6086029378747924e-05,0.28185596449690875,-1.8518628528085834e-05,-0.11609085608212755
293,0.2829,0.000563948,806.616,-0.0103029,0.00402269,0.028824,-0.0188136,-0.123754,0.249088,-0.123791,-6.14982e-06,1.6025e-05,-1.88235e-05,0.245243,-0.11640282094489285,-6.149801089927465e-06,1.602512840093162e-05,0.28285491933564444,-1.882332283908994e-05,-0.11643551343570302
294,0.2839,0.0404657,807.145,0.0586276,-0.0107755,0.0396906,-0.000364634,-0.124143,0.249868,-0.12418,-6.37468e-06,1.62743e-05,-1.85802e-05,0.24602,-0.11674647340280864,-6.3746596817848555e-06,1.6274432427243468e-05,0.2838559365186759,-1.858002738919229e-05,-0.11677915317871324
295,0.2849,0.00232746,807.567,-0.0072166,0.00344954,0.0292257,-0.0178871,-0.124532,0.250646,-0.124569,-6.17752e-06,1.62272e-05,-1.88596e-05,0.246796,-0.11708999220591598,-6.177500919135603e-06,1.6227331661733402e-05,0.284855165086799,-1.8859422158845618e-05,-0.11712265927185994
296,0.2859,0.0385368,808.088,0.0553796,-0.00999035,0.0390884,-0.00112112,-0.124921,0.251424,-0.124957,-6.38229e-06,1.6462e-05,-1.86405e-05,0.247572,-0.1174333774061963,-6.38226963323163e-06,1.6462135499439867e-05,0.28585517135723504,-1.8640326266972096e-05,-0.11746514923271334
297,0.2869,0.00397976,808.512,-0.00431868,0.00291589,0.029598,-0.0170105,-0.125309,0.252202,-0.125346,-6.2039e-06,1.64279e-05,-1.88958e-05,0.248347,-0.11777574683179903,-6.203880755895064e-06,1.642803493862033e-05,0.2868559559352719,-1.8895621475500946e-05,-0.11780838852529119
298,0.2879,0.036722,809.025,0.0523242,-0.00924665,0.0385175,-0.00182752,-0.125697,0.252978,-0.125734,-6.38976e-06,1.6649e-05,-1.86994e-05,0.249122,-0.11811798344383206,-6.389739585554999e-06,1.664913859533712e-05,0.2878549437142055,-1.8699225167284617e-05,-0.11815061247480385
299,0.2889,0.00551938,809.45,-0.00161208,0.00242244,0.0299405,-0.016185,-0.126084,0.253755,-0.126122,-6.22894e-06,1.66271e-05,-1.89322e-05,0.249896,-0.11845920575346369,-6.228920600204191e-06,1.6627238230926267e-05,0.2888559958638679,-1.8932020787065795e-05,-0.11849270366718068
300,0.2899,0.035022,809.956,0.0494628,-0.00854481,0.037978,-0.0024833,-0.126472,0.25453,-0.126509,-6.39709e-06,1.68353e-05,-1.8757e-05,0.250669,-0.11880117723487382,-6.39706953864394e-06,1.683544171449114e-05,0.2898552464202384,-1.8756824088583812e-05,-0.1188337809881429
301,0.2909,0.00694623,810.383,0.000902605,0.00196937,0.030253,-0.0154105,-0.126859,0.255305,-0.126896,-6.25266e-06,1.68247e-05,-1.89688e-05,0.251442,-0.11914213519966232,-6.252640452175662e-06,1.6824841535978408e-05,0.29085527169595515,-1.8968620093429145e-05,-0.11917472633772008
302,0.2919,0.0334361,810.882,0.046795,-0.00788475,0.0374698,-0.00308854,-0.127245,0.25608,-0.127283,-6.40428e-06,1.7021e-05,-1.88133e-05,0.252214,-0.11948208072176858,-6.4042594926094765e-06,1.702114485802042e-05,0.2918560722916581,-1.8813123030980705e-05,-0.11951553976697527
303,0.2929,0.0082614,811.309,0.00322688,0.00155642,0.030536,-0.0146869,-0.127632,0.256853,-0.127669,-6.27507e-06,1.70209e-05,-1.90056e-05,0.252986,-0.1198227752278902,-6.275050311810304e-06,1.702104485623579e-05,0.2928550630957416,-1.9005419394702017e-05,-0.11985534118273289
304,0.2939,0.0319628,811.801,0.0443183,-0.00726596,0.0369926,-0.00364381,-0.128018,0.257627,-0.128055,-6.41135e-06,1.72061e-05,-1.88683e-05,0.253756,-0.12016245807364534,-6.41132944734224e-06,1.720624802570292e-05,0.29385612027372976,-1.886812199469734e-05,-0.1201950114604553
305,0.2949,0.00946707,812.229,0.00536412,0.00118292,0.0307898,-0.0140132,-0.128404,0.258399,-0.128441,-6.29619e-06,1.72155e-05,-1.90425e-05,0.254527,-0.12050200982712456,-6.29617017899875e-06,1.7215648187463017e-05,0.2948553628565902,-1.9042318692763516e-05,-0.12053455065075203
306,0.2959,0.0305993,812.715,0.0420283,-0.00668759,0.0365456,-0.00415019,-0.128789,0.259171,-0.128827,-6.41828e-06,1.73904e-05,-1.89221e-05,0.255297,-0.12084055137991045,-6.418259402840576e-06,1.7390551213969374e-05,0.2958553771525678,-1.892192097818768e-05,-0.12087395880421292
307,0.2969,0.0105663,813.143,0.00731929,0.000847864,0.0310152,-0.0133882,-0.129174,0.259942,-0.129212,-6.31603e-06,1.74087e-05,-1.90795e-05,0.256066,-0.12117896261928562,-6.316010053963872e-06,1.7408851532341174e-05,0.29685486690213936,-1.907931798750262e-05,-0.12121235718420531
308,0.2979,0.0293421,813.623,0.0399194,-0.00614842,0.0361279,-0.00460913,-0.129559,0.260713,-0.129597,-6.42506e-06,1.75741e-05,-1.89747e-05,0.256835,-0.12151724359541072,-6.425039359325702e-06,1.7574254425500868e-05,0.29785512755545307,-1.8974519981562743e-05,-0.12155062530589766
309,0.2989,0.011563,814.051,0.00909868,0.000549937,0.0312134,-0.0128103,-0.129944,0.261483,-0.129982,-6.33462e-06,1.76004e-05,-1.91167e-05,0.257603,-0.12185539435842774,-6.334599936375085e-06,1.7600554887975406e-05,0.29885486085159485,-1.9116517277040224e-05,-0.12188876321942976
310,0.2999,0.028187,814.525,0.0379846,-0.00564701,0.0357383,-0.00502241,-0.130328,0.262253,-0.130366,-6.43169e-06,1.77572e-05,-1.9026e-05,0.25837,-0.12219253715143508,-6.431669316686595e-06,1.7757357660075357e-05,0.2998553642388213,-1.902581900681266e-05,-0.12222589320125443
311,0.3009,0.0124615,814.954,0.0107097,0.000287593,0.0313853,-0.0122776,-0.130712,0.263022,-0.130751,-6.35199e-06,1.77908e-05,-1.91541e-05,0.259137,-0.12252955050646352,-6.351969826123849e-06,1.779095825726884e-05,0.30085533745434345,-1.9153916561376327e-05,-0.12256377118668615
312,0.3019,0.0271292,815.422,0.036216,-0.00518168,0.0353756,-0.00539207,-0.131096,0.263791,-0.131134,-6.43814e-06,1.79396e-05,-1.90761e-05,0.259903,-0.12286643447320778,-6.43811927525384e-06,1.7939760915686165e-05,0.30185607994501695,-1.9075918052391394e-05,-0.12289976491541543
313,0.3029,0.0132669,815.85,0.0121606,5.90957e-05,0.0315325,-0.0117878,-0.13148,0.264558,-0.131518,-6.36818e-06,1.79797e-05,-1.91914e-05,0.260669,-0.12320318910134342,-6.3681597232134735e-06,1.797986163576404e-05,0.3028549865900627,-1.919121584625927e-05,-0.12323650674711828
314,0.3039,0.0261635,816.314,0.0346049,-0.00475059,0.0350385,-0.00572039,-0.131863,0.265326,-0.131901,-6.4444e-06,1.81212e-05,-1.91251e-05,0.261434,-0.12353893797990323,-6.444379234915587e-06,1.8121364189882527e-05,0.30385596354571476,-1.9124917116419837e-05,-0.12357224286746304
315,0.3049,0.0139845,816.741,0.0134604,-0.000137437,0.0316562,-0.0113387,-0.132246,0.266092,-0.132284,-6.38322e-06,1.81672e-05,-1.92289e-05,0.262199,-0.12387455829126459,-6.383199627313374e-06,1.8167365024579496e-05,0.3048550998341353,-1.922871512594071e-05,-0.12390785042549501
316,0.3059,0.0252845,817.2,0.0331421,-0.0043518,0.0347254,-0.00600975,-0.132628,0.266858,-0.132667,-6.45044e-06,1.83022e-05,-1.91731e-05,0.262963,-0.1242091742942717,-6.4504191960024215e-06,1.8302367486233706e-05,0.3058550017541519,-1.917291619724093e-05,-0.12424332947044403
317,0.3069,0.0146198,817.627,0.0146184,-0.000303983,0.0317579,-0.0109277,-0.13301,0.267624,-0.133049,-6.39714e-06,1.83535e-05,-1.92663e-05,0.263726,-0.12454366249837678,-6.39711953831501e-06,1.835366842661834e-05,0.3068556698924636,-1.9266114406057966e-05,-0.12457780462976353
318,0.3079,0.0244865,818.08,0.0318181,-0.00398326,0.0344348,-0.00626267,-0.133392,0.268389,-0.133431,-6.45624e-06,1.84825e-05,-1.92199e-05,0.264489,-0.12487802295238981,-6.456219158512688e-06,1.848267080251098e-05,0.3078557969797673,-1.921971529894595e-05,-0.1249121520439731
319,0.3089,0.0151784,818.506,0.0156441,-0.000442582,0.0318392,-0.0105525,-0.133774,0.269153,-0.133813,-6.40998e-06,1.85384e-05,-1.93038e-05,0.265251,-0.12521225570510186,-6.40995945611067e-06,1.853857183720109e-05,0.30885538060098194,-1.9303613682852827e-05,-0.12524637176186193
320,0.3099,0.0237637,818.956,0.0306232,-0.0036429,0.0341652,-0.0064817,-0.134155,0.269917,-0.134194,-6.46178e-06,1.86621e-05,-1.92657e-05,0.266013,-0.1255454863512091,-6.461759122777799e-06,1.8662274138048218e-05,0.30985572819588425,-1.926551441755464e-05,-0.12557958941222735
321,0.3109,0.0156662,819.381,0.0165474,-0.000555296,0.0319017,-0.0102103,-0.134537,0.27068,-0.134576,-6.42178e-06,1.87221e-05,-1.93412e-05,0.266774,-0.125879464181596,-6.421759380370595e-06,1.872227525967496e-05,0.31085552949218775,-1.9341012960194526e-05,-0.12591355421773298
322,0.3119,0.0231105,819.826,0.0295476,-0.00332864,0.0339149,-0.0066694,-0.134917,0.271443,-0.134957,-6.46703e-06,1.88409e-05,-1.93106e-05,0.267534,-0.12621156688169777,-6.4670090887952725e-06,1.8841077490838742e-05,0.3118560939279811,-1.9310413551520966e-05,-0.12624651772000106
323,0.3129,0.0160887,820.25,0.0173378,-0.000644178,0.0319467,-0.00989864,-0.135298,0.272205,-0.135337,-6.43257e-06,1.89045e-05,-1.93785e-05,0.268294,-0.12654441686276796,-6.432549311097269e-06,1.8904678691145094e-05,0.3128561092289961,-1.9378312238083062e-05,-0.126578480966256
324,0.3139,0.0225212,820.691,0.0285818,-0.00303843,0.0336826,-0.00682829,-0.135678,0.272966,-0.135718,-6.47198e-06,1.9019e-05,-1.93545e-05,0.269054,-0.12687626692885434,-6.471959056786325e-06,1.9019180862223095e-05,0.313855572975841,-1.9354312702835053e-05,-0.12691119117968752
325,0.3149,0.0164516,821.113,0.0180249,-0.000711249,0.0319759,-0.00961501,-0.136058,0.273727,-0.136098,-6.44239e-06,1.90857e-05,-1.94157e-05,0.269812,-0.1272079909158721,-6.442369247849911e-06,1.908588213317408e-05,0.31485579760407556,-1.9415511516518436e-05,-0.12724290189801113
326,0.3159,0.0219902,821.551,0.0277163,-0.00277026,0.0334666,-0.00696086,-0.136438,0.274487,-0.136477,-6.47659e-06,1.91963e-05,-1.93975e-05,0.270571,-0.12753958887172223,-6.476569026969692e-06,1.91964842501946e-05,0.3158554678368257,-1.9397311869728817e-05,-0.12757361416425872
327,0.3169,0.0167602,821.972,0.0186178,-0.000758469,0.0319907,-0.00935697,-0.136817,0.275247,-0.136857,-6.45127e-06,1.92657e-05,-1.94528e-05,0.271328,-0.1278701887149123,-6.451249190631003e-06,1.9265885584873743e-05,0.31685589810773074,-1.9452610795500647e-05,-0.12790507320966915
328,0.3179,0.0215123,822.405,0.0269421,-0.00252218,0.0332656,-0.0070695,-0.137196,0.276006,-0.137236,-6.48085e-06,1.93729e-05,-1.94396e-05,0.272085,-0.12820066328450253,-6.480828999344546e-06,1.9373087655871757e-05,0.31785577113820884,-1.943941105220226e-05,-0.12823553456054104
329,0.3189,0.0170197,822.825,0.0191253,-0.000787726,0.0319925,-0.00912217,-0.137575,0.276764,-0.137615,-6.45925e-06,1.94446e-05,-1.94897e-05,0.272842,-0.12853101262796285,-6.459229139110789e-06,1.9444789047362576e-05,0.31885508450465005,-1.9489510077019823e-05,-0.1285658706902918
330,0.3199,0.0210825,823.255,0.0262505,-0.00229235,0.0330781,-0.00715651,-0.137954,0.277522,-0.137994,-6.48474e-06,1.95487e-05,-1.9481e-05,0.273598,-0.12886123679274475,-6.484718974131276e-06,1.9548891077025843e-05,0.3198551556377802,-1.948081024649717e-05,-0.12889608164637134
331,0.3209,0.017235,823.673,0.019556,-0.000800818,0.0319825,-0.00890837,-0.138332,0.27828,-0.138372,-6.46636e-06,1.96224e-05,-1.95264e-05,0.274353,-0.12919046501718257,-6.4663390931807285e-06,1.962259252064058e-05,0.32085598511220437,-1.9526209361075963e-05,-0.1292252967019436
332,0.3219,0.0206959,824.1,0.0256335,-0.00207898,0.0329029,-0.00722405,-0.13871,0.279036,-0.13875,-6.48823e-06,1.97237e-05,-1.95215e-05,0.275108,-0.12951956881686932,-6.488208951438423e-06,1.9723894513434814e-05,0.3218549297904598,-1.9521309456704827e-05,-0.1295543873377416
333,0.3229,0.0174106,824.516,0.0199176,-0.00079944,0.0319622,-0.00871347,-0.139087,0.279793,-0.139128,-6.47262e-06,1.9799e-05,-1.95628e-05,0.275862,-0.12984767808694175,-6.472599052620431e-06,1.9799196001590857e-05,0.32285595281172186,-1.9562608649659197e-05,-0.12988335360078718
334,0.3239,0.0203482,824.94,0.0250832,-0.00188044,0.0327387,-0.00727416,-0.139465,0.280548,-0.139505,-6.49132e-06,1.98979e-05,-1.95613e-05,0.276616,-0.13017653350703484,-6.49129893137701e-06,1.9898097964432537e-05,0.32385508618148084,-1.956110867906702e-05,-0.13021132574984506
335,0.3249,0.017551,825.354,0.0202176,-0.000785183,0.0319325,-0.00853547,-0.139842,0.281303,-0.139882,-6.47808e-06,1.99746e-05,-1.9599e-05,0.277369,-0.1305043951481002,-6.478059017323012e-06,1.9974799493560624e-05,0.3248549741817712,-1.9598807940890417e-05,-0.13053917427670703
336,0.3259,0.020035,825.775,0.0245924,-0.00169518,0.0325844,-0.00730876,-0.140219,0.282058,-0.140259,-6.49397e-06,2.00713e-05,-1.96003e-05,0.278121,-0.1308321332086232,-6.4939489142767926e-06,2.0071501429796967e-05,0.3258556173825542,-1.9600107915351828e-05,-0.1308668992279698
337,0.3269,0.0176601,826.187,0.020463,-0.000759523,0.0318947,-0.00837255,-0.140595,0.282812,-0.140636,-6.48275e-06,2.01492e-05,-1.96349e-05,0.278873,-0.1311588788944983,-6.482728987067254e-06,2.014940299654988e-05,0.32685568949786825,-1.963470723664873e-05,-0.13119450065021265
338,0.3279,0.0197525,826.605,0.0241547,-0.00152175,0.032439,-0.0073296,-0.140971,0.283565,-0.141012,-6.49618e-06,2.02438e-05,-1.96387e-05,0.279625,-0.13148550174708962,-6.496158899915727e-06,2.024400490707734e-05,0.3278551880960554,-1.963850716202309e-05,-0.13152111011154155
339,0.3289,0.0177416,827.016,0.02066,-0.000723823,0.0318497,-0.008223,-0.141347,0.284318,-0.141388,-6.48667e-06,2.03227e-05,-1.96706e-05,0.280376,-0.1318120018125738,-6.4866489616344225e-06,2.032290650744173e-05,0.3288554396001204,-1.967040653505503e-05,-0.13184759679079738
340,0.3299,0.0194973,827.43,0.0237638,-0.00135884,0.0323014,-0.00733832,-0.141723,0.28507,-0.141764,-6.49794e-06,2.04156e-05,-1.96764e-05,0.281126,-0.13213837913711002,-6.4979188884040084e-06,2.0415808399842916e-05,0.32985511472143525,-1.9676206420959907e-05,-0.13217396073413767
341,0.3309,0.0177989,827.839,0.0208145,-0.000679332,0.0317985,-0.00808527,-0.142098,0.285822,-0.14214,-6.48985e-06,2.04951e-05,-1.97059e-05,0.281876,-0.1324637662310404,-6.489828940914322e-06,2.0495310026014124e-05,0.3308555418811725,-1.970570583997855e-05,-0.1325002019877024
342,0.3319,0.019266,828.251,0.0234141,-0.00120526,0.0321708,-0.0073364,-0.142474,0.286573,-0.142515,-6.49923e-06,2.05865e-05,-1.97134e-05,0.282625,-0.13278989853822154,-6.4992088800730485e-06,2.0586711903414212e-05,0.3318553897890215,-1.9713205692162283e-05,-0.13282545342350127
343,0.3329,0.017835,828.658,0.0209318,-0.000627188,0.0317418,-0.00795795,-0.142848,0.287324,-0.14289,-6.49232e-06,2.06666e-05,-1.97408e-05,0.283374,-0.13311417447278862,-6.492298924909434e-06,2.0666813555614283e-05,0.3328559888646778,-1.9740605151641333e-05,-0.13315058291287818
344,0.3339,0.0190558,829.067,0.0231007,-0.0010599,0.0320463,-0.00732518,-0.143223,0.288074,-0.143264,-6.50004e-06,2.07566e-05,-1.97498e-05,0.284122,-0.13343919571207008,-6.500018874810998e-06,2.0756815419797903e-05,0.3338560058158071,-1.9749604973973156e-05,-0.13347472397671145
345,0.3349,0.0178527,829.472,0.0210167,-0.000568419,0.0316804,-0.00783974,-0.143597,0.288823,-0.143639,-6.4941e-06,2.08372e-05,-1.97754e-05,0.284869,-0.133763228854899,-6.49407891339937e-06,2.083741709602016e-05,0.3348554382048694,-1.9775204468053253e-05,-0.13379961003527696
346,0.3359,0.018864,829.878,0.0228189,-0.000921776,0.0319273,-0.00730588,-0.143971,0.289572,-0.144013,-6.50036e-06,2.09259e-05,-1.97856e-05,0.285616,-0.1340871408319919,-6.500338872728051e-06,2.092611894810581e-05,0.3358556194492024,-1.9785404266281503e-05,-0.13412350840835252
347,0.3369,0.0178545,830.281,0.0210735,-0.00050395,0.031615,-0.00772949,-0.144345,0.29032,-0.144387,-6.49521e-06,2.10067e-05,-1.98097e-05,0.286362,-0.13441093168865637,-6.49518890616374e-06,2.100692064233023e-05,0.336855213254027,-1.980950378921431e-05,-0.13444728566608655
348,0.3379,0.0186882,830.685,0.0225647,-0.000790003,0.0318131,-0.0072796,-0.144718,0.291068,-0.14476,-6.50019e-06,2.10944e-05,-1.98208e-05,0.287108,-0.1347337362043517,-6.500168873824208e-06,2.1094622488337933e-05,0.33785555503472553,-1.9820603569198347e-05,-0.13477007662427698
349,0.3389,0.0178426,831.086,0.021106,-0.000434611,0.0315463,-0.00762617,-0.145092,0.291815,-0.145133,-6.49566e-06,2.11754e-05,-1.98435e-05,0.287853,-0.13505728527956284,-6.495638903203371e-06,2.117562420034247e-05,0.3388553064950177,-1.984330311910476e-05,-0.13509274720389197
350,0.3399,0.0185263,831.487,0.0223344,-0.000663787,0.0317031,-0.0072473,-0.145464,0.292562,-0.145506,-6.49953e-06,2.1262e-05,-1.98555e-05,0.288598,-0.13537898412974292,-6.499508878099469e-06,2.1262226037821463e-05,0.3398558050486553,-1.9855302880844583e-05,-0.1354152974498244
351,0.3409,0.017819,831.886,0.0211177,-0.000361137,0.0314747,-0.00752886,-0.145837,0.293308,-0.145879,-6.49547e-06,2.13431e-05,-1.9877e-05,0.289342,-0.13570142762921134,-6.495448904519918e-06,2.134332776559944e-05,0.3408557103975449,-1.9876802453744347e-05,-0.13573772740695034
352,0.3419,0.0183765,832.285,0.0221247,-0.000542427,0.0315968,-0.00720985,-0.146209,0.294053,-0.146252,-6.49835e-06,2.14288e-05,-1.98896e-05,0.290086,-0.13602288690300135,-6.498328885773397e-06,2.1429029598341032e-05,0.3418550200984345,-1.9889402203210338e-05,-0.13606003712012904
353,0.3429,0.0177854,832.682,0.0211116,-0.000284179,0.0314007,-0.00743673,-0.146581,0.294798,-0.146624,-6.49466e-06,2.15099e-05,-1.99101e-05,0.290829,-0.13634422661618106,-6.494638909781969e-06,2.151013133966373e-05,0.342855074562441,-1.990990179523422e-05,-0.13638136301599824
354,0.3439,0.0182371,833.079,0.0219329,-0.000425299,0.0314937,-0.00716802,-0.146953,0.295543,-0.146996,-6.49667e-06,2.15947e-05,-1.99232e-05,0.291572,-0.1366654468132189,-6.496648896736623e-06,2.159493316722383e-05,0.34385587434461984,-1.9923001534416507e-05,-0.13670256940086456
355,0.3449,0.0177434,833.473,0.0210904,-0.00020431,0.0313247,-0.00734909,-0.147325,0.296287,-0.147367,-6.49324e-06,2.16758e-05,-1.99428e-05,0.292314,-0.13698654753856654,-6.493218918990351e-06,2.1676034921869203e-05,0.3448560751436922,-1.99426011436854e-05,-0.13702279334240264
356,0.3459,0.0181067,833.868,0.0217563,-0.000311859,0.0313935,-0.00712247,-0.147696,0.29703,-0.147738,-6.49448e-06,2.17599e-05,-1.99562e-05,0.293055,-0.13730666614375664,-6.494458910877299e-06,2.176013674826116e-05,0.34585567451270394,-1.9956000876342195e-05,-0.13734289850289372
357,0.3469,0.0176943,834.26,0.0210563,-0.000122031,0.0312472,-0.00726529,-0.148067,0.297773,-0.148109,-6.49122e-06,2.18408e-05,-1.9975e-05,0.293796,-0.13762666600697226,-6.4911989320348695e-06,2.1841038511993816e-05,0.3468560168600292,-1.9974800500976997e-05,-0.13766288492639733
358,0.3479,0.017984,834.652,0.0215929,-0.000201627,0.0312957,-0.00707379,-0.148438,0.298515,-0.14848,-6.49177e-06,2.19242e-05,-1.99888e-05,0.294536,-0.1379465471722584,-6.491748928527663e-06,2.1924440336995588e-05,0.3478557548814769,-1.998860022522919e-05,-0.1379827526569567
359,0.3489,0.0176393,835.043,0.0210116,-3.77794e-05,0.0311683,-0.00718478,-0.148808,0.299256,-0.148851,-6.48861e-06,2.20049e-05,-2.00069e-05,0.295276,-0.13826544794952278,-6.488588949027374e-06,2.200514210959348e-05,0.3488548861282541,-2.0006699863350796e-05,-0.13830250173859882
360,0.3499,0.017868,835.433,0.0214407,-9.41876e-05,0.0312002,-0.00702249,-0.149178,0.299998,-0.149221,-6.48855e-06,2.20877e-05,-2.00208e-05,0.296015,-0.13858423075532567,-6.4885289493554765e-06,2.2087943934989696e-05,0.34985610786108756,-2.0020599585168775e-05,-0.13862127083703568
361,0.3509,0.0175793,835.821,0.0209578,4.80674e-05,0.0310885,-0.00710709,-0.149548,0.300738,-0.149591,-6.48543e-06,2.21682e-05,-2.00383e-05,0.296754,-0.13890289563330827,-6.4854089696364525e-06,2.2168445716452823e-05,0.3508553710626898,-2.003809923456501e-05,-0.1389399220127232
362,0.3519,0.0177575,836.209,0.021298,1.08201e-05,0.0311065,-0.00696901,-0.149918,0.301478,-0.149961,-6.48481e-06,2.22504e-05,-2.00524e-05,0.297492,-0.13922144262709601,-6.484788973692979e-06,2.225064754202144e-05,0.3518553739927268,-2.0052198951958644e-05,-0.1392584553092847
363,0.3529,0.0175153,836.595,0.0208965,0.000135183,0.0310078,-0.00703182,-0.150287,0.302218,-0.15033,-6.48169e-06,2.23307e-05,-2.00693e-05,0.29823,-0.13953901131973945,-6.481668993862932e-06,2.2330949331905714e-05,0.3528561171988003,-2.0069098612962577e-05,-0.13957601034676792
364,0.3539,0.017652,836.981,0.0211635,0.000113708,0.0310145,-0.00691372,-0.150656,0.302956,-0.150699,-6.48056e-06,2.24122e-05,-2.00834e-05,0.298967,-0.13985646285115294,-6.48053900120793e-06,2.2412451155195967e-05,0.35385489351642296,-2.0083198329912122e-05,-0.13989344822805894
365,0.3549,0.0174479,837.365,0.0208291,0.000223288,0.0309266,-0.00695859,-0.151025,0.303695,-0.151068,-6.47738e-06,2.24923e-05,-2.00999e-05,0.299703,-0.1401737972645608,-6.4773590218170085e-06,2.2492552953723433e-05,0.3548557620581081,-2.0099697998321453e-05,-0.14021076899638052
366,0.3559,0.0175505,837.748,0.0210359,0.000214744,0.0309241,-0.00685697,-0.151393,0.304433,-0.151437,-6.4758e-06,2.25733e-05,-2.0114e-05,0.300439,-0.14049015509375673,-6.475779032011353e-06,2.2573554778748672e-05,0.35585601465831807,-2.011379771482691e-05,-0.14052797269493922
367,0.3569,0.0173779,838.13,0.0207566,0.000312143,0.0308451,-0.00688712,-0.151761,0.30517,-0.151805,-6.47253e-06,2.2653e-05,-2.013e-05,0.301175,-0.14080639652468996,-6.472509053168096e-06,2.2653256581239845e-05,0.35685564886107723,-2.0129797392964832e-05,-0.14084420021155575
368,0.3579,0.0174527,838.512,0.0209141,0.000314158,0.0308349,-0.00679902,-0.152129,0.305907,-0.152173,-6.47053e-06,2.27335e-05,-2.01442e-05,0.30191,-0.14112252160018746,-6.4705090662142695e-06,2.273375840800007e-05,0.35785602006579587,-2.014399710692505e-05,-0.1411603113778559
369,0.3589,0.0173058,838.892,0.0206799,0.000401546,0.0307632,-0.00681715,-0.152497,0.306643,-0.152541,-6.46714e-06,2.28129e-05,-2.01597e-05,0.302644,-0.14143853036305998,-6.46711908813824e-06,2.281316021623958e-05,0.3588557699593953,-2.015949679456952e-05,-0.14147630623664864
370,0.3599,0.0173578,839.271,0.0207973,0.000412145,0.0307469,-0.0067401,-0.152864,0.307378,-0.152908,-6.46475e-06,2.28929e-05,-2.01738e-05,0.303378,-0.14175356461009636,-6.464729103594635e-06,2.289316204451275e-05,0.35985489608418675,-2.017359651029782e-05,-0.14179132662248317
371,0.3609,0.017232,839.649,0.0206,0.000491325,0.0306812,-0.00674844,-0.153232,0.308114,-0.153275,-6.46122e-06,2.2972e-05,-2.0189e-05,0.304111,-0.1420693411918652,-6.461199126395201e-06,2.2972263858500597e-05,0.36085611769205994,-2.0188796203468584e-05,-0.14210623141704837
372,0.3619,0.0172656,840.027,0.0206847,0.000508871,0.03066,-0.00668043,-0.153598,0.308848,-0.153642,-6.45846e-06,2.30516e-05,-2.0203e-05,0.304844,-0.14238328635751907,-6.45843914415245e-06,2.3051865690071338e-05,0.3618553527568529,-2.0202795920742922e-05,-0.14242102066275852
373,0.3629,0.0171569,840.403,0.0205175,0.000581335,0.0305992,-0.00668083,-0.153965,0.309582,-0.154009,-6.45476e-06,2.31304e-05,-2.02179e-05,0.305576,-0.14269797394272188,-6.454739168049173e-06,2.3130667509807523e-05,0.362855321529421,-2.0217695619662024e-05,-0.14273569440201228
374,0.3639,0.0171756,840.778,0.0205758,0.000604478,0.030574,-0.00662016,-0.154331,0.310316,-0.154376,-6.45166e-06,2.32094e-05,-2.02318e-05,0.306308,-0.14301168907088846,-6.451639188109759e-06,2.3209669340218397e-05,0.36385602454850363,-2.02315953384824e-05,-0.14305025267719262
375,0.3649,0.0170808,841.152,0.0204329,0.000671458,0.0305173,-0.00661415,-0.154697,0.311049,-0.154742,-6.44779e-06,2.32879e-05,-2.02463e-05,0.307039,-0.14332528940032752,-6.4477692129916164e-06,2.328817116525883e-05,0.36485609749645564,-2.0246095045028945e-05,-0.14336383889493431
376,0.3659,0.0170876,841.526,0.0204699,0.000699083,0.0304889,-0.00655944,-0.155063,0.311781,-0.155108,-6.44437e-06,2.33665e-05,-2.02601e-05,0.30777,-0.14363877497304767,-6.4443492351351495e-06,2.3366772998745233e-05,0.3658555379103876,-2.025989476550638e-05,-0.1436773103611212
377,0.3669,0.017004,841.898,0.0203468,0.000761591,0.0304355,-0.00654827,-0.155429,0.312513,-0.155473,-6.44031e-06,2.34446e-05,-2.02744e-05,0.3085,-0.14395214583104243,-6.4402892612225315e-06,2.3444874826861195e-05,0.3668557101825298,-2.0274194475700114e-05,-0.1439898111079837
378,0.3679,0.0170012,842.269,0.0203666,0.000792788,0.0304046,-0.00649839,-0.155794,0.313244,-0.155839,-6.43658e-06,2.35228e-05,-2.0288e-05,0.309229,-0.14426454628126362,-6.436559285227794e-06,2.352307666320108e-05,0.3678552469928682,-2.028779419993576e-05,-0.14430305351026185
379,0.3689,0.0169268,842.639,0.0202594,0.000851652,0.0303539,-0.00648308,-0.156159,0.313975,-0.156204,-6.43231e-06,2.36005e-05,-2.0302e-05,0.309959,-0.14457683272612776,-6.432289312741091e-06,2.3600778493948482e-05,0.3688555147317365,-2.0301793915766808e-05,-0.1446153259025521
380,0.3699,0.0169163,843.009,0.0202655,0.000885676,0.030321,-0.00643711,-0.156524,0.314705,-0.156568,-6.42829e-06,2.36783e-05,-2.03154e-05,0.310687,-0.14488900520723913,-6.428269338609738e-06,2.3678580333141852e-05,0.36985514407780995,-2.0315193643649643e-05,-0.1449266292632747
381,0.3709,0.0168492,843.377,0.0201712,0.000941572,0.0302725,-0.0064185,-0.156888,0.315435,-0.156933,-6.42382e-06,2.37556e-05,-2.03291e-05,0.311415,-0.1452002089668234,-6.423799367327732e-06,2.3755882166520692e-05,0.3708555034197223,-2.0328893365229028e-05,-0.14523867409194802
382,0.3719,0.0168327,843.745,0.0201664,0.000977817,0.0302381,-0.00637567,-0.157252,0.316164,-0.157297,-6.41951e-06,2.3833e-05,-2.03424e-05,0.312142,-0.14551129946885322,-6.419489394948741e-06,2.3833284008123456e-05,0.37185522143465755,-2.0342193094768923e-05,-0.14554975059522024
383,0.3729,0.0167716,844.111,0.0200825,0.0010313,0.0301914,-0.00635444,-0.157616,0.316893,-0.157661,-6.41482e-06,2.391e-05,-2.03559e-05,0.312869,-0.14582227675454695,-6.414799425091822e-06,2.3910285846362456e-05,0.3728556685097357,-2.035569282010652e-05,-0.14586071388725097
384,0.3739,0.0167503,844.477,0.020069,0.00106927,0.0301559,-0.00631414,-0.15798,0.317621,-0.158025,-6.41024e-06,2.3987e-05,-2.0369e-05,0.313596,-0.14613314086510776,-6.410219454466848e-06,2.3987287690374615e-05,0.37385547132047714,-2.0368792553293602e-05,-0.1461715640092417
385,0.3749,0.0166939,844.841,0.0199933,0.00112078,0.0301106,-0.00629085,-0.158343,0.318349,-0.158389,-6.40533e-06,2.40636e-05,-2.03822e-05,0.314322,-0.14644303828518912,-6.405309485923993e-06,2.4063889530800964e-05,0.374856002252669,-2.0381992284379535e-05,-0.14648230100237858
386,0.3759,0.0166688,845.205,0.0199731,0.00116008,0.0300742,-0.00625259,-0.158707,0.319076,-0.158752,-6.40049e-06,2.41402e-05,-2.03951e-05,0.315047,-0.14675367647967208,-6.400469516942842e-06,2.4140491377000473e-05,0.37585588598000275,-2.039489202132483e-05,-0.14679207170033148
387,0.3769,0.0166163,845.568,0.019904,0.00120998,0.0300302,-0.00622767,-0.159069,0.319802,-0.159115,-6.39536e-06,2.42165e-05,-2.04081e-05,0.315772,-0.14706249574912622,-6.395339549714052e-06,2.421679322184289e-05,0.3768551200312955,-2.0407891756168972e-05,-0.14710172997192772
388,0.3779,0.0165883,845.93,0.0198784,0.0012503,0.0299931,-0.00619104,-0.159432,0.320528,-0.159478,-6.39025e-06,2.42927e-05,-2.04208e-05,0.316496,-0.14737205587460733,-6.390229582375895e-06,2.4292995070007706e-05,0.3778550797899094,-2.0420591496872476e-05,-0.14741127585797054
389,0.3789,0.0165389,846.29,0.0198147,0.00129887,0.0299501,-0.00616487,-0.159794,0.321254,-0.15984,-6.3849e-06,2.43686e-05,-2.04336e-05,0.31722,-0.1476806513312331,-6.384879616572192e-06,2.436889691681543e-05,0.37885576578289903,-2.0433391235363807e-05,-0.14771985711953184
390,0.3799,0.0165086,846.65,0.0197849,0.00133995,0.0299125,-0.00612955,-0.160157,0.321979,-0.160202,-6.37954e-06,2.44444e-05,-2.04461e-05,0.317943,-0.14798998710695987,-6.379519650767662e-06,2.4444698766723505e-05,0.3798557986812139,-2.0445890979936543e-05,-0.14802832669489285
391,0.3809,0.0164617,847.009,0.0197254,0.00138744,0.0298704,-0.00610239,-0.160518,0.322703,-0.160564,-6.37397e-06,2.45199e-05,-2.04587e-05,0.318666,-0.14829750721089574,-6.373949686278024e-06,2.452020061527449e-05,0.3808551760103982,-2.0458490722186085e-05,-0.1483366846244767
392,0.3819,0.0164297,847.367,0.0196924,0.00142906,0.0298325,-0.00606814,-0.16088,0.323427,-0.160926,-6.36836e-06,2.45953e-05,-2.0471e-05,0.319388,-0.14860576771476786,-6.368339722007121e-06,2.4595602466925826e-05,0.3818552771507566,-2.047079047051703e-05,-0.1486449309486918
393,0.3829,0.0163849,847.725,0.0196364,0.00147565,0.029791,-0.00604023,-0.161241,0.324151,-0.161287,-6.36256e-06,2.46705e-05,-2.04834e-05,0.32011,-0.1489130655620241,-6.362539758941743e-06,2.4670804319226747e-05,0.3828561026265187,-2.0483190216635805e-05,-0.14895221466057218
394,0.3839,0.0163516,848.081,0.0196009,0.00151767,0.0297529,-0.00600683,-0.161602,0.324873,-0.161648,-6.35671e-06,2.47456e-05,-2.04955e-05,0.320831,-0.14922025249477888,-6.356689796205295e-06,2.4745906174850063e-05,0.38385488524975453,-2.049528996872496e-05,-0.1492593874630529
395,0.3849,0.0163083,848.436,0.0195476,0.0015635,0.0297121,-0.00597836,-0.161963,0.325596,-0.162009,-6.35068e-06,2.48204e-05,-2.05076e-05,0.321552,-0.14952732855306483,-6.350659834453154e-06,2.48207080286722e-05,0.3848557741095133,-2.0507389720592073e-05,-0.14956644939616504
396,0.3859,0.016274,848.791,0.0195102,0.00160578,0.0296738,-0.00594564,-0.162324,0.326318,-0.16237,-6.34459e-06,2.48951e-05,-2.05196e-05,0.322272,-0.1498342937769006,-6.344569873140138e-06,2.4895409885594688e-05,0.3858560010168839,-2.0519389474449312e-05,-0.14987340049992537
397,0.3869,0.0162321,849.145,0.0194591,0.00165098,0.0296335,-0.00591675,-0.162684,0.327039,-0.16273,-6.33834e-06,2.49695e-05,-2.05315e-05,0.322992,-0.15014029834701348,-6.338319912813084e-06,2.4969811740493952e-05,0.38685556349258854,-2.0531289230185656e-05,-0.15017939099415167
398,0.3879,0.0161972,849.497,0.0194203,0.00169341,0.0295952,-0.0058846,-0.163044,0.32776,-0.16309,-6.33201e-06,2.50439e-05,-2.05432e-05,0.323711,-0.1504461927753078,-6.331989952812478e-06,2.5044213601166376e-05,0.38785584691270714,-2.0542988989902256e-05,-0.15048527135162593
399,0.3889,0.0161563,849.849,0.019371,0.00173808,0.0295554,-0.0058554,-0.163404,0.32848,-0.16345,-6.32553e-06,2.5118e-05,-2.05549e-05,0.324429,-0.15075197710142751,-6.325509993909684e-06,2.5118315459593532e-05,0.388855462941071,-2.0554688749507832e-05,-0.1507910416119902
400,0.3899,0.0161209,850.2,0.0193311,0.00178058,0.0295171,-0.0058237,-0.163763,0.3292,-0.16381,-6.31897e-06,2.51919e-05,-2.05665e-05,0.325147,-0.15105680242222919,-6.318950035333337e-06,2.5192217318670274e-05,0.38985579895213807,-2.0566288510992514e-05,-0.15109670181487223
401,0.3909,0.0160809,850.55,0.0192833,0.00182478,0.0294776,-0.00579429,-0.164122,0.329919,-0.164169,-6.31227e-06,2.52657e-05,-2.0578e-05,0.325865,-0.15136151833038136,-6.3122500776335855e-06,2.5266019180403276e-05,0.39085546460832243,-2.05777882743563e-05,-0.15140140340171337
402,0.3919,0.0160452,850.9,0.0192427,0.0018673,0.0294394,-0.00576296,-0.164481,0.330638,-0.164528,-6.30548e-06,2.53393e-05,-2.05893e-05,0.326582,-0.1516661248651563,-6.305460120481499e-06,2.5339621042785865e-05,0.39185584928256945,-2.0589088041811365e-05,-0.1517059956203175
403,0.3929,0.016006,851.248,0.019196,0.0019111,0.0294003,-0.0057334,-0.16484,0.331356,-0.164887,-6.29855e-06,2.54127e-05,-2.06006e-05,0.327299,-0.1519706220658118,-6.2985301642060065e-06,2.541302290537395e-05,0.3928555606357822,-2.0600387809044385e-05,-0.15201047850994098
404,0.3939,0.01597,851.596,0.0191549,0.00195359,0.0293621,-0.0057024,-0.165199,0.332074,-0.165246,-6.29153e-06,2.54859e-05,-2.06118e-05,0.328015,-0.15227500997159193,-6.291510208367157e-06,2.5486224768389576e-05,0.393855990039496,-2.0611587578267532e-05,-0.15231485210982576
405,0.3949,0.0159315,851.942,0.0191092,0.00199702,0.0293234,-0.00567275,-0.165557,0.332791,-0.165604,-6.28439e-06,2.55589e-05,-2.06229e-05,0.32873,-0.15257844120059139,-6.284370253295535e-06,2.5559226631388654e-05,0.3948557431530153,-2.0622687349480806e-05,-0.15261826907789255
406,0.3959,0.0158954,852.288,0.0190678,0.00203944,0.0292853,-0.005642,-0.165915,0.333507,-0.165962,-6.27714e-06,2.56318e-05,-2.06338e-05,0.329445,-0.152881763820653,-6.277120298769923e-06,2.5632128497488083e-05,0.3958548174910441,-2.0633587124563313e-05,-0.15292157744212598
407,0.3969,0.0158574,852.633,0.0190229,0.00208255,0.0292468,-0.00561231,-0.166272,0.334224,-0.16632,-6.26978e-06,2.57045e-05,-2.06447e-05,0.33016,-0.15318413105520634,-6.269760345012365e-06,2.5704830363570963e-05,0.3968560042777567,-2.064448689964582e-05,-0.15322477724139938
408,0.3979,0.0158213,852.977,0.0189812,0.00212486,0.0292089,-0.00558179,-0.16663,0.334939,-0.166677,-6.26231e-06,2.5777e-05,-2.06555e-05,0.330874,-0.1534872368771092,-6.262290391800818e-06,2.5777332229637295e-05,0.39785511345978364,-2.065528667660743e-05,-0.15352702204201718
409,0.3989,0.0157837,853.32,0.018937,0.00216768,0.0291707,-0.00555208,-0.166987,0.335654,-0.167034,-6.25473e-06,2.58494e-05,-2.06662e-05,0.331587,-0.15378938799636022,-6.254710439246303e-06,2.5849734098581933e-05,0.3988549372603216,-2.066598645555917e-05,-0.1538291589604993
410,0.3999,0.0157477,853.663,0.0188953,0.00220987,0.029133,-0.00552176,-0.167344,0.336369,-0.167392,-6.24704e-06,2.59216e-05,-2.06768e-05,0.3323,-0.15409143126691371,-6.247020487237798e-06,2.5921935967510024e-05,0.3998554761905051,-2.0676586236390015e-05,-0.15413203390374186
411,0.4009,0.0157106,854.005,0.0188517,0.00225242,0.029095,-0.00549206,-0.167701,0.337083,-0.167748,-6.23924e-06,2.59936e-05,-2.06873e-05,0.333013,-0.154393366727265,-6.239220535997347e-06,2.599393783664361e-05,0.40085532990580486,-2.068708601932201e-05,-0.15443310930507093
412,0.4019,0.0156746,854.345,0.01881,0.00229447,0.0290574,-0.00546191,-0.168057,0.337797,-0.168105,-6.23133e-06,2.60654e-05,-2.06977e-05,0.333725,-0.15469434911066704,-6.231310585302907e-06,2.6065739705538604e-05,0.4018558977715785,-2.069748580413311e-05,-0.15473492280813328
413,0.4029,0.0156378,854.685,0.0187668,0.00233677,0.0290197,-0.00543225,-0.168413,0.33851,-0.168461,-6.22331e-06,2.61371e-05,-2.0708e-05,0.334436,-0.15499522436341107,-6.223290635265499e-06,2.6137441576867815e-05,0.40285577744143297,-2.0707785590823313e-05,-0.15503578361921166
414,0.4039,0.015602,855.024,0.0187252,0.00237867,0.0289823,-0.00540226,-0.168769,0.339222,-0.168817,-6.21519e-06,2.62086e-05,-2.07182e-05,0.335147,-0.1552959925236287,-6.215170685774929e-06,2.6208943448402522e-05,0.40385496642403806,-2.0717985379614667e-05,-0.1553365373429041
415,0.4049,0.0155656,855.363,0.0186825,0.00242073,0.0289448,-0.00537264,-0.169125,0.339934,-0.169173,-6.20696e-06,2.62799e-05,-2.07283e-05,0.335858,-0.15559665362943798,-6.206940736830369e-06,2.6280245319698636e-05,0.40485486708252516,-2.0728085170285127e-05,-0.15563718401732674
416,0.4059,0.0155298,855.7,0.0186409,0.00246246,0.0289075,-0.00534279,-0.16948,0.340646,-0.169528,-6.19862e-06,2.63511e-05,-2.07383e-05,0.336568,-0.15589636361572945,-6.198600788542841e-06,2.6351447193206923e-05,0.4058554799237881,-2.0738084962945713e-05,-0.15593687961788405
417,0.4069,0.0154937,856.037,0.0185986,0.00250429,0.0288702,-0.00531323,-0.169835,0.341357,-0.169884,-6.19018e-06,2.64221e-05,-2.07482e-05,0.337277,-0.15619596722385898,-6.1901608409131725e-06,2.642244906669866e-05,0.4068553985989798,-2.0747984757596427e-05,-0.15623731260849483
418,0.4079,0.0154582,856.373,0.0185572,0.00254586,0.0288332,-0.00528351,-0.17019,0.342068,-0.170239,-6.18163e-06,2.64929e-05,-2.0758e-05,0.337986,-0.15649546449158414,-6.181610893718492e-06,2.6493250939951807e-05,0.40785602846914903,-2.075778455423727e-05,-0.15653679520121333
419,0.4089,0.0154224,856.708,0.0185153,0.00258747,0.0287961,-0.00525402,-0.170545,0.342778,-0.170593,-6.17298e-06,2.65636e-05,-2.07677e-05,0.338695,-0.15679485545664906,-6.1729609471816715e-06,2.656395281563917e-05,0.40885596118347034,-2.0767484352757215e-05,-0.15683532833223035
420,0.4099,0.015387,857.042,0.0184741,0.00262886,0.0287593,-0.00522442,-0.170899,0.343487,-0.170948,-6.16422e-06,2.66341e-05,-2.07774e-05,0.339402,-0.15709329725050325,-6.164201001190861e-06,2.6634454690865894e-05,0.4098551942462121,-2.077718415127716e-05,-0.15713459866704504
421,0.4109,0.0153514,857.376,0.0184325,0.00267026,0.0287224,-0.005195,-0.171254,0.344196,-0.171302,-6.15535e-06,2.67044e-05,-2.07869e-05,0.34011,-0.1573924760226053,-6.155331055857083e-06,2.6704756565631982e-05,0.41085513601640256,-2.0786683953888385e-05,-0.15743292021308786
422,0.4119,0.0153162,857.709,0.0183914,0.00271148,0.0286857,-0.00516552,-0.171607,0.344905,-0.171656,-6.14639e-06,2.67745e-05,-2.07963e-05,0.340817,-0.15768986398650553,-6.146371110959947e-06,2.6774858440159477e-05,0.41185578699669345,-2.0796083758489736e-05,-0.1577311361719934
423,0.4129,0.015281,858.04,0.0183501,0.00275267,0.0286491,-0.00513619,-0.171961,0.345613,-0.17201,-6.13731e-06,2.68445e-05,-2.08057e-05,0.341523,-0.15798798900341304,-6.137291166719017e-06,2.6844860316899144e-05,0.41285573483365146,-2.0805483562980065e-05,-0.15802924658113293
424,0.4139,0.015246,858.372,0.0183093,0.00279371,0.0286126,-0.00510681,-0.172315,0.34632,-0.172363,-6.12814e-06,2.69144e-05,-2.08149e-05,0.342229,-0.15828600850274221,-6.128121223025751e-06,2.691476219562894e-05,0.41385497702867236,-2.081468337145065e-05,-0.15832640980469503
425,0.4149,0.0152109,858.702,0.0182683,0.00283471,0.0285761,-0.00507757,-0.172668,0.347027,-0.172717,-6.11886e-06,2.6984e-05,-2.08241e-05,0.342935,-0.15858308110534158,-6.118841279767473e-06,2.698436407144733e-05,0.414854925937719,-2.0823883179921232e-05,-0.15862430952426287
426,0.4159,0.0151761,859.032,0.0182277,0.00287556,0.0285398,-0.0050483,-0.173021,0.347734,-0.17307,-6.10948e-06,2.70535e-05,-2.08332e-05,0.34364,-0.158880048859819,-6.109461337167055e-06,2.705386594925585e-05,0.4158555820606149,-2.0832982990381943e-05,-0.15892126272767682
427,0.4169,0.0151413,859.36,0.018187,0.00291636,0.0285035,-0.00501914,-0.173373,0.34844,-0.173422,-6.1e-06,2.71229e-05,-2.08421e-05,0.344344,-0.15917607097967068,-6.099981395002452e-06,2.7123267829276543e-05,0.41685552904129985,-2.084188280493393e-05,-0.1592172703428001
428,0.4179,0.0151068,859.688,0.0181466,0.00295703,0.0284674,-0.00498998,-0.173726,0.349146,-0.173775,-6.09042e-06,2.71921e-05,-2.0851e-05,0.345048,-0.1594728294456641,-6.090401453384686e-06,2.7192469708392508e-05,0.4178561822338165,-2.0850782619374897e-05,-0.15951401426798484
429,0.4189,0.0150722,860.016,0.0181062,0.00299764,0.0284313,-0.00496091,-0.174078,0.349851,-0.174127,-6.08074e-06,2.72611e-05,-2.08598e-05,0.345752,-0.15976864294346926,-6.080721512313758e-06,2.726147158726988e-05,0.4188561232800938,-2.0859582435917012e-05,-0.15980981327128374
430,0.4199,0.0150378,860.342,0.018066,0.00303813,0.0283954,-0.00493185,-0.17443,0.350555,-0.174479,-6.07095e-06,2.73299e-05,-2.08685e-05,0.346455,-0.16006435233324723,-6.07093157178884e-06,2.7330273465020483e-05,0.4198553496773054,-2.0868282254338233e-05,-0.16010550817165659
431,0.4209,0.0150035,860.668,0.0180259,0.00307855,0.0283595,-0.00490287,-0.174781,0.351259,-0.174831,-6.06107e-06,2.73986e-05,-2.08771e-05,0.347157,-0.16035911801117553,-6.061051631700565e-06,2.7398975344983256e-05,0.4208552797775751,-2.0876882074860603e-05,-0.1604010990057413
432,0.4219,0.0149693,860.993,0.0179859,0.00311886,0.0283238,-0.00487391,-0.175133,0.351963,-0.175182,-6.05108e-06,2.74672e-05,-2.08856e-05,0.347859,-0.16065461959030647,-6.051061692269322e-06,2.7467577226936157e-05,0.4218559140764844,-2.08853818973731e-05,-0.1606957465063289
433,0.4229,0.0149352,861.317,0.017946,0.00315909,0.0282881,-0.00484502,-0.175484,0.352666,-0.175534,-6.041e-06,2.75356e-05,-2.08941e-05,0.348561,-0.16094917812078402,-6.040981753163699e-06,2.7535979108206377e-05,0.42285583021342155,-2.0893881719774576e-05,-0.16099112961308193
434,0.4239,0.0149012,861.641,0.0179063,0.00319922,0.0282525,-0.00481617,-0.175835,0.353368,-0.175885,-6.03081e-06,2.76038e-05,-2.09024e-05,0.349262,-0.1612436332793602,-6.0307918147151085e-06,2.7604180988349825e-05,0.4238550256828071,-2.090218154637835e-05,-0.16128557004926825
435,0.4249,0.0148673,861.963,0.0178667,0.00323926,0.028217,-0.00478737,-0.176186,0.35407,-0.176235,-6.02053e-06,2.76719e-05,-2.09107e-05,0.349962,-0.1615379851023122,-6.020511876592138e-06,2.76722828704834e-05,0.42485492283367354,-2.0910481372871104e-05,-0.1615790687344849
436,0.4259,0.0148336,862.285,0.0178272,0.00327921,0.0281816,-0.00475861,-0.176536,0.354772,-0.176586,-6.01015e-06,2.77398e-05,-2.09188e-05,0.350662,-0.16183139545771896,-6.010131939127028e-06,2.774018475171225e-05,0.4258555221587743,-2.0918581203455133e-05,-0.1618733028402527
437,0.4269,0.0147999,862.607,0.0177878,0.00331908,0.0281463,-0.00472991,-0.176886,0.355473,-0.176936,-5.99968e-06,2.78075e-05,-2.09269e-05,0.351362,-0.16212470313747063,-5.999662001987538e-06,2.780788663203637e-05,0.4268553972950979,-2.092668103392814e-05,-0.16216659585498705
438,0.4279,0.0147664,862.927,0.0177486,0.00335884,0.0281111,-0.00470125,-0.177236,0.356174,-0.177286,-5.9891e-06,2.78751e-05,-2.09349e-05,0.352061,-0.16241790817749735,-5.989082065394058e-06,2.7875488514128577e-05,0.42785597358961946,-2.0934680866502298e-05,-0.16245978623512825
439,0.4289,0.0147329,863.247,0.0177094,0.00339853,0.028076,-0.00467264,-0.177586,0.356874,-0.177636,-5.97843e-06,2.79426e-05,-2.09427e-05,0.35276,-0.16271101061371673,-5.9784121292372205e-06,2.7942990397988865e-05,0.4288558226774857,-2.0942480703167732e-05,-0.16275287401659233
440,0.4299,0.0146996,863.566,0.0176704,0.00343812,0.0280409,-0.00464408,-0.177935,0.357573,-0.177986,-5.96766e-06,2.80098e-05,-2.09505e-05,0.353458,-0.16300317348562599,-5.967642193516198e-06,2.8010192278049573e-05,0.4298549420490767,-2.0950280539833166e-05,-0.16304585923528236
441,0.4309,0.0146663,863.884,0.0176315,0.00347762,0.028006,-0.00461557,-0.178285,0.358273,-0.178335,-5.95679e-06,2.8077e-05,-2.09583e-05,0.354155,-0.1632960711148309,-5.9567722583420135e-06,2.8077394162551172e-05,0.43085619090472616,-2.0958080376387578e-05,-0.1633379052654127
442,0.4319,0.0146332,864.202,0.0175927,0.00351704,0.0279712,-0.0045871,-0.178634,0.358971,-0.178684,-5.94583e-06,2.8144e-05,-2.09659e-05,0.354852,-0.16358802983625154,-5.945812323604471e-06,2.8144396046148046e-05,0.43185527716651984,-2.0965680217033267e-05,-0.16362984938926217
443,0.4329,0.0146002,864.519,0.0175541,0.00355636,0.0279364,-0.00455868,-0.178982,0.359669,-0.179033,-5.93478e-06,2.82108e-05,-2.09734e-05,0.355549,-0.16387905056132535,-5.934762389192549e-06,2.8211197928396103e-05,0.4328550610339603,-2.0973180059780105e-05,-0.1639216916423899
444,0.4339,0.0145672,864.835,0.0175155,0.0035956,0.0279017,-0.00453031,-0.179331,0.360367,-0.179381,-5.92363e-06,2.82775e-05,-2.09809e-05,0.356245,-0.1641708058584188,-5.923612455327465e-06,2.82778998121902e-05,0.4338555429941462,-2.0980679902415922e-05,-0.16421259627335683
445,0.4349,0.0145344,865.151,0.0174771,0.00363475,0.0278671,-0.00450199,-0.179679,0.361064,-0.17973,-5.91238e-06,2.8344e-05,-2.09882e-05,0.356941,-0.1644616238127211,-5.912362521898196e-06,2.8344401694857524e-05,0.4348552886785104,-2.0987979749254038e-05,-0.16450423518330748
446,0.4359,0.0145017,865.465,0.0174388,0.00367382,0.0278326,-0.00447371,-0.180027,0.361761,-0.180078,-5.90104e-06,2.84104e-05,-2.09955e-05,0.357636,-0.16475234057998278,-5.901022588905569e-06,2.841080357929293e-05,0.43585573142851564,-2.099527959598113e-05,-0.16479493712439208
447,0.4369,0.0144691,865.779,0.0174006,0.00371279,0.0277982,-0.00444549,-0.180375,0.362457,-0.180426,-5.88961e-06,2.84766e-05,-2.10027e-05,0.358331,-0.16504295619541098,-5.8895926562385625e-06,2.847700546215748e-05,0.4368554348740328,-2.1002479444809374e-05,-0.16508553791880187
448,0.4379,0.0144365,866.093,0.0173625,0.00375168,0.0277639,-0.00441731,-0.180722,0.363153,-0.180773,-5.87808e-06,2.85427e-05,-2.10098e-05,0.359025,-0.16533263602725368,-5.878062724118394e-06,2.854310734679011e-05,0.4378558343553405,-2.1009579295738767e-05,-0.16537520297734987
449,0.4389,0.0144041,866.405,0.0173246,0.00379049,0.0277297,-0.00438918,-0.18107,0.363848,-0.181121,-5.86646e-06,2.86086e-05,-2.10168e-05,0.359719,-0.1656230497350002,-5.866442792323845e-06,2.860900922985188e-05,0.43885549150083736,-2.1016579148658288e-05,-0.16566560187437496
450,0.4399,0.0143718,866.717,0.0172867,0.0038292,0.0276955,-0.00436109,-0.181417,0.364543,-0.181468,-5.85474e-06,2.86743e-05,-2.10237e-05,0.360412,-0.16591252830930492,-5.854722861076134e-06,2.8674711111564832e-05,0.4398558436495359,-2.1023479003567935e-05,-0.16595506568564877
451,0.4409,0.0143396,867.028,0.017249,0.00386784,0.0276615,-0.00433305,-0.181763,0.365237,-0.181815,-5.84294e-06,2.874e-05,-2.10306e-05,0.361105,-0.16620107265345974,-5.842922930043848e-06,2.874041299771868e-05,0.4408554504284603,-2.1030378858477583e-05,-0.16624442907040515
452,0.4419,0.0143075,867.339,0.0172114,0.00390638,0.0276275,-0.00430507,-0.18211,0.365931,-0.182161,-5.83104e-06,2.88054e-05,-2.10373e-05,0.361797,-0.16649035068860718,-5.8310229995583995e-06,2.8805814879628855e-05,0.4418557511752683,-2.103707871758953e-05,-0.16653285859676126
453,0.4429,0.0142754,867.649,0.0171739,0.00394485,0.0275936,-0.00427712,-0.182456,0.366624,-0.182508,-5.81905e-06,2.88708e-05,-2.1044e-05,0.362489,-0.16677869514080212,-5.8190330693985715e-06,2.8871216765535834e-05,0.4428553035157161,-2.1043778576590455e-05,-0.16682202152215908
454,0.4439,0.0142435,867.958,0.0171365,0.00398322,0.0275598,-0.00424923,-0.182802,0.367317,-0.182854,-5.80697e-06,2.8936e-05,-2.10506e-05,0.363181,-0.1670669398430743,-5.806953139564364e-06,2.8936418650093998e-05,0.4438555487860081,-2.105037843769253e-05,-0.16711025123609646
455,0.4449,0.0142117,868.266,0.0170992,0.00402152,0.0275261,-0.00422138,-0.183148,0.368009,-0.1832,-5.7948e-06,2.9001e-05,-2.10571e-05,0.363871,-0.16735508482993122,-5.7947832101667984e-06,2.90014205330813e-05,0.44485504261074604,-2.105687830078473e-05,-0.16739838123980366
456,0.4459,0.01418,868.574,0.017062,0.00405973,0.0274924,-0.00419359,-0.183494,0.368701,-0.183545,-5.78253e-06,2.90659e-05,-2.10635e-05,0.364562,-0.1676431301358685,-5.782513281205048e-06,2.9066322417392598e-05,0.4458552283245769,-2.1063278166089106e-05,-0.16768557925376992
457,0.4469,0.0141483,868.881,0.017025,0.00409785,0.0274589,-0.00416584,-0.183839,0.369393,-0.183891,-5.77018e-06,2.91306e-05,-2.10699e-05,0.365252,-0.1679302437260295,-5.770163352569746e-06,2.9131024300133035e-05,0.44685610640645357,-2.1069678031171435e-05,-0.167973510228417
458,0.4479,0.0141168,869.188,0.016988,0.0041359,0.0274254,-0.00413813,-0.184184,0.370083,-0.184236,-5.75774e-06,2.91952e-05,-2.10761e-05,0.365941,-0.16821725827908685,-5.757723424260064e-06,2.919562618397542e-05,0.44785478162320147,-2.1075877900567086e-05,-0.1682605098571055
459,0.4489,0.0140854,869.494,0.0169512,0.00417386,0.0273921,-0.00411048,-0.184529,0.370774,-0.184581,-5.74521e-06,2.92597e-05,-2.10823e-05,0.36663,-0.16850417382920224,-5.745193496276002e-06,2.92601280691418e-05,0.4488555950185087,-2.1082077769851715e-05,-0.16854741048800026
460,0.4499,0.014054,869.799,0.0169145,0.00421173,0.0273588,-0.00408287,-0.184874,0.371464,-0.184926,-5.73258e-06,2.9324e-05,-2.10884e-05,0.367319,-0.16879099041052603,-5.732563568838778e-06,2.932442995273732e-05,0.4498556503584865,-2.1088177641237493e-05,-0.16883421215524963
461,0.4509,0.0140228,870.103,0.0168778,0.00424953,0.0273255,-0.00405531,-0.185218,0.372153,-0.18527,-5.71987e-06,2.93881e-05,-2.10944e-05,0.368007,-0.16907687713448905,-5.719853641616979e-06,2.9388531834539933e-05,0.4508549451190964,-2.109417751472442e-05,-0.16912008401348955
462,0.4519,0.0139916,870.407,0.0168413,0.00428724,0.0272924,-0.00402779,-0.185562,0.372842,-0.185614,-5.70708e-06,2.94522e-05,-2.11003e-05,0.368694,-0.16936266553033252,-5.707063714610605e-06,2.945263372033935e-05,0.4518549286310438,-2.1100077390201477e-05,-0.16940585754872273
463,0.4529,0.0139606,870.71,0.0168049,0.00432487,0.0272594,-0.00400033,-0.185906,0.373531,-0.185958,-5.69419e-06,2.9516e-05,-2.11061e-05,0.369381,-0.1696483556318753,-5.694173788151069e-06,2.9516435601451008e-05,0.4528556013690421,-2.1105877267890705e-05,-0.16969153279476645
464,0.4539,0.0139296,871.012,0.0167687,0.00436242,0.0272264,-0.00397291,-0.18625,0.374219,-0.186302,-5.68121e-06,2.95798e-05,-2.11119e-05,0.370068,-0.169933947472925,-5.681193861906131e-06,2.958023748655947e-05,0.45385550995189483,-2.1111677145357888e-05,-0.16997710978542657
465,0.4549,0.0138988,871.314,0.0167325,0.00439989,0.0271935,-0.00394554,-0.186593,0.374907,-0.186646,-5.66815e-06,2.96434e-05,-2.11176e-05,0.370754,-0.17021861130630345,-5.668133936098663e-06,2.9643839369875025e-05,0.45485610670855725,-2.1117377025037243e-05,-0.17026258855449683
466,0.4559,0.013868,871.615,0.0166964,0.00443728,0.0271607,-0.00391821,-0.186937,0.375594,-0.186989,-5.655e-06,2.97068e-05,-2.11231e-05,0.37144,-0.17050400701313817,-5.6549840105057925e-06,2.9707241251397676e-05,0.4558559362559915,-2.1122876908918897e-05,-0.17054713968331425
467,0.4569,0.0138373,871.916,0.0166604,0.00447459,0.027128,-0.00389094,-0.18728,0.37628,-0.187332,-5.64177e-06,2.97701e-05,-2.11287e-05,0.372125,-0.17078847534962394,-5.64175408523937e-06,2.977054313380023e-05,0.45685499606659863,-2.112847679058838e-05,-0.17083159322783126
468,0.4579,0.0138068,872.215,0.0166246,0.00451182,0.0270954,-0.00386371,-0.187622,0.376967,-0.187675,-5.62845e-06,2.98333e-05,-2.11341e-05,0.37281,-0.17107201720263387,-5.628434160298568e-06,2.9833745017304736e-05,0.4578561993228367,-2.113387667646016e-05,-0.1711159492215133
469,0.4589,0.0137763,872.515,0.0165888,0.00454896,0.0270628,-0.00383653,-0.187965,0.377652,-0.188018,-5.61504e-06,2.98964e-05,-2.11394e-05,0.373494,-0.17135629074503378,-5.615024235683386e-06,2.989684690191119e-05,0.4588551729287711,-2.1139176564433093e-05,-0.17140020769781472
470,0.4599,0.0137459,872.813,0.0165532,0.00458603,0.0270303,-0.00380939,-0.188307,0.378337,-0.18836,-5.60154e-06,2.99592e-05,-2.11447e-05,0.374178,-0.1716396384383816,-5.601524311393824e-06,2.9959648781385795e-05,0.45985483106605063,-2.1144476452406025e-05,-0.1716835403741328
471,0.4609,0.0137156,873.111,0.0165176,0.00462302,0.0269979,-0.00378231,-0.188649,0.379022,-0.188702,-5.58796e-06,3.0022e-05,-2.11499e-05,0.374861,-0.17192288924338717,-5.58794438743071e-06,3.0022450664857203e-05,0.4608551742037399,-2.1149676342480106e-05,-0.17196677616724354
472,0.4619,0.0136854,873.408,0.0164822,0.00465993,0.0269656,-0.00375527,-0.188991,0.379707,-0.189044,-5.5743e-06,3.00846e-05,-2.1155e-05,0.375544,-0.17220604319318067,-5.574284463571999e-06,3.0085052546091617e-05,0.4618562028112254,-2.1154776234544315e-05,-0.17224991511027532
473,0.4629,0.0136553,873.705,0.0164469,0.00469676,0.0269334,-0.00372828,-0.189333,0.38039,-0.189386,-5.56055e-06,3.01471e-05,-2.116e-05,0.376227,-0.17248910032088083,-5.560534540149931e-06,3.014755442842798e-05,0.4628549916453053,-2.1159776128820695e-05,-0.1725329572363452
474,0.4639,0.0136252,874.001,0.0164116,0.00473352,0.0269012,-0.00370133,-0.189674,0.381074,-0.189727,-5.54672e-06,3.02094e-05,-2.1165e-05,0.376909,-0.17277123343124212,-5.546704616943288e-06,3.020985630852735e-05,0.4638559267403686,-2.1164776022986054e-05,-0.17281507539404806
475,0.4649,0.0135953,874.296,0.0163765,0.00477019,0.0268691,-0.00367443,-0.190015,0.381757,-0.190068,-5.5328e-06,3.02717e-05,-2.11698e-05,0.37759,-0.17305327035061435,-5.532784694062265e-06,3.0272158192623522e-05,0.464856081852423,-2.116957592135371e-05,-0.17309709736585965
476,0.4659,0.0135655,874.591,0.0163415,0.00480679,0.0268371,-0.00364759,-0.190356,0.382439,-0.190409,-5.5188e-06,3.03337e-05,-2.11746e-05,0.378271,-0.17333521111179306,-5.5187847713966676e-06,3.03341600713658e-05,0.46585545444756526,-2.117437581972137e-05,-0.17337902318457388
477,0.4669,0.0135357,874.885,0.0163066,0.00484331,0.0268052,-0.00362078,-0.190697,0.383121,-0.19075,-5.50471e-06,3.03957e-05,-2.11793e-05,0.378952,-0.17361705574756237,-5.5046948490566905e-06,3.039616195388284e-05,0.4668555088472863,-2.1179075720190177e-05,-0.1736608528829734
478,0.4679,0.013506,875.179,0.0162717,0.00487975,0.0267733,-0.00359403,-0.191037,0.383802,-0.191091,-5.49054e-06,3.04575e-05,-2.1184e-05,0.379632,-0.17389797818908692,-5.490524927043161e-06,3.0457963834384927e-05,0.4678547776612241,-2.1183775620658984e-05,-0.17394258649382965
479,0.4689,0.0134765,875.471,0.016237,0.00491612,0.0267416,-0.00356732,-0.191377,0.384484,-0.191431,-5.47629e-06,3.05191e-05,-2.11885e-05,0.380312,-0.17417880513321682,-5.476275005134035e-06,3.0519565712427976e-05,0.46885619606444906,-2.118827552533009e-05,-0.17422339827371403
480,0.4699,0.013447,875.764,0.0162024,0.00495241,0.0267099,-0.00354066,-0.191717,0.385164,-0.191771,-5.46196e-06,3.05807e-05,-2.1193e-05,0.380991,-0.17445953661241576,-5.461945083551356e-06,3.058116759446783e-05,0.46985535795431455,-2.11927754300012e-05,-0.1745041145938223
481,0.4709,0.0134176,876.055,0.0161679,0.00498862,0.0266783,-0.00351405,-0.192057,0.385844,-0.192111,-5.44755e-06,3.06421e-05,-2.11974e-05,0.381669,-0.1747401726591361,-5.4475351620730805e-06,3.064256947404864e-05,0.4708551995053236,-2.1197175336662433e-05,-0.17478473548660534
482,0.4719,0.0133883,876.346,0.0161335,0.00502476,0.0266467,-0.00348748,-0.192396,0.386524,-0.19245,-5.43305e-06,3.07033e-05,-2.12017e-05,0.382348,-0.17501988832612037,-5.4330352410314475e-06,3.070377135117042e-05,0.4718557211798031,-2.120147524553584e-05,-0.1750644360493514
483,0.4729,0.013359,876.637,0.0160992,0.00506082,0.0266153,-0.00346096,-0.192736,0.387203,-0.19279,-5.41847e-06,3.07644e-05,-2.12059e-05,0.383025,-0.1753003338856427,-5.418455320094218e-06,3.076487322895005e-05,0.4728554505842073,-2.1205675156510395e-05,-0.1753448664652224
484,0.4739,0.0133299,876.926,0.016065,0.00509681,0.0265839,-0.00343449,-0.193075,0.387882,-0.193129,-5.40381e-06,3.08254e-05,-2.12101e-05,0.383703,-0.17557985969015466,-5.403795399483435e-06,3.082587510760959e-05,0.4738558590353874,-2.120987506737393e-05,-0.17562437717574841
485,0.4749,0.0133009,877.216,0.0160309,0.00513272,0.0265526,-0.00340807,-0.193414,0.38856,-0.193468,-5.38907e-06,3.08863e-05,-2.12142e-05,0.38438,-0.17585929075147877,-5.389055478977056e-06,3.0886776986704945e-05,0.4748554721383631,-2.1213974980449635e-05,-0.1759037931482027
486,0.4759,0.0132719,877.504,0.0159969,0.00516856,0.0265213,-0.00338169,-0.193752,0.389238,-0.193806,-5.37425e-06,3.0947e-05,-2.12182e-05,0.385056,-0.17613780323994266,-5.374235558797125e-06,3.094747886334126e-05,0.4758557632088276,-2.121797489562649e-05,-0.17618229059739832
487,0.4769,0.013243,877.792,0.015963,0.00520432,0.0264902,-0.00335536,-0.194091,0.389915,-0.194145,-5.35935e-06,3.10076e-05,-2.12221e-05,0.385732,-0.17641704519045953,-5.359335638721596e-06,3.1008080740635435e-05,0.4768552558506045,-2.1221874812793473e-05,-0.17646151746925687
488,0.4779,0.0132143,878.079,0.0159291,0.00524001,0.0264591,-0.00332908,-0.194429,0.390592,-0.194483,-5.34437e-06,3.10681e-05,-2.1226e-05,0.386408,-0.17669536918977946,-5.344355718861493e-06,3.1068582618365426e-05,0.47785542537799985,-2.1225774730071478e-05,-0.1767398264394867
489,0.4789,0.0131856,878.366,0.0158954,0.00527562,0.0264281,-0.00330285,-0.194767,0.391268,-0.194821,-5.3293e-06,3.11285e-05,-2.12298e-05,0.387083,-0.17697359913148436,-5.32928579932701e-06,3.1128984496753276e-05,0.47885479339388737,-2.122957464933961e-05,-0.17701804135718036
490,0.4799,0.0131569,878.652,0.0158618,0.00531116,0.0263971,-0.00327666,-0.195104,0.391944,-0.195159,-5.31416e-06,3.11887e-05,-2.12335e-05,0.387757,-0.17725091229868384,-5.314145879897758e-06,3.118918637246004e-05,0.479854837210949,-2.1233274570819916e-05,-0.17729616225412226
491,0.4809,0.0131284,878.938,0.0158283,0.00534663,0.0263663,-0.00325052,-0.195442,0.39262,-0.195496,-5.29895e-06,3.12488e-05,-2.12371e-05,0.388432,-0.1775289544985481,-5.298935960573736e-06,3.124928824882467e-05,0.4808555572861801,-2.123687449440137e-05,-0.177573366735864
492,0.4819,0.0131,879.223,0.0157949,0.00538202,0.0263355,-0.00322443,-0.195779,0.393295,-0.195834,-5.28365e-06,3.13087e-05,-2.12407e-05,0.389105,-0.1778060805425209,-5.283636041575335e-06,3.130919012250821e-05,0.48185547222067315,-2.1240474417982824e-05,-0.17785129996454563
493,0.4829,0.0130716,879.507,0.0157616,0.00541734,0.0263048,-0.00319838,-0.196116,0.39397,-0.196171,-5.26827e-06,3.13685e-05,-2.12441e-05,0.389778,-0.17808311321075165,-5.268256122681336e-06,3.136899199662757e-05,0.4828560623255913,-2.1243874345655556e-05,-0.17812831739639856
494,0.4839,0.0130433,879.791,0.0157283,0.00545259,0.0262741,-0.00317238,-0.196453,0.394644,-0.196508,-5.25282e-06,3.14282e-05,-2.12475e-05,0.390451,-0.17836005253470255,-5.2528062040035906e-06,3.14286938709607e-05,0.4838558442002425,-2.124727427343931e-05,-0.17840524148910553
495,0.4849,0.0130151,880.074,0.0156952,0.00548776,0.0262436,-0.00314643,-0.196789,0.395317,-0.196844,-5.23728e-06,3.14878e-05,-2.12509e-05,0.391124,-0.17863607718231322,-5.2372662854294205e-06,3.148829574595169e-05,0.48485481529945895,-2.1250674201223063e-05,-0.17868125095577803
496,0.4859,0.012987,880.357,0.0156622,0.00552287,0.0262131,-0.00312053,-0.197125,0.395991,-0.197181,-5.22167e-06,3.15472e-05,-2.12541e-05,0.391796,-0.17891200910122163,-5.221656367071503e-06,3.154769761803955e-05,0.4858559447877091,-2.1253874133209116e-05,-0.17895798874127
497,0.4869,0.012959,880.639,0.0156292,0.0055579,0.0261826,-0.00309467,-0.197462,0.396663,-0.197517,-5.20599e-06,3.16065e-05,-2.12573e-05,0.392467,-0.17918866913432063,-5.2059764488188165e-06,3.160699949078527e-05,0.4868547755521555,-2.125707406519517e-05,-0.17923381251606385
498,0.4879,0.0129311,880.921,0.0155964,0.00559286,0.0261523,-0.00306887,-0.197797,0.397336,-0.197853,-5.19022e-06,3.16657e-05,-2.12604e-05,0.393138,-0.1794635948775275,-5.190206530780728e-06,3.166620136352272e-05,0.4878557656114755,-2.1260173999282372e-05,-0.17950954362963734
499,0.4889,0.0129032,881.202,0.0155636,0.00562775,0.026122,-0.0030431,-0.198133,0.398008,-0.198188,-5.17438e-06,3.17248e-05,-2.12635e-05,0.393809,-0.17973924879719683,-5.174366612958892e-06,3.172530323669598e-05,0.48885594070716,-2.1263273933369575e-05,-0.17978436189789138
500,0.4899,0.0128754,881.482,0.015531,0.00566256,0.0260918,-0.00301739,-0.198468,0.398679,-0.198524,-5.15846e-06,3.17837e-05,-2.12664e-05,0.394479,-0.18001399012710761,-5.158446695130436e-06,3.178420510718816e-05,0.4898552982903477,-2.12661738717701e-05,-0.18005990805794636
501,0.4909,0.0128477,881.762,0.0154984,0.00569731,0.0260617,-0.00299172,-0.198804,0.39935,-0.198859,-5.14247e-06,3.18425e-05,-2.12693e-05,0.395148,-0.18028945914503824,-5.142456777518234e-06,3.1843006977894106e-05,0.4908553266675,-2.1269073810059602e-05,-0.18033454198499577
502,0.4919,0.0128201,882.041,0.0154659,0.00573199,0.0260316,-0.0029661,-0.199139,0.400021,-0.199194,-5.1264e-06,3.19012e-05,-2.12721e-05,0.395818,-0.18056401618535278,-5.1263868600104345e-06,3.190170884859178e-05,0.4918560262888705,-2.1271873750450254e-05,-0.18060908392508834
503,0.4929,0.0127926,882.32,0.0154336,0.00576659,0.0260016,-0.00294053,-0.199473,0.400691,-0.199529,-5.11026e-06,3.19598e-05,-2.12749e-05,0.396486,-0.1808376621025347,-5.110246942607866e-06,3.1960310719947316e-05,0.49285590474836405,-2.127467369095193e-05,-0.18088353390903444
504,0.4939,0.0127651,882.598,0.0154013,0.00580113,0.0259717,-0.00291501,-0.199808,0.40136,-0.199864,-5.09404e-06,3.20182e-05,-2.12775e-05,0.397155,-0.18111203552561606,-5.094027025420722e-06,3.201871258795563e-05,0.493854959495192,-2.1277273635655902e-05,-0.18115789196763432
505,0.4949,0.0127378,882.875,0.0153691,0.00583559,0.0259418,-0.00288953,-0.200142,0.40203,-0.200198,-5.07774e-06,3.20765e-05,-2.12801e-05,0.397822,-0.18138549843490248,-5.0777271083379816e-06,3.2077014456399766e-05,0.49485617768869483,-2.1279873580248854e-05,-0.1814313395634265
506,0.4959,0.0127105,883.152,0.015337,0.00586999,0.025912,-0.0028641,-0.200476,0.402698,-0.200532,-5.06137e-06,3.21347e-05,-2.12827e-05,0.39849,-0.18165887002282866,-5.061357191249449e-06,3.213521632505767e-05,0.4958550752100186,-2.1282473524952827e-05,-0.18170469584297244
507,0.4969,0.0126833,883.429,0.015305,0.00590432,0.0258823,-0.00283872,-0.20081,0.403367,-0.200866,-5.04493e-06,3.21928e-05,-2.12851e-05,0.399157,-0.18193215031989096,-5.04491727437717e-06,3.21933181937073e-05,0.496856137073191,-2.12848734738591e-05,-0.18197796083676654
508,0.4979,0.0126561,883.704,0.0152731,0.00593858,0.0258527,-0.00281338,-0.201144,0.404034,-0.2012,-5.02841e-06,3.22507e-05,-2.12875e-05,0.399823,-0.18220533935657524,-5.028397357609293e-06,3.22512200594538e-05,0.49785487315807586,-2.1287273422765374e-05,-0.18225113457529318
509,0.4989,0.0126291,883.98,0.0152413,0.00597277,0.0258231,-0.0027881,-0.201477,0.404702,-0.201533,-5.01182e-06,3.23086e-05,-2.12898e-05,0.40049,-0.1824776196413861,-5.011807440835625e-06,3.230912192853097e-05,0.49885577447716734,-2.1289573373772797e-05,-0.18252339961283492
510,0.4999,0.0126021,884.254,0.0152095,0.00600689,0.0257936,-0.00276286,-0.20181,0.405369,-0.201866,-4.99515e-06,3.23663e-05,-2.12921e-05,0.401155,-0.18274980927195672,-4.995137524277382e-06,3.2366823794260924e-05,0.4998558447651078,-2.1291873324891242e-05,-0.18279557400121316
511,0.5009,0.0125752,884.529,0.0151779,0.00604094,0.0257642,-0.00273766,-0.202143,0.406035,-0.202199,-4.97842e-06,3.24238e-05,-2.12942e-05,0.40182,-0.1830219082784702,-4.978407607714175e-06,3.242432565708775e-05,0.5008550814666082,-2.1293973280100964e-05,-0.18306765777060885
512,0.5019,0.0125484,884.802,0.0151463,0.00607493,0.0257348,-0.00271252,-0.202476,0.406701,-0.202532,-4.9616e-06,3.24813e-05,-2.12963e-05,0.402485,-0.18329391669109918,-4.961587691254543e-06,3.2481827523245244e-05,0.5018549838814097,-2.129607323542171e-05,-0.1833396509511933
513,0.5029,0.0125217,885.075,0.0151149,0.00610884,0.0257055,-0.00268742,-0.202808,0.407367,-0.202865,-4.94472e-06,3.25386e-05,-2.12984e-05,0.40315,-0.1835650181054328,-4.944707774900969e-06,3.253912938605552e-05,0.5028555524530249,-2.1298173190742453e-05,-0.18361155357312742
514,0.5039,0.012495,885.348,0.0150835,0.00614269,0.0256763,-0.00266237,-0.203141,0.408032,-0.203197,-4.92776e-06,3.25959e-05,-2.13003e-05,0.403813,-0.18383684569259862,-4.927747858651799e-06,3.259643125219647e-05,0.5038552837692267,-2.1300073150265497e-05,-0.18388254954951988
515,0.5049,0.0124685,885.62,0.0150522,0.00617647,0.0256471,-0.00263737,-0.203473,0.408697,-0.203529,-4.91073e-06,3.2653e-05,-2.13022e-05,0.404477,-0.18410776688442232,-4.910717942396836e-06,3.2653533114990196e-05,0.5048556801278559,-2.130197310978854e-05,-0.1841534555701816
516,0.5059,0.0124419,885.892,0.015021,0.00621019,0.025618,-0.00261241,-0.203805,0.409361,-0.203861,-4.89363e-06,3.27099e-05,-2.1304e-05,0.40514,-0.18437859814533963,-4.893618026247104e-06,3.271043497465875e-05,0.5058552361153235,-2.1303773071412735e-05,-0.184424271664973
517,0.5069,0.0124155,886.162,0.0149899,0.00624384,0.025589,-0.0025875,-0.204136,0.410025,-0.204193,-4.87646e-06,3.27668e-05,-2.13058e-05,0.405802,-0.18464852415413469,-4.87644811009158e-06,3.2767336837435934e-05,0.5068554560283658,-2.130557303303693e-05,-0.18469499786374455
518,0.5079,0.0123892,886.433,0.0149589,0.00627742,0.02556,-0.00256264,-0.204468,0.410688,-0.204524,-4.85922e-06,3.28235e-05,-2.13075e-05,0.406465,-0.18491917591343743,-4.859208194041287e-06,3.28240386968659e-05,0.5078548324523893,-2.1307272996873294e-05,-0.18496481916156338
519,0.5089,0.0123629,886.703,0.014928,0.00631094,0.0255311,-0.00253783,-0.204799,0.411351,-0.204856,-4.8419e-06,3.28802e-05,-2.13091e-05,0.407126,-0.18518892302060097,-4.841888277984374e-06,3.288074055962653e-05,0.508854871682678,-2.1308872962699787e-05,-0.18523536592835343
520,0.5099,0.0123367,886.972,0.0148971,0.00634439,0.0255023,-0.00251306,-0.20513,0.412014,-0.205187,-4.82452e-06,3.29367e-05,-2.13106e-05,0.407788,-0.18545858085624745,-4.824508362033519e-06,3.293724241903995e-05,0.509855574158818,-2.1310372930738453e-05,-0.18550500839394124
521,0.5109,0.0123106,887.241,0.0148664,0.00637777,0.0254735,-0.00248835,-0.20546,0.412676,-0.205518,-4.80706e-06,3.29931e-05,-2.13121e-05,0.408448,-0.18572733517766282,-4.807048446076045e-06,3.2993644278223044e-05,0.5108554294645022,-2.1311872898777118e-05,-0.1857745616226424
522,0.5119,0.0122846,887.509,0.0148357,0.00641109,0.0254448,-0.00246368,-0.205791,0.413338,-0.205848,-4.78953e-06,3.30493e-05,-2.13135e-05,0.409109,-0.1859968148283765,-4.789518530223802e-06,3.3049846134058924e-05,0.5118559468935375,-2.1313272869027955e-05,-0.18604321168760818
523,0.5129,0.0122586,887.777,0.0148051,0.00644434,0.0254162,-0.00243905,-0.206121,0.413999,-0.206179,-4.77194e-06,3.31055e-05,-2.13149e-05,0.409769,-0.1862653915618847,-4.771928614366594e-06,3.310604799300343e-05,0.512855614028024,-2.131467283916777e-05,-0.186312586800499
524,0.5139,0.0122327,888.044,0.0147746,0.00647753,0.0253877,-0.00241448,-0.206451,0.41466,-0.206509,-4.75427e-06,3.31615e-05,-2.13161e-05,0.410428,-0.18653387967969337,-4.754258698502767e-06,3.3162049848600716e-05,0.5138559421609223,-2.1315872813509884e-05,-0.18658105934644842
525,0.5149,0.0122069,888.311,0.0147442,0.00651065,0.0253592,-0.00238995,-0.206781,0.41532,-0.206839,-4.73653e-06,3.32174e-05,-2.13173e-05,0.411087,-0.18680227921104064,-4.736518782633148e-06,3.3217951703967685e-05,0.5148554168731228,-2.131707278796302e-05,-0.18684944331107434
526,0.5159,0.0121811,888.577,0.0147139,0.00654371,0.0253307,-0.00236547,-0.207111,0.41598,-0.207169,-4.71873e-06,3.32733e-05,-2.13185e-05,0.411746,-0.18707059018515537,-4.7187188667585644e-06,3.327385356244328e-05,0.5158555514563667,-2.1318272762416157e-05,-0.18711773872360382
527,0.5169,0.0121555,888.843,0.0146837,0.00657671,0.0253024,-0.00234103,-0.20744,0.416639,-0.207498,-4.70085e-06,3.33289e-05,-2.13195e-05,0.412404,-0.18733799996966283,-4.700838950988384e-06,3.332945541401067e-05,0.5168548294907247,-2.1319272741071593e-05,-0.18738513299879356
528,0.5179,0.0121299,889.108,0.0146535,0.00660964,0.025274,-0.00231665,-0.20777,0.417298,-0.207827,-4.68291e-06,3.33845e-05,-2.13205e-05,0.413062,-0.18760613418509398,-4.682899035213239e-06,3.338505726868668e-05,0.5178547662663389,-2.132027271972703e-05,-0.18765243931573672
529,0.5189,0.0121043,889.373,0.0146234,0.0066425,0.0252458,-0.00229231,-0.208099,0.417957,-0.208156,-4.6649e-06,3.344e-05,-2.13215e-05,0.413719,-0.18787336780460628,-4.6648891193212805e-06,3.3440559123132374e-05,0.5188553622174628,-2.1321272698382465e-05,-0.18791965770336672
530,0.5199,0.0120789,889.637,0.0145935,0.00667531,0.0252176,-0.00226802,-0.208427,0.418615,-0.208485,-4.64682e-06,3.34953e-05,-2.13224e-05,0.414376,-0.18813970165882643,-4.646809203534552e-06,3.349586097378676e-05,0.5198550979227781,-2.1322172679250073e-05,-0.18818678819060763
531,0.5209,0.0120535,889.901,0.0145636,0.00670805,0.0251895,-0.00224378,-0.208756,0.419273,-0.208814,-4.62867e-06,3.35506e-05,-2.13232e-05,0.415033,-0.18840675976351362,-4.628659287742032e-06,3.355116282777182e-05,0.5208554916706598,-2.132297266221883e-05,-0.1884538308063739
532,0.5219,0.0120282,890.164,0.0145337,0.00674072,0.0251615,-0.00221958,-0.209084,0.41993,-0.209142,-4.61046e-06,3.36057e-05,-2.13239e-05,0.415689,-0.18867291869386038,-4.610449371833525e-06,3.360626467796557e-05,0.5218550220384592,-2.132367264728874e-05,-0.18871997429995035
533,0.5229,0.012003,890.426,0.014504,0.00677333,0.0251335,-0.00219544,-0.209413,0.420587,-0.209471,-4.59217e-06,3.36607e-05,-2.13246e-05,0.416344,-0.1889398013989978,-4.592159456029421e-06,3.366126652770696e-05,0.5228552093134808,-2.1324372632358646e-05,-0.18898684152633982
534,0.5239,0.0119778,890.689,0.0144744,0.00680588,0.0251056,-0.00217134,-0.20974,0.421244,-0.209799,-4.57382e-06,3.37156e-05,-2.13252e-05,0.417,-0.1892049747257385,-4.57380954010933e-06,3.3716168377218025e-05,0.5238560539274544,-2.1324972619529703e-05,-0.18925281022106877
535,0.5249,0.0119528,890.95,0.0144448,0.00683837,0.0250777,-0.00214728,-0.210068,0.4219,-0.210126,-4.5554e-06,3.37704e-05,-2.13257e-05,0.417654,-0.18947087188451062,-4.555389624183448e-06,3.377097022627673e-05,0.5248560314555994,-2.1325472608912932e-05,-0.1895178812106576
536,0.5259,0.0119277,891.211,0.0144153,0.0068708,0.0250499,-0.00212328,-0.210396,0.422555,-0.210454,-4.53692e-06,3.38251e-05,-2.13262e-05,0.418309,-0.18973668184331616,-4.536909708141579e-06,3.382567207510512e-05,0.5258551393283111,-2.132597259818514e-05,-0.18978367575293265
537,0.5269,0.0119028,891.472,0.0143859,0.00690316,0.0250222,-0.00209932,-0.210723,0.42321,-0.210781,-4.51837e-06,3.38796e-05,-2.13266e-05,0.418963,-0.19000159463275168,-4.51835979220494e-06,3.38801739201422e-05,0.5268549018310471,-2.1326372589669518e-05,-0.19004857317787205
538,0.5279,0.0118779,891.732,0.0143566,0.00693546,0.0249945,-0.00207541,-0.21105,0.423865,-0.211109,-4.49975e-06,3.39341e-05,-2.13269e-05,0.419616,-0.190266420809867,-4.499739876151487e-06,3.393467576806586e-05,0.5278553193927309,-2.1326672583255046e-05,-0.19031419368172564
539,0.5289,0.0118531,891.992,0.0143273,0.0069677,0.0249669,-0.00205155,-0.211377,0.424519,-0.211436,-4.48107e-06,3.39884e-05,-2.13272e-05,0.420269,-0.1905311604029798,-4.481059959982048e-06,3.398897761219821e-05,0.5288548635869386,-2.1326972576840575e-05,-0.19057891765566315
540,0.5299,0.0118284,892.251,0.0142982,0.00699988,0.0249394,-0.00202774,-0.211704,0.425173,-0.211762,-4.46232e-06,3.40426e-05,-2.13274e-05,0.420922,-0.1907958134403981,-4.462310043917839e-06,3.40431794558782e-05,0.5298550616968563,-2.1327172572638275e-05,-0.19084274592216344
541,0.5309,0.0118037,892.509,0.0142691,0.007032,0.0249119,-0.00200397,-0.21203,0.425827,-0.212089,-4.4435e-06,3.40968e-05,-2.13276e-05,0.421574,-0.19105957101039672,-4.443490127625793e-06,3.4097381302444774e-05,0.5308559141502849,-2.1327372568324954e-05,-0.19110729708777396
542,0.5319,0.0117792,892.768,0.0142401,0.00706405,0.0248845,-0.00198026,-0.212356,0.42648,-0.212415,-4.42462e-06,3.41508e-05,-2.13277e-05,0.422226,-0.19132324260944145,-4.424610211328783e-06,3.415138314522004e-05,0.5318558895186496,-2.1327472566223804e-05,-0.19137095313065333
543,0.5329,0.0117546,893.025,0.0142112,0.00709605,0.0248571,-0.00195659,-0.212682,0.427132,-0.212741,-4.40568e-06,3.42047e-05,-2.13277e-05,0.422877,-0.1915868282655545,-4.405670295026809e-06,3.4205284987320894e-05,0.5328549852284239,-2.1327472566223804e-05,-0.19163452323567132
544,0.5339,0.0117302,893.282,0.0141824,0.00712798,0.0248298,-0.00193296,-0.213008,0.427785,-0.213067,-4.38667e-06,3.42585e-05,-2.13277e-05,0.423528,-0.1918503280067484,-4.3866603786080205e-06,3.425908682919143e-05,0.5338562664165063,-2.1327472566223804e-05,-0.19189800743083918
545,0.5349,0.0117058,893.539,0.0141536,0.00715986,0.0248026,-0.00190939,-0.213334,0.428436,-0.213393,-4.36759e-06,3.43122e-05,-2.13276e-05,0.424179,-0.19211374186102714,-4.367580462072418e-06,3.431278867016552e-05,0.5348551319413952,-2.1327372568324954e-05,-0.19216140574415896
546,0.5359,0.0116815,893.795,0.0141249,0.00719167,0.0247754,-0.00188586,-0.213659,0.429088,-0.213718,-4.34845e-06,3.43657e-05,-2.13274e-05,0.424829,-0.19237626223305104,-4.348440545531851e-06,3.4366290507348296e-05,0.5358561837948626,-2.1327172572638275e-05,-0.19242391062793784
547,0.5369,0.0116573,894.051,0.0140963,0.00722343,0.0247483,-0.00186238,-0.213984,0.429738,-0.214043,-4.32925e-06,3.44192e-05,-2.13272e-05,0.425479,-0.19263869729981697,-4.329240628764275e-06,3.4419792347417655e-05,0.5368548148342569,-2.1326972576840575e-05,-0.19268633021149162
548,0.5379,0.0116331,894.306,0.0140678,0.00725512,0.0247212,-0.00183895,-0.214309,0.430389,-0.214368,-4.30998e-06,3.44725e-05,-2.13269e-05,0.426128,-0.19290104708904465,-4.309970712101929e-06,3.447309418347366e-05,0.5378556330496975,-2.1326672583255046e-05,-0.19294866452253823
549,0.5389,0.011609,894.561,0.0140394,0.00728676,0.0246942,-0.00181557,-0.214634,0.431039,-0.214693,-4.29065e-06,3.45258e-05,-2.13265e-05,0.426777,-0.19316331162844458,-4.290640795212575e-06,3.4526396022194206e-05,0.5388555641535826,-2.1326272591770667e-05,-0.19321091358878684
550,0.5399,0.0115849,894.815,0.014011,0.00731834,0.0246673,-0.00179223,-0.214958,0.431689,-0.215018,-4.27125e-06,3.45789e-05,-2.13261e-05,0.427425,-0.19342468437080618,-4.271240878206406e-06,3.457949785712344e-05,0.5398561454239665,-2.132587260039731e-05,-0.1934730774379374
551,0.5409,0.011561,895.069,0.0139827,0.00734985,0.0246404,-0.00176895,-0.215283,0.432338,-0.215342,-4.25179e-06,3.4632e-05,-2.13257e-05,0.428073,-0.19368677875574114,-4.251780961195273e-06,3.4632599694717214e-05,0.540855836426988,-2.1325472608912932e-05,-0.19373434983243398
552,0.5419,0.0115371,895.323,0.0139545,0.00738131,0.0246136,-0.00174571,-0.215607,0.432987,-0.215666,-4.23227e-06,3.46849e-05,-2.13251e-05,0.428721,-0.1939479819222263,-4.232261043957131e-06,3.468550152807559e-05,0.5418561764400514,-2.1324872621630853e-05,-0.19399553758838695
553,0.5429,0.0115132,895.576,0.0139264,0.00741271,0.0245869,-0.00172252,-0.215931,0.433635,-0.21599,-4.21269e-06,3.47377e-05,-2.13245e-05,0.429368,-0.1942091004725941,-4.212681126603002e-06,3.4738303360981604e-05,0.5428556230281063,-2.1324272634459795e-05,-0.1942566407332147
554,0.5439,0.0114895,895.828,0.0138983,0.00744405,0.0245602,-0.00169937,-0.216254,0.434283,-0.216314,-4.19304e-06,3.47905e-05,-2.13239e-05,0.430015,-0.19446932890398727,-4.193031209243081e-06,3.479110519655215e-05,0.5438557174674317,-2.132367264728874e-05,-0.19451765929432685
555,0.5449,0.0114658,896.08,0.0138704,0.00747534,0.0245335,-0.00167628,-0.216578,0.43493,-0.216638,-4.17333e-06,3.48431e-05,-2.13231e-05,0.430661,-0.19473027856529446,-4.173321291656151e-06,3.4843707027887305e-05,0.544854915322283,-2.132287266431998e-05,-0.19477859329912406
556,0.5459,0.0114421,896.331,0.0138425,0.00750656,0.0245069,-0.00165323,-0.216901,0.435577,-0.216961,-4.15356e-06,3.48956e-05,-2.13224e-05,0.431307,-0.1949903386833478,-4.153551373953235e-06,3.489620885854805e-05,0.5458547598673282,-2.1322172679250073e-05,-0.1950386378140384
557,0.5469,0.0114186,896.582,0.0138147,0.00753773,0.0244804,-0.00163023,-0.217224,0.436224,-0.217284,-4.13373e-06,3.4948e-05,-2.13215e-05,0.431952,-0.19525031481554755,-4.133721456134332e-06,3.494861068853439e-05,0.5468552515211111,-2.1321272698382465e-05,-0.19529859834813812
558,0.5479,0.0113951,896.833,0.0137869,0.00756884,0.024454,-0.00160728,-0.217547,0.43687,-0.217607,-4.11384e-06,3.50003e-05,-2.13206e-05,0.432597,-0.19551020698901656,-4.113831538199442e-06,3.500091251762427e-05,0.5478548428468297,-2.132037271762588e-05,-0.1955584749285445
559,0.5489,0.0113716,897.083,0.0137592,0.00759989,0.0244276,-0.00158437,-0.21787,0.437516,-0.21793,-4.09388e-06,3.50525e-05,-2.13196e-05,0.433242,-0.19577001523086923,-4.093871620036715e-06,3.505311434603975e-05,0.5488550801171626,-2.1319372738970443e-05,-0.19581826758237042
560,0.5499,0.0113483,897.333,0.0137317,0.00763089,0.0244012,-0.00156152,-0.218192,0.438162,-0.218252,-4.07386e-06,3.51046e-05,-2.13186e-05,0.433886,-0.19602893559754875,-4.0738517018690246e-06,3.510521617378082e-05,0.5498559637495244,-2.1318372760315007e-05,-0.1960771724142939
561,0.5509,0.011325,897.582,0.0137041,0.00766183,0.0243749,-0.00153871,-0.218514,0.438807,-0.218575,-4.05378e-06,3.51566e-05,-2.13175e-05,0.43453,-0.19628777260529162,-4.053771783474325e-06,3.515721800040339e-05,0.5508559433048814,-2.131727278376072e-05,-0.1963367975558865
562,0.5519,0.0113017,897.831,0.0136767,0.00769271,0.0243487,-0.00151595,-0.218836,0.439451,-0.218897,-4.03364e-06,3.52084e-05,-2.13164e-05,0.435174,-0.19654652628093527,-4.033631864852616e-06,3.520901982301261e-05,0.5518550161993125,-2.1316172807206435e-05,-0.19659553544803732
563,0.5529,0.0112786,898.079,0.0136493,0.00772354,0.0243225,-0.00149324,-0.219158,0.440095,-0.219219,-4.01344e-06,3.52602e-05,-2.13152e-05,0.435817,-0.19680519665130813,-4.01343194611492e-06,3.526082164806432e-05,0.552854732703908,-2.13149728327533e-05,-0.19685419003999882
564,0.5539,0.0112555,898.327,0.013622,0.00775431,0.0242964,-0.00147058,-0.21948,0.440739,-0.21954,-3.99318e-06,3.53119e-05,-2.13139e-05,0.436459,-0.1970637837432303,-3.993172027261238e-06,3.5312523472441626e-05,0.5538550932332857,-2.131367286040131e-05,-0.19711195847094942
565,0.5549,0.0112324,898.574,0.0135948,0.00778502,0.0242703,-0.00144796,-0.219801,0.441383,-0.219862,-3.97286e-06,3.53635e-05,-2.13126e-05,0.437101,-0.19732148490539947,-3.972852108180547e-06,3.536412529592248e-05,0.5548560982023321,-2.1312372888160347e-05,-0.1973704468014672
566,0.5559,0.0112094,898.821,0.0135677,0.00781568,0.0242443,-0.0014254,-0.220122,0.442026,-0.220183,-3.95248e-06,3.5415e-05,-2.13112e-05,0.437743,-0.19757910335877094,-3.952472188983869e-06,3.5415627118506876e-05,0.5558561921692291,-2.1310972918020532e-05,-0.19762804954059232
567,0.5569,0.0111865,899.067,0.0135406,0.00784628,0.0242184,-0.00140288,-0.220443,0.442668,-0.220504,-3.93204e-06,3.54663e-05,-2.13098e-05,0.438384,-0.19783663912989014,-3.932032269560182e-06,3.5466928936633835e-05,0.5568553725471843,-2.1309572947769695e-05,-0.19788556960250858
568,0.5579,0.0111637,899.313,0.0135136,0.00787682,0.0241925,-0.00138041,-0.220764,0.44331,-0.220825,-3.91154e-06,3.55176e-05,-2.13083e-05,0.439025,-0.19809409224529373,-3.911532349909486e-06,3.551823075742533e-05,0.5578551946048991,-2.1308072979842052e-05,-0.1981430070137511
569,0.5589,0.0111409,899.559,0.0134867,0.00790732,0.0241667,-0.00135799,-0.221085,0.443952,-0.221146,-3.89098e-06,3.55688e-05,-2.13067e-05,0.439666,-0.19835146273150994,-3.890972430142803e-06,3.556943257732037e-05,0.5588556587544646,-2.1306473013904537e-05,-0.19840036180084653
570,0.5599,0.0111182,899.804,0.0134598,0.00793775,0.0241409,-0.00133561,-0.221405,0.444593,-0.221466,-3.87036e-06,3.56198e-05,-2.13051e-05,0.440306,-0.1986079492234084,-3.870352510149111e-06,3.562043439253593e-05,0.5598552055522503,-2.130487304796702e-05,-0.1986568326475462
571,0.5609,0.0110955,900.049,0.0134331,0.00796813,0.0241152,-0.00131329,-0.221725,0.445234,-0.221786,-3.84969e-06,3.56708e-05,-2.13035e-05,0.440946,-0.19886435365276034,-3.8496825899292375e-06,3.567143621063806e-05,0.5608553932649247,-2.1303273082029506e-05,-0.19891322143670487
572,0.5619,0.0110729,900.293,0.0134064,0.00799846,0.0240895,-0.00129101,-0.222045,0.445875,-0.222106,-3.82895e-06,3.57217e-05,-2.13017e-05,0.441585,-0.19912067604582118,-3.82894266959255e-06,3.57223380276217e-05,0.561856222303446,-2.1301473120405312e-05,-0.19916952819457678
573,0.5629,0.0110504,900.537,0.0133797,0.00802873,0.0240639,-0.00126878,-0.222365,0.446515,-0.222426,-3.80816e-06,3.57725e-05,-2.12999e-05,0.442224,-0.1993769164288387,-3.8081527489186584e-06,3.5773139843486845e-05,0.562856130222124,-2.129967315878112e-05,-0.1994257529474076
574,0.5639,0.0110279,900.78,0.0133532,0.00805895,0.0240383,-0.0012466,-0.222684,0.447154,-0.222746,-3.7873e-06,3.58231e-05,-2.12981e-05,0.442863,-0.1996322744607264,-3.787292828238975e-06,3.582374165489455e-05,0.5638551144307984,-2.1297873197045902e-05,-0.1996818957214348
575,0.5649,0.0110055,901.023,0.0133267,0.00808911,0.0240128,-0.00122447,-0.223004,0.447793,-0.223065,-3.76639e-06,3.58737e-05,-2.12962e-05,0.443501,-0.19988835115844206,-3.7663829071110655e-06,3.5874343468966785e-05,0.5648547371943786,-2.129597323752286e-05,-0.19993715648044397
576,0.5659,0.0109831,901.266,0.0133003,0.00811922,0.0239874,-0.00120239,-0.223323,0.448432,-0.223385,-3.74542e-06,3.59242e-05,-2.12942e-05,0.444138,-0.20014354606867035,-3.7454129859781915e-06,3.592484528169848e-05,0.565854998921032,-2.1293973280100964e-05,-0.20019313563152175
577,0.5669,0.0109609,901.508,0.0132739,0.00814928,0.023962,-0.00118035,-0.223642,0.449071,-0.223704,-3.7244e-06,3.59745e-05,-2.12922e-05,0.444776,-0.20039865958470526,-3.7243930643970913e-06,3.597514709019478e-05,0.566855900019186,-2.129197332267907e-05,-0.20044823333100892
578,0.5679,0.0109386,901.749,0.0132477,0.00817928,0.0239367,-0.00115837,-0.223961,0.449709,-0.224022,-3.70331e-06,3.60248e-05,-2.12901e-05,0.445412,-0.20065369173250747,-3.7033031428101992e-06,3.602544890091153e-05,0.5678558730408727,-2.1289873367469347e-05,-0.20070245037015821
579,0.5689,0.0109165,901.99,0.0132214,0.00820923,0.0239114,-0.00113643,-0.224279,0.450346,-0.224341,-3.68217e-06,3.6075e-05,-2.1288e-05,0.446049,-0.20090784344627222,-3.682163220775081e-06,3.607565071073182e-05,0.5688549153932072,-2.1287773412148603e-05,-0.20095738562415522
580,0.5699,0.0108944,902.231,0.0131953,0.00823912,0.0238862,-0.00111454,-0.224597,0.450984,-0.224659,-3.66097e-06,3.61251e-05,-2.12858e-05,0.446685,-0.2011619143526412,-3.660963298623976e-06,3.6125752519211574e-05,0.5698561641936326,-2.1285573458929008e-05,-0.2012114407786162
581,0.5709,0.0108723,902.471,0.0131693,0.00826897,0.023861,-0.0010927,-0.224916,0.45162,-0.224978,-3.63972e-06,3.61751e-05,-2.12836e-05,0.447321,-0.20141670306100312,-3.6397133762466893e-06,3.617575432679487e-05,0.57085491028165,-2.1283373505820435e-05,-0.20146621369056794
582,0.5719,0.0108503,902.711,0.0131433,0.00829876,0.0238359,-0.00107091,-0.225234,0.452257,-0.225296,-3.6184e-06,3.62249e-05,-2.12813e-05,0.447956,-0.20167061217574067,-3.6183934536415663e-06,3.622555612969869e-05,0.5718558636292945,-2.128107355470199e-05,-0.20172010706342847
583,0.5729,0.0108284,902.951,0.0131173,0.00832849,0.0238108,-0.00104916,-0.225551,0.452893,-0.225613,-3.59703e-06,3.62747e-05,-2.1279e-05,0.448591,-0.2019236424842582,-3.5970235306992393e-06,3.627535793482295e-05,0.5728558819306739,-2.1278773603694567e-05,-0.20197312168455317
584,0.5739,0.0108066,903.19,0.0130915,0.00835818,0.0237858,-0.00102747,-0.225869,0.453528,-0.225931,-3.57561e-06,3.63244e-05,-2.12765e-05,0.449225,-0.2021773904178884,-3.5756036075307307e-06,3.632505973905076e-05,0.573854962590238,-2.1276273656889444e-05,-0.20222685388629913
585,0.5749,0.0107848,903.429,0.0130657,0.00838781,0.0237608,-0.00100582,-0.226186,0.454164,-0.226248,-3.55413e-06,3.6374e-05,-2.12741e-05,0.449859,-0.20243026010316334,-3.554123684135213e-06,3.6374661541938025e-05,0.5748562527229562,-2.127387370798317e-05,-0.2024797078941396
586,0.5759,0.010763,903.667,0.01304,0.00841739,0.0237359,-0.000984221,-0.226503,0.454798,-0.226566,-3.53259e-06,3.64235e-05,-2.12716e-05,0.450493,-0.2026830496414519,-3.532583760401664e-06,3.6424163343706795e-05,0.5758550281655426,-2.1271373761067025e-05,-0.20273327902708227
587,0.5769,0.0107413,903.905,0.0130143,0.00844692,0.0237111,-0.000962671,-0.22682,0.455433,-0.226883,-3.511e-06,3.64729e-05,-2.1269e-05,0.451126,-0.20293575905815686,-3.5109938364419335e-06,3.647356514435707e-05,0.5768560138877592,-2.1268773816474074e-05,-0.2029859725235954
588,0.5779,0.0107197,904.142,0.0129888,0.0084764,0.0236863,-0.00094117,-0.227137,0.456067,-0.227199,-3.48935e-06,3.65222e-05,-2.12664e-05,0.451759,-0.2031883883786726,-3.489343912255194e-06,3.65228669436668e-05,0.5778560575809171,-2.12661738717701e-05,-0.20323778916715285
589,0.5789,0.0106982,904.379,0.0129633,0.00850583,0.0236615,-0.000919718,-0.227453,0.4567,-0.227516,-3.46765e-06,3.65715e-05,-2.12637e-05,0.452392,-0.20344014106892494,-3.4676439877312504e-06,3.657216874541902e-05,0.5788551566468594,-2.1263473929167276e-05,-0.20349032275929768
590,0.5799,0.0106766,904.615,0.0129378,0.0085352,0.0236368,-0.000898314,-0.22777,0.457333,-0.227832,-3.44589e-06,3.66206e-05,-2.1261e-05,0.453024,-0.203692610525683,-3.445884062980298e-06,3.662127054226971e-05,0.5798548883427168,-2.1260773986564452e-05,-0.2037419800533592
591,0.5809,0.0106552,904.852,0.0129124,0.00856453,0.0236122,-0.000876959,-0.228086,0.457966,-0.228149,-3.42407e-06,3.66696e-05,-2.12582e-05,0.453655,-0.20394420390690904,-3.424064137891314e-06,3.667027233800191e-05,0.5808552530690707,-2.1257974046062778e-05,-0.20399435384232334
592,0.5819,0.0106338,905.087,0.0128871,0.0085938,0.0235876,-0.000855653,-0.228402,0.458599,-0.228465,-3.4022e-06,3.67185e-05,-2.12553e-05,0.454286,-0.20419571779718682,-3.4021942125761484e-06,3.671917413239356e-05,0.5818562512267562,-2.1255074107662253e-05,-0.20424585188772515
593,0.5829,0.0106125,905.323,0.0128619,0.00862302,0.023563,-0.000834396,-0.228717,0.45923,-0.22878,-3.38028e-06,3.67674e-05,-2.12524e-05,0.454917,-0.20444635666838606,-3.3802742868127567e-06,3.6768075929227706e-05,0.5828547175042618,-2.125217416937275e-05,-0.2044964749691729
594,0.5839,0.0105912,905.557,0.0128367,0.0086522,0.0235386,-0.000813188,-0.229033,0.459862,-0.229096,-3.3583e-06,3.68161e-05,-2.12495e-05,0.455548,-0.2046977119034601,-3.358294360933378e-06,3.6816777720938276e-05,0.5838553978674113,-2.1249274230972226e-05,-0.20474781436936595
595,0.5849,0.01057,905.792,0.0128116,0.00868132,0.0235141,-0.000792028,-0.229348,0.460493,-0.229411,-3.33627e-06,3.68648e-05,-2.12465e-05,0.456178,-0.2049481926714184,-3.3362644346057735e-06,3.686547951509134e-05,0.5848551260045216,-2.124627429467285e-05,-0.2049982793575329
596,0.5859,0.0105489,906.026,0.0127866,0.00871039,0.0234897,-0.000770917,-0.229663,0.461124,-0.229727,-3.31419e-06,3.69133e-05,-2.12434e-05,0.456808,-0.20519859455036038,-3.314184508051987e-06,3.691398130434287e-05,0.5858554851691551,-2.1243174360585648e-05,-0.2052494602125906
597,0.5869,0.0105278,906.26,0.0127616,0.00873941,0.0234654,-0.000749855,-0.229978,0.461754,-0.230042,-3.29204e-06,3.69618e-05,-2.12403e-05,0.457437,-0.2054489175651324,-3.2920345812703644e-06,3.6962483095814846e-05,0.5868548889039327,-2.1240074426387423e-05,-0.2054997672072023
598,0.5879,0.0105067,906.493,0.0127367,0.00876838,0.0234411,-0.000728842,-0.230293,0.462384,-0.230356,-3.26985e-06,3.70102e-05,-2.12372e-05,0.458066,-0.20569916174057257,-3.269844654041343e-06,3.701088488594628e-05,0.5878549224614369,-2.123697449230022e-05,-0.2057492011171259
599,0.5889,0.0104857,906.726,0.0127119,0.00879731,0.0234169,-0.000707878,-0.230608,0.463014,-0.230671,-3.2476e-06,3.70584e-05,-2.1234e-05,0.458694,-0.20594932710151137,-3.2475947265853122e-06,3.7059086670954144e-05,0.5888555862385803,-2.1233774560203145e-05,-0.20599935071814346
600,0.5899,0.0104648,906.958,0.0126871,0.00882618,0.0233927,-0.000686963,-0.230922,0.463643,-0.230985,-3.2253e-06,3.71066e-05,-2.12307e-05,0.459322,-0.20619861987178822,-3.2252947986810554e-06,3.71072884584045e-05,0.5898552907764412,-2.123047463031824e-05,-0.20624862778347053
601,0.5909,0.0104439,907.19,0.0126624,0.008855,0.0233686,-0.000666097,-0.231236,0.464272,-0.2313,-3.20295e-06,3.71547e-05,-2.12274e-05,0.45995,-0.20644783437642367,-3.202944870550617e-06,3.715539024451431e-05,0.5908556243262599,-2.1227174700322315e-05,-0.20649862008986342
602,0.5919,0.0104231,907.422,0.0126378,0.00888378,0.0233445,-0.000645279,-0.23155,0.4649,-0.231614,-3.18054e-06,3.72027e-05,-2.1224e-05,0.460577,-0.20669697063998915,-3.180534942082147e-06,3.720339202906153e-05,0.5918549954280181,-2.1223774772538562e-05,-0.20674774040921817
603,0.5929,0.0104024,907.653,0.0126132,0.00891251,0.0233205,-0.000624511,-0.231864,0.465528,-0.231927,-3.15809e-06,3.72506e-05,-2.12206e-05,0.461204,-0.20694602868704837,-3.158085013277301e-06,3.7251293812268216e-05,0.5928549943319374,-2.1220374844643786e-05,-0.20699598951345854
604,0.5939,0.0103817,907.884,0.0125887,0.00894118,0.0232965,-0.000603792,-0.232177,0.466156,-0.232241,-3.13557e-06,3.72985e-05,-2.12171e-05,0.461831,-0.20719421573676988,-3.135565084133596e-06,3.7299195597695345e-05,0.5938556214324016,-2.121687491896118e-05,-0.20724495368333107
605,0.5949,0.010361,908.114,0.0125642,0.00896981,0.0232726,-0.000583122,-0.232491,0.466783,-0.232555,-3.11301e-06,3.73462e-05,-2.12136e-05,0.462457,-0.20744311767337942,-3.113005154542492e-06,3.73468973779989e-05,0.5948552822679618,-2.1213374993167555e-05,-0.20749383969072643
606,0.5959,0.0103404,908.344,0.0125398,0.00899839,0.0232487,-0.000562501,-0.232804,0.46741,-0.232868,-3.09039e-06,3.73938e-05,-2.121e-05,0.463083,-0.2076911491585952,-3.090385224724379e-06,3.7394499156961913e-05,0.5958555700874051,-2.12097750695861e-05,-0.20774185530243516
607,0.5969,0.0103199,908.574,0.0125155,0.00902693,0.0232249,-0.000541929,-0.233117,0.468036,-0.233181,-3.06772e-06,3.74414e-05,-2.12064e-05,0.463708,-0.2079391030221046,-3.0677152945690622e-06,3.744210093792333e-05,0.5968548884282865,-2.1206175145893624e-05,-0.20798979329740508
608,0.5979,0.0102994,908.803,0.0124913,0.00905541,0.0232011,-0.000521406,-0.233429,0.468662,-0.233494,-3.045e-06,3.74888e-05,-2.12027e-05,0.464333,-0.2081861874747828,-3.044995363965519e-06,3.748950271376117e-05,0.5978548325382946,-2.1202475224302297e-05,-0.20823765369992653
609,0.5989,0.010279,909.032,0.0124671,0.00908385,0.0231773,-0.000500933,-0.233742,0.469288,-0.233806,-3.02223e-06,3.75362e-05,-2.1199e-05,0.464957,-0.2084339864155459,-3.022225433024772e-06,3.75369044920415e-05,0.5988554028092834,-2.1198775302821993e-05,-0.20848464501932273
610,0.5999,0.0102587,909.261,0.0124429,0.00911224,0.0231537,-0.000480508,-0.234054,0.469913,-0.234119,-2.99941e-06,3.75835e-05,-2.11953e-05,0.465582,-0.2086809164886898,-2.9994055017468213e-06,3.75842062685372e-05,0.5998549997775529,-2.1195075381230666e-05,-0.20873235055749262
611,0.6009,0.0102383,909.489,0.0124189,0.00914058,0.02313,-0.000460133,-0.234367,0.470538,-0.234431,-2.97653e-06,3.76307e-05,-2.11914e-05,0.466205,-0.20892856060350307,-2.976525570130839e-06,3.763140804369236e-05,0.6008552216892018,-2.1191175463841638e-05,-0.20897918755554468
612,0.6019,0.0102181,909.717,0.0123949,0.00916888,0.0231065,-0.000439808,-0.234679,0.471163,-0.234743,-2.95361e-06,3.76778e-05,-2.11876e-05,0.466829,-0.20917533639356967,-2.953605638067458e-06,3.767850981728493e-05,0.6018560689349421,-2.118737554435146e-05,-0.20922594755246615
613,0.6029,0.0101979,909.944,0.0123709,0.00919713,0.0230829,-0.000419531,-0.23499,0.471787,-0.235055,-2.93063e-06,3.77248e-05,-2.11836e-05,0.467452,-0.20942124462323952,-2.9306257056660456e-06,3.772551158931492e-05,0.6028559390489894,-2.1183375629174606e-05,-0.2094726305722775
614,0.6039,0.0101777,910.171,0.0123471,0.00922533,0.0230594,-0.000399304,-0.235302,0.47241,-0.235367,-2.9076e-06,3.77717e-05,-2.11797e-05,0.468074,-0.20966786671986937,-2.9075957729274293e-06,3.7772413359560275e-05,0.6038548294210597,-2.1179475711785578e-05,-0.20971923663899206
615,0.6049,0.0101576,910.397,0.0123233,0.00925348,0.023036,-0.000379126,-0.235613,0.473034,-0.235678,-2.88452e-06,3.78186e-05,-2.11756e-05,0.468697,-0.20991362179642425,-2.8845158397405868e-06,3.781931513224812e-05,0.6048559471508659,-2.117537579859885e-05,-0.20996497574198625
616,0.6059,0.0101376,910.624,0.0122995,0.00928159,0.0230126,-0.000358997,-0.235925,0.473657,-0.235989,-2.86139e-06,3.78653e-05,-2.11716e-05,0.469318,-0.21016009029533855,-2.8613859062165403e-06,3.786601689959035e-05,0.6058560839161946,-2.1171375883310972e-05,-0.21021063843200205
617,0.6069,0.0101176,910.849,0.0122758,0.00930965,0.0229893,-0.000338918,-0.236236,0.474279,-0.2363,-2.83821e-06,3.7912e-05,-2.11674e-05,0.46994,-0.21040569231416328,-2.8382059722442676e-06,3.791271866893098e-05,0.6068552371048193,-2.116717597211437e-05,-0.21045622473280057
618,0.6079,0.0100977,911.075,0.0122522,0.00933767,0.022966,-0.000318888,-0.236546,0.474901,-0.236611,-2.81498e-06,3.79586e-05,-2.11633e-05,0.470561,-0.2106504286134595,-2.814976037934791e-06,3.795932043670902e-05,0.6078550119600452,-2.1163076058927643e-05,-0.2107017346681348
619,0.6089,0.0100778,911.3,0.0122286,0.00936564,0.0229427,-0.000298908,-0.236857,0.475523,-0.236922,-2.7917e-06,3.8005e-05,-2.11591e-05,0.471182,-0.21089587816077782,-2.791696103177088e-06,3.8005722199141445e-05,0.6088554088686697,-2.1158876147842065e-05,-0.21094716826175097
620,0.6099,0.010058,911.525,0.0122051,0.00939356,0.0229195,-0.000278977,-0.237167,0.476144,-0.237233,-2.76838e-06,3.80515e-05,-2.11548e-05,0.471802,-0.2111404625260126,-2.768376168083009e-06,3.805222396757735e-05,0.6098548183621073,-2.1154576238746614e-05,-0.21119252553738765
621,0.6109,0.0100382,911.749,0.0121817,0.00942144,0.0228964,-0.000259095,-0.237478,0.476765,-0.237543,-2.745e-06,3.80978e-05,-2.11505e-05,0.472422,-0.21138575969647988,-2.744996232539876e-06,3.809852573044559e-05,0.6108548486815866,-2.1150276329762185e-05,-0.2114370179561882
622,0.6119,0.0100185,911.973,0.0121583,0.00944928,0.0228733,-0.000239263,-0.237788,0.477386,-0.237853,-2.72157e-06,3.8144e-05,-2.11461e-05,0.473041,-0.2116301922219751,-2.7215662965485166e-06,3.8144727491529196e-05,0.6118555002127606,-2.1145876422767884e-05,-0.2116814345940855
623,0.6129,0.00999881,912.196,0.012135,0.00947706,0.0228502,-0.000219481,-0.238098,0.478006,-0.238163,-2.69809e-06,3.81901e-05,-2.11417e-05,0.473661,-0.21187454898513103,-2.698086360108931e-06,3.819082925105022e-05,0.6128551604855546,-2.1141476515884605e-05,-0.21192577547456815
624,0.6139,0.00997919,912.419,0.0121117,0.00950481,0.0228272,-0.000199748,-0.238407,0.478626,-0.238473,-2.67456e-06,3.82362e-05,-2.11372e-05,0.474279,-0.21211804212786667,-2.6745564233321417e-06,3.8236931012791686e-05,0.6138554407398922,-2.1136976610991454e-05,-0.2121700406211171
625,0.6149,0.00995963,912.642,0.0120885,0.00953251,0.0228042,-0.000180065,-0.238717,0.479245,-0.238782,-2.65099e-06,3.82822e-05,-2.11327e-05,0.474898,-0.21236224768099066,-2.6509864861079535e-06,3.8282932772748524e-05,0.614854726504747,-2.1132476706098302e-05,-0.21241344247104266
626,0.6159,0.00994011,912.865,0.0120654,0.00956016,0.0227813,-0.000160431,-0.239026,0.479865,-0.239092,-2.62736e-06,3.83281e-05,-2.11282e-05,0.475516,-0.21260559014810987,-2.627356548545734e-06,3.832883453092073e-05,0.6158562468744126,-2.112797680120515e-05,-0.21265755646425277
627,0.6169,0.00992065,913.087,0.0120423,0.00958777,0.0227585,-0.000140847,-0.239335,0.480483,-0.239401,-2.60369e-06,3.83739e-05,-2.11236e-05,0.476133,-0.21284885743402282,-2.6036866104250933e-06,3.837463628753035e-05,0.6168551546656964,-2.1123376898302126e-05,-0.2129008076950547
628,0.6179,0.00990125,913.308,0.0120193,0.00961533,0.0227356,-0.000121313,-0.239644,0.481102,-0.23971,-2.57996e-06,3.84196e-05,-2.11189e-05,0.476751,-0.21309204956195693,-2.579956671855399e-06,3.842033804235534e-05,0.6178562978282767,-2.1118676997611274e-05,-0.21314398377283794
629,0.6189,0.00988189,913.53,0.0119963,0.00964285,0.0227129,-0.000101828,-0.239953,0.481719,-0.240018,-2.55619e-06,3.84652e-05,-2.11142e-05,0.477368,-0.2133351665551324,-2.556186732949328e-06,3.84659397953957e-05,0.6188548231774296,-2.11139770968094e-05,-0.21338629810751286
630,0.6199,0.00986258,913.751,0.0119734,0.00967033,0.0226901,-8.23931e-05,-0.240261,0.482337,-0.240327,-2.53237e-06,3.85107e-05,-2.11095e-05,0.477984,-0.21357742201457752,-2.532366793595031e-06,3.851144154642938e-05,0.6198555846616007,-2.1109277196118548e-05,-0.21362932419193392
631,0.6209,0.00984333,913.971,0.0119506,0.00969776,0.0226675,-6.30079e-05,-0.240569,0.482954,-0.240635,-2.50851e-06,3.85562e-05,-2.11047e-05,0.4786,-0.21381960287083068,-2.508506853682313e-06,3.8556943299905555e-05,0.6208553439513613,-2.1104477297417823e-05,-0.21387148906477793
632,0.6219,0.00982412,914.191,0.0119278,0.00972515,0.0226448,-4.36725e-05,-0.240878,0.483571,-0.240944,-2.48459e-06,3.86016e-05,-2.10999e-05,0.479216,-0.21406249508476394,-2.4845869134315635e-06,3.860234505137505e-05,0.6218557202829416,-2.1099677398717098e-05,-0.21411436524835403
633,0.6229,0.00980497,914.411,0.0119051,0.00975249,0.0226222,-2.43869e-05,-0.241186,0.484187,-0.241252,-2.46063e-06,3.86469e-05,-2.1095e-05,0.479831,-0.214304526561517,-2.460626972622393e-06,3.864764680105992e-05,0.6228550911812709,-2.10947775020065e-05,-0.21435638075155683
634,0.6239,0.00978587,914.631,0.0118824,0.0097798,0.0225997,-5.15112e-06,-0.241493,0.484803,-0.241559,-2.43662e-06,3.86921e-05,-2.10901e-05,0.480446,-0.214545698050145,-2.4366170314760183e-06,3.869284854896016e-05,0.6238550778817216,-2.1089877605406926e-05,-0.21459753632339185
635,0.6249,0.00976682,914.85,0.0118598,0.00980705,0.0225772,1.40348e-05,-0.241801,0.485419,-0.241867,-2.41256e-06,3.87372e-05,-2.10851e-05,0.481061,-0.21478758072330162,-2.412557089770395e-06,3.873795029507576e-05,0.624855680763744,-2.1084877710797478e-05,-0.2148394030328189
636,0.6259,0.00974781,915.069,0.0118373,0.00983427,0.0225547,3.31706e-05,-0.242108,0.486034,-0.242175,-2.38846e-06,3.87823e-05,-2.10801e-05,0.481675,-0.21502860393706325,-2.3884571476173733e-06,3.878305204318977e-05,0.6258552743509358,-2.1079877816299053e-05,-0.21508119525877056
637,0.6269,0.00972881,915.287,0.0118148,0.00986145,0.0225323,5.22652e-05,-0.242415,0.486649,-0.242482,-2.3643e-06,3.88272e-05,-2.1075e-05,0.482289,-0.21526955316805518,-2.3642972050152977e-06,3.882795378551407e-05,0.6268554828772581,-2.1074777923790755e-05,-0.21532212834670483
638,0.6279,0.00970989,915.505,0.0117923,0.00988855,0.02251,7.12903e-05,-0.242722,0.487264,-0.242789,-2.34011e-06,3.88721e-05,-2.10699e-05,0.482902,-0.2155104284389867,-2.3401072619666508e-06,3.887285552983677e-05,0.6278563067210148,-2.1069678031171435e-05,-0.21556298747953373
639,0.6289,0.0096911,915.723,0.01177,0.00991566,0.0224876,9.02811e-05,-0.243029,0.487878,-0.243096,-2.31586e-06,3.89169e-05,-2.10648e-05,0.483515,-0.2157512297725599,-2.315857318357928e-06,3.891765727237484e-05,0.6288561174038108,-2.1064578138663137e-05,-0.2158037726799581
640,0.6299,0.0096723,915.94,0.0117477,0.0099427,0.0224654,0.000109208,-0.243336,0.488491,-0.243403,-2.29157e-06,3.89616e-05,-2.10596e-05,0.484128,-0.21599195719147024,-2.291567374301806e-06,3.8962359012906234e-05,0.6298549123031396,-2.1059378248144967e-05,-0.21604448397067166
641,0.6309,0.00965356,916.157,0.0117254,0.0099697,0.0224431,0.000128099,-0.243642,0.489105,-0.243709,-2.26723e-06,3.90063e-05,-2.10543e-05,0.48474,-0.21623182695062482,-2.267227429797458e-06,3.9007060755658074e-05,0.6308559505065734,-2.1054078359727946e-05,-0.21628433765909072
642,0.6319,0.00963485,916.374,0.0117032,0.00999666,0.0224209,0.000146933,-0.243949,0.489718,-0.244015,-2.24284e-06,3.90508e-05,-2.1049e-05,0.485352,-0.21647240684884705,-2.242837484844884e-06,3.905156249239816e-05,0.6318559716794085,-2.1048778471310925e-05,-0.21652411796350945
643,0.6329,0.0096162,916.59,0.0116811,0.0100236,0.0223988,0.000165721,-0.244255,0.49033,-0.244321,-2.21841e-06,3.90953e-05,-2.10437e-05,0.485964,-0.21671212961289787,-2.2184075393338887e-06,3.909606423113665e-05,0.6328549731973601,-2.1043478582893904e-05,-0.21676382490638002
644,0.6339,0.00959759,916.806,0.011659,0.0100505,0.0223767,0.000184456,-0.24456,0.490943,-0.244627,-2.19393e-06,3.91397e-05,-2.10383e-05,0.486575,-0.2169509959843926,-2.193927593374667e-06,3.914046596809051e-05,0.6338562201467668,-2.103807869646701e-05,-0.21700345851014735
645,0.6349,0.00957904,917.022,0.011637,0.0100773,0.0223546,0.000203142,-0.244866,0.491554,-0.244933,-2.16941e-06,3.9184e-05,-2.10329e-05,0.487186,-0.21719057232257222,-2.1694076468570245e-06,3.918476770303769e-05,0.6348548113358186,-2.103267881015114e-05,-0.21724301879725005
646,0.6359,0.00956053,917.237,0.011615,0.0101041,0.0223326,0.000221777,-0.245172,0.492166,-0.245239,-2.14484e-06,3.92282e-05,-2.10275e-05,0.487797,-0.21743007536160763,-2.1448376997801333e-06,3.92289694359782e-05,0.635855648705353,-2.1027278923724246e-05,-0.21748250579011952
647,0.6369,0.00954207,917.452,0.0115931,0.0101308,0.0223107,0.000240363,-0.245477,0.492777,-0.245544,-2.12022e-06,3.92724e-05,-2.1022e-05,0.488407,-0.21766872279303906,-2.120217752366038e-06,3.9273171170695065e-05,0.6368554619185443,-2.102177903928748e-05,-0.21772113723270858
648,0.6379,0.00952365,917.666,0.0115712,0.0101576,0.0222887,0.000258897,-0.245782,0.493388,-0.245849,-2.09556e-06,3.93164e-05,-2.10164e-05,0.489016,-0.2179072974481029,-2.0955578042824996e-06,3.9317172899844266e-05,0.6378558862042725,-2.1016179157062886e-05,-0.21795969590380593
649,0.6389,0.00950529,917.88,0.0115494,0.0101842,0.0222669,0.000277382,-0.246087,0.493998,-0.246154,-2.07086e-06,3.93604e-05,-2.10108e-05,0.489626,-0.21814579934899236,-2.0708578557515622e-06,3.9361174630769824e-05,0.6388552830799146,-2.101057927472727e-05,-0.21819818182560347
650,0.6399,0.00948698,918.094,0.0115277,0.0102109,0.022245,0.000295817,-0.246392,0.494608,-0.246459,-2.04611e-06,3.94043e-05,-2.10052e-05,0.490235,-0.2183842285178944,-2.0461079067723986e-06,3.9405076359688707e-05,0.6398552897736263,-2.100497939228063e-05,-0.21843659502028623
651,0.6409,0.00946871,918.308,0.011506,0.0102374,0.0222232,0.000314201,-0.246696,0.495218,-0.246764,-2.02131e-06,3.94482e-05,-2.09995e-05,0.490843,-0.21862180359918293,-2.021307957122964e-06,3.9448978090383946e-05,0.6408559066575104,-2.0999279512046165e-05,-0.2186749355100328
652,0.6419,0.00945049,918.521,0.0114843,0.010264,0.0222015,0.000332534,-0.247001,0.495827,-0.247068,-1.99647e-06,3.94919e-05,-2.09938e-05,0.491452,-0.2188600876089265,-1.996468007026131e-06,3.949267981528948e-05,0.6418554922475832,-2.0993579631700676e-05,-0.21891242222982732
653,0.6429,0.00943232,918.734,0.0114627,0.0102905,0.0221798,0.000350818,-0.247305,0.496436,-0.247373,-1.97158e-06,3.95356e-05,-2.0988e-05,0.492059,-0.2190975180510376,-1.9715780564810714e-06,3.953638154219341e-05,0.6428556867706814,-2.0987779753456337e-05,-0.21915061761440457
654,0.6439,0.00941419,918.946,0.0114412,0.010317,0.0221581,0.000369051,-0.247609,0.497044,-0.247677,-1.94665e-06,3.95792e-05,-2.09822e-05,0.492667,-0.2193348763252645,-1.9466481052665685e-06,3.9579983266868624e-05,0.6438548467420897,-2.0981979875211998e-05,-0.21938795974881753
655,0.6449,0.00939611,919.158,0.0114197,0.0103434,0.0221365,0.000387233,-0.247913,0.497653,-0.247981,-1.92168e-06,3.96227e-05,-2.09764e-05,0.493274,-0.21957216245354272,-1.9216781536046668e-06,3.962348498953716e-05,0.6448562592429119,-2.0976179996856636e-05,-0.21962522974218757
656,0.6459,0.00937808,919.37,0.0113983,0.0103698,0.0221149,0.000405365,-0.248216,0.49826,-0.248284,-1.89666e-06,3.96661e-05,-2.09705e-05,0.493881,-0.21980859626678761,-1.8966582013835165e-06,3.966688671019902e-05,0.645854990076415,-2.0970280120602425e-05,-0.21986164747847992
657,0.6469,0.0093601,919.582,0.011377,0.0103961,0.0220934,0.000423447,-0.24852,0.498868,-0.248588,-1.87159e-06,3.97095e-05,-2.09645e-05,0.494487,-0.2200457384060911,-1.8715882486031177e-06,3.971028843263724e-05,0.646855974178713,-2.0964280246449363e-05,-0.22009877349266604
658,0.6479,0.00934216,919.793,0.0113556,0.0104224,0.0220719,0.000441478,-0.248823,0.499475,-0.248891,-1.84649e-06,3.97527e-05,-2.09586e-05,0.495093,-0.22028202874755953,-1.8464882952651251e-06,3.975349014906371e-05,0.6478559192076534,-2.095838037008413e-05,-0.22033504776693758
659,0.6489,0.00932427,920.004,0.0113344,0.0104487,0.0220504,0.000459458,-0.249126,0.500081,-0.249194,-1.82133e-06,3.97959e-05,-2.09526e-05,0.495699,-0.22051824750390014,-1.8213283413670567e-06,3.979669186726653e-05,0.6488548225318309,-2.0952380495820044e-05,-0.22057125046094894
660,0.6499,0.00930642,920.214,0.0113132,0.010475,0.022029,0.000477388,-0.249429,0.500688,-0.249497,-1.79614e-06,3.98391e-05,-2.09465e-05,0.496304,-0.22075439469680003,-1.7961383869113945e-06,3.9839893587467756e-05,0.6498559812300331,-2.0946280623546087e-05,-0.2208073815963857
661,0.6509,0.00928863,920.424,0.011292,0.0105011,0.0220077,0.000495267,-0.249732,0.501294,-0.2498,-1.7709e-06,3.98821e-05,-2.09404e-05,0.496909,-0.22099047034793962,-1.770898432007506e-06,3.9882895301435184e-05,0.650856096959118,-2.0940180751383153e-05,-0.2210434411949267
662,0.6519,0.00927087,920.634,0.0112709,0.0105273,0.0219863,0.000513095,-0.250034,0.501899,-0.250103,-1.74562e-06,3.99251e-05,-2.09343e-05,0.497514,-0.22122569570507777,-1.7456184764341742e-06,3.992589701740101e-05,0.6518551670860178,-2.0934080879109196e-05,-0.22127942927824462
663,0.6529,0.00925317,920.843,0.0112499,0.0105534,0.0219651,0.000530873,-0.250337,0.502504,-0.250405,-1.72029e-06,3.9968e-05,-2.09281e-05,0.498118,-0.2214616285736445,-1.7202885203015938e-06,3.996879873113812e-05,0.6528548418332236,-2.0927881008825366e-05,-0.2215145673829616
664,0.6539,0.00923551,921.052,0.0112289,0.0105795,0.0219438,0.0005486,-0.250639,0.503109,-0.250707,-1.69492e-06,4.00108e-05,-2.09219e-05,0.498722,-0.22169671166248217,-1.6949185636105923e-06,4.001160044264651e-05,0.6538551215666415,-2.0921681138541537e-05,-0.22174963448669271
665,0.6549,0.00921789,921.261,0.011208,0.0106055,0.0219226,0.000566276,-0.250941,0.503714,-0.25101,-1.66951e-06,4.00535e-05,-2.09156e-05,0.499325,-0.22193172376694614,-1.6695086063611697e-06,4.0054302152148225e-05,0.6548560066523987,-2.0915381270358857e-05,-0.22198540862585725
666,0.6559,0.00920032,921.47,0.0111871,0.0106315,0.0219015,0.000583902,-0.251243,0.504318,-0.251311,-1.64405e-06,4.00962e-05,-2.09093e-05,0.499928,-0.22216666490847048,-1.6440486485524985e-06,4.0097003863426295e-05,0.6558558416001747,-2.0909081402065155e-05,-0.22221955577694685
667,0.6569,0.0091828,921.678,0.0111662,0.0106575,0.0218804,0.000601477,-0.251544,0.504921,-0.251613,-1.61856e-06,4.01388e-05,-2.0903e-05,0.500531,-0.22240075750962918,-1.6185586901862337e-06,4.0139605572475645e-05,0.6568546237752215,-2.0902781533771453e-05,-0.2224544100063286
668,0.6579,0.00916532,921.886,0.0111455,0.0106834,0.0218593,0.000619001,-0.251846,0.505525,-0.251915,-1.59302e-06,4.01813e-05,-2.08966e-05,0.501134,-0.22263555702435,-1.593018731149698e-06,4.0182107279296275e-05,0.6578556662523769,-2.08963816675789e-05,-0.2226891933204418
669,0.6589,0.00914788,922.093,0.0111247,0.0107093,0.0218382,0.000636474,-0.252147,0.506128,-0.252216,-1.56743e-06,4.02237e-05,-2.08902e-05,0.501736,-0.2228695085102207,-1.5674287715539137e-06,4.0224508983888185e-05,0.6588556546853392,-2.0889981801275326e-05,-0.22292312866421693
670,0.6599,0.00913049,922.3,0.0111041,0.0107352,0.0218172,0.000653896,-0.252448,0.506731,-0.252517,-1.54181e-06,4.02661e-05,-2.08837e-05,0.502337,-0.22310338958729115,-1.5418088114005357e-06,4.026691069025645e-05,0.6598562462931656,-2.08834819370729e-05,-0.22315699360404984
671,0.6609,0.00911877,922.507,0.0110879,0.0107599,0.0217981,0.000672781,-0.252749,0.507333,-0.252818,-1.51616e-06,4.03085e-05,-2.08773e-05,0.502939,-0.2233372002767514,-1.5161588505785417e-06,4.0309312398401076e-05,0.660855780583069,-2.0877082070658304e-05,-0.223390788161129
672,0.6619,0.00909,922.714,0.0110557,0.0107885,0.0217733,0.00068684,-0.25305,0.507935,-0.253119,-1.49041e-06,4.03507e-05,-2.08709e-05,0.50354,-0.22357094059978466,-1.4904088893041845e-06,4.035151410053395e-05,0.661855916773769,-2.0870682204243707e-05,-0.22362451235663638
673,0.6629,0.0090819,922.92,0.0110468,0.0108116,0.0217555,0.000707208,-0.25335,0.508536,-0.25342,-1.46471e-06,4.0393e-05,-2.08644e-05,0.50414,-0.22380383438179074,-1.4647089273678304e-06,4.039381580822621e-05,0.6628549923718949,-2.086418233993026e-05,-0.2238581662117478
674,0.6639,0.00905897,923.126,0.0110183,0.0108394,0.0217329,0.000722523,-0.253651,0.509138,-0.25372,-1.43889e-06,4.04351e-05,-2.08579e-05,0.50474,-0.22403743426909506,-1.4388889647554137e-06,4.043591750968467e-05,0.6638563324504256,-2.085768247550579e-05,-0.22409097383899412
675,0.6649,0.00904586,923.331,0.0110041,0.0108636,0.0217133,0.000741442,-0.253951,0.509738,-0.25402,-1.41308e-06,4.04772e-05,-2.08513e-05,0.50534,-0.22427018812399047,-1.413079001588713e-06,4.047801921291949e-05,0.6648549458039437,-2.085108261318247e-05,-0.22432371163442755
676,0.6659,0.00902594,923.537,0.0109792,0.0108904,0.0216918,0.000757412,-0.254251,0.510339,-0.25432,-1.38719e-06,4.05192e-05,-2.08448e-05,0.50594,-0.2245028721632023,-1.3871890378602814e-06,4.052002091392559e-05,0.6658558243602513,-2.0844582748646978e-05,-0.22455637961899455
677,0.6669,0.00901086,923.742,0.0109623,0.0109152,0.0216716,0.000775512,-0.254551,0.510939,-0.25462,-1.36128e-06,4.05612e-05,-2.08381e-05,0.506539,-0.22473548640767205,-1.3612790734640612e-06,4.0562022616486004e-05,0.6668556377688957,-2.0837882888313786e-05,-0.22478897781363516
678,0.6679,0.00899239,923.946,0.0109395,0.0109414,0.0216505,0.000791922,-0.25485,0.511539,-0.25492,-1.33532e-06,4.0603e-05,-2.08314e-05,0.507138,-0.22496725584597843,-1.3353191085085925e-06,4.0603824313034664e-05,0.6678560512455876,-2.083118302786957e-05,-0.2250215062392833
679,0.6689,0.00897644,924.15,0.0109211,0.0109666,0.0216302,0.000809503,-0.25515,0.512138,-0.255219,-1.30932e-06,4.06448e-05,-2.08247e-05,0.507736,-0.22519973079623845,-1.3093191428836803e-06,4.064562601113764e-05,0.6688553962942454,-2.0824483167425356e-05,-0.22525319017044387
680,0.6699,0.00895873,924.354,0.0108996,0.0109925,0.0216094,0.000826123,-0.255449,0.512737,-0.255519,-1.28328e-06,4.06865e-05,-2.0818e-05,0.508334,-0.22543136144622256,-1.2832791765893248e-06,4.0687327706789844e-05,0.6698553401299059,-2.081778330698114e-05,-0.22548557935327251
681,0.6709,0.00894238,924.558,0.0108805,0.0110178,0.021589,0.000843365,-0.255748,0.513336,-0.255818,-1.2572e-06,4.07282e-05,-2.08112e-05,0.508932,-0.22566292284899525,-1.257199209736548e-06,4.072902940444045e-05,0.6708558831113505,-2.0810983448527054e-05,-0.2257171245473143
682,0.6719,0.00892511,924.761,0.0108597,0.0110434,0.0215683,0.000860056,-0.256047,0.513934,-0.256117,-1.23108e-06,4.07698e-05,-2.08044e-05,0.509529,-0.22589441502525853,-1.231079242214328e-06,4.07706310996403e-05,0.6718553537413847,-2.0804183589961944e-05,-0.22594860051969223
683,0.6729,0.00890859,924.964,0.0108402,0.0110687,0.0215479,0.000877064,-0.256346,0.514532,-0.256416,-1.20492e-06,4.08112e-05,-2.07975e-05,0.510126,-0.22612583799570773,-1.2049192741336867e-06,4.08120327883843e-05,0.672855422233599,-2.0797283733497984e-05,-0.22618000729110055
684,0.6739,0.0088916,925.167,0.0108199,0.0110942,0.0215274,0.000893748,-0.256645,0.51513,-0.256714,-1.17871e-06,4.08527e-05,-2.07906e-05,0.510723,-0.22635719178103253,-1.1787093052717523e-06,4.085353448290974e-05,0.6738560889456213,-2.0790383876923002e-05,-0.2264105712931852
685,0.6749,0.00887502,925.37,0.0108002,0.0111195,0.0215071,0.000910581,-0.256943,0.515727,-0.257013,-1.15247e-06,4.0894e-05,-2.07836e-05,0.511319,-0.22658770299000575,-1.1524693358522242e-06,4.089483617097933e-05,0.6748556793787777,-2.078338402244917e-05,-0.22664183995598053
686,0.6759,0.00885821,925.572,0.0107802,0.0111449,0.0214867,0.000927214,-0.257241,0.516324,-0.257311,-1.12618e-06,4.09353e-05,-2.07767e-05,0.511915,-0.22681814551687285,-1.1261793658734476e-06,4.0936137860825283e-05,0.6758558667455894,-2.0776484165874187e-05,-0.2268722663524353
687,0.6769,0.00884165,925.773,0.0107605,0.0111702,0.0214664,0.000943904,-0.257539,0.51692,-0.257609,-1.09986e-06,4.09765e-05,-2.07697e-05,0.512511,-0.22704851938209814,-1.0998593951150326e-06,4.097733954822047e-05,0.6768549745467196,-2.0769484311289332e-05,-0.2271026240920544
688,0.6779,0.00882498,925.975,0.0107406,0.0111955,0.0214461,0.000960462,-0.257837,0.517516,-0.257907,-1.07349e-06,4.10176e-05,-2.07626e-05,0.513106,-0.22727882460613946,-1.0734894237973691e-06,4.101844123316489e-05,0.6778546779935841,-2.0762384458694605e-05,-0.22733291319529436
689,0.6789,0.00880846,926.176,0.010721,0.0112207,0.0214259,0.000977027,-0.258135,0.518112,-0.258205,-1.04708e-06,4.10587e-05,-2.07555e-05,0.513701,-0.22750906120944914,-1.0470794518102622e-06,4.105954291988567e-05,0.6788549774412935,-2.0755284606099877e-05,-0.22756313368260583
690,0.6799,0.0087919,926.377,0.0107013,0.0112459,0.0214056,0.000993496,-0.258432,0.518708,-0.258503,-1.02064e-06,4.10997e-05,-2.07484e-05,0.514295,-0.227738456951316,-1.0206394791545392e-06,4.1100544604155687e-05,0.67985587324517,-2.0748184753394128e-05,-0.22779328557443335
691,0.6809,0.00877545,926.577,0.0106817,0.0112711,0.0213855,0.00100994,-0.25873,0.519303,-0.2588,-9.9415e-07,4.11406e-05,-2.07412e-05,0.514889,-0.22796855660459336,-9.941495058285454e-07,4.114144628619698e-05,0.6808556849042231,-2.0740984902789528e-05,-0.22802259691419813
692,0.6819,0.00875899,926.778,0.0106621,0.0112962,0.0213653,0.00102632,-0.259027,0.519898,-0.259097,-9.67623e-07,4.11814e-05,-2.0734e-05,0.515483,-0.22819781589659172,-9.676225318777654e-07,4.1182247965565466e-05,0.6818560916282275,-2.0733785052073905e-05,-0.22825184015860778
693,0.6829,0.00874261,926.978,0.0106426,0.0113213,0.0213453,0.00104266,-0.259324,0.520492,-0.259394,-9.41057e-07,4.12222e-05,-2.07268e-05,0.516077,-0.22842700710869068,-9.410565572354201e-07,4.1223049646488263e-05,0.6828554109150997,-2.0726585201358283e-05,-0.22848101532788345
694,0.6839,0.00872624,927.177,0.0106231,0.0113463,0.0213252,0.00105893,-0.25962,0.521086,-0.259691,-9.14451e-07,4.12629e-05,-2.07195e-05,0.51667,-0.22865535891685174,-9.144505819236315e-07,4.126375132518234e-05,0.6838553239739615,-2.0719285352632788e-05,-0.22871012244224043
695,0.6849,0.00870993,927.377,0.0106037,0.0113714,0.0213052,0.00107516,-0.259917,0.52168,-0.259988,-8.87806e-07,4.13035e-05,-2.07122e-05,0.517263,-0.2288844142588513,-8.878056059202777e-07,4.130435300120361e-05,0.6848558311576176,-2.0711985503907293e-05,-0.2289391615218881
696,0.6859,0.00869366,927.576,0.0105843,0.0113964,0.0212852,0.00109133,-0.260213,0.522273,-0.260284,-8.61122e-07,4.13441e-05,-2.07049e-05,0.517855,-0.22911263069453203,-8.611216292253587e-07,4.1344954679001233e-05,0.6858552469629933,-2.0704685655070776e-05,-0.22916736175477703
697,0.6869,0.00867743,927.774,0.010565,0.0114213,0.0212653,0.00110746,-0.26051,0.522866,-0.260581,-8.34398e-07,4.13846e-05,-2.06975e-05,0.518447,-0.22934155024697944,-8.343976518609963e-07,4.1385456354348094e-05,0.6868552555976983,-2.0697285808224386e-05,-0.22939626505451327
698,0.6879,0.00866123,927.973,0.0105457,0.0114462,0.0212454,0.00112353,-0.260806,0.523459,-0.260877,-8.07635e-07,4.1425e-05,-2.06901e-05,0.519039,-0.22956963139043174,-8.076346739160911e-07,4.142585802724419e-05,0.6878558574133844,-2.0689885961377996e-05,-0.22962433000477933
699,0.6889,0.00864508,928.171,0.0105265,0.0114711,0.0212255,0.00113954,-0.261102,0.524051,-0.261173,-7.80833e-07,4.14653e-05,-2.06826e-05,0.51963,-0.2297976450318565,-7.808326951685984e-07,4.1466159697467475e-05,0.688855363905704,-2.0682386116521734e-05,-0.22985232745781015
700,0.6899,0.00862897,928.369,0.0105073,0.011496,0.0212057,0.00115551,-0.261398,0.524643,-0.261469,-7.53992e-07,4.15056e-05,-2.06751e-05,0.520221,-0.23002559119123123,-7.539917157295406e-07,4.1506461369245073e-05,0.6898554622810469,-2.067488627155445e-05,-0.23008025743358207
701,0.6909,0.0086129,928.566,0.0104881,0.0115208,0.0211859,0.00117142,-0.261693,0.525235,-0.261764,-7.27112e-07,4.15458e-05,-2.06676e-05,0.520812,-0.2302527001416126,-7.271117355989176e-07,4.154666303879395e-05,0.690856152889912,-2.0667386426587164e-05,-0.23030735025980031
702,0.6919,0.00859687,928.763,0.0104691,0.0115456,0.0211661,0.00118728,-0.261988,0.525826,-0.26206,-7.00194e-07,4.15859e-05,-2.06601e-05,0.521402,-0.23047974210473465,-7.001937548656301e-07,4.1586764705447976e-05,0.691855744226415,-2.065988658161988e-05,-0.23053514556875454
703,0.6929,0.00858089,928.96,0.01045,0.0115704,0.0211464,0.00120309,-0.262284,0.526417,-0.262355,-6.73237e-07,4.1626e-05,-2.06525e-05,0.521992,-0.2307074863932541,-6.732367733297551e-07,4.162686637387836e-05,0.6928559264960015,-2.0652286738642722e-05,-0.23076210422276433
704,0.6939,0.00856494,929.157,0.010431,0.0115951,0.0211267,0.00121885,-0.262579,0.527007,-0.26265,-6.46241e-07,4.1666e-05,-2.06449e-05,0.522582,-0.23093439421421902,-6.462407912133372e-07,4.1666868039857974e-05,0.6938550061921629,-2.0644686895554543e-05,-0.2309889959338458
705,0.6949,0.00854903,929.353,0.0104121,0.0116198,0.0211071,0.00123455,-0.262874,0.527597,-0.262945,-6.19207e-07,4.17059e-05,-2.06372e-05,0.523171,-0.23116123510724895,-6.192068082722102e-07,4.170676970316478e-05,0.694854675519269,-2.063698705445649e-05,-0.23121582072174418
706,0.6959,0.00853316,929.549,0.0103932,0.0116445,0.0210875,0.0012502,-0.263168,0.528187,-0.26324,-5.92135e-07,4.17458e-05,-2.06295e-05,0.52376,-0.23138724047970982,-5.921348247284186e-07,4.17466713680259e-05,0.6958549348253047,-2.0629287213358438e-05,-0.23144257860619877
707,0.6969,0.00851733,929.745,0.0103743,0.0116691,0.0210679,0.0012658,-0.263463,0.528777,-0.263535,-5.65025e-07,4.17856e-05,-2.06218e-05,0.524348,-0.23161394780279398,-5.650248403599178e-07,4.1786473030436255e-05,0.6968557844584606,-2.0621587372149364e-05,-0.23166926960694345
708,0.6979,0.00850154,929.941,0.0103555,0.0116937,0.0210484,0.00128134,-0.263757,0.529366,-0.263829,-5.37877e-07,4.18253e-05,-2.0614e-05,0.524937,-0.23183982009728576,-5.378768553887525e-07,4.1826174689951756e-05,0.697855526910756,-2.0613787532930417e-05,-0.23189512563921533
709,0.6989,0.00848579,930.136,0.0103367,0.0117183,0.0210289,0.00129683,-0.264051,0.529955,-0.264123,-5.10691e-07,4.1865e-05,-2.06062e-05,0.525525,-0.23206562599508374,-5.10690869592878e-07,4.1865876351243614e-05,0.6988558583848059,-2.060598769371147e-05,-0.2321209152795739
710,0.6999,0.00847008,930.331,0.010318,0.0117428,0.0210094,0.00131227,-0.264345,0.530543,-0.264417,-4.83467e-07,4.19045e-05,-2.05984e-05,0.526112,-0.23229136551570562,-4.834668830833166e-07,4.1905378005857585e-05,0.6998550793717169,-2.05981878543815e-05,-0.23234663854753546
711,0.7009,0.00845441,930.525,0.0102993,0.0117673,0.02099,0.00132766,-0.264639,0.531131,-0.264711,-4.56205e-07,4.19441e-05,-2.05906e-05,0.526699,-0.23251703867866358,-4.562048959710907e-07,4.1944979666030946e-05,0.7008548880733392,-2.059038801505153e-05,-0.2325722954626106
712,0.7019,0.00843878,930.72,0.0102807,0.0117918,0.0209706,0.001343,-0.264933,0.531719,-0.265005,-4.28906e-07,4.19835e-05,-2.05827e-05,0.527286,-0.23274264550346369,-4.289059080120339e-07,4.198438131952642e-05,0.701855284835351,-2.058248817771169e-05,-0.23279788604430407
713,0.7029,0.00842319,930.914,0.0102621,0.0118162,0.0209513,0.00135828,-0.265226,0.532307,-0.265298,-4.01569e-07,4.20229e-05,-2.05747e-05,0.527873,-0.23296741897740925,-4.015689193392902e-07,4.202378297435416e-05,0.7028562700036332,-2.0574488342361974e-05,-0.2330226433351421
714,0.7039,0.00840763,931.107,0.0102436,0.0118406,0.020932,0.00137351,-0.26552,0.532894,-0.265592,-3.74195e-07,4.20622e-05,-2.05668e-05,0.528459,-0.23319289340986415,-3.741949300417602e-07,4.206308462673114e-05,0.7038561400672787,-2.0566588504800087e-05,-0.2332481015340223
715,0.7049,0.00839212,931.301,0.0102251,0.011865,0.0209127,0.00138868,-0.265813,0.53348,-0.265885,-3.46784e-07,4.21015e-05,-2.05588e-05,0.529045,-0.2334175349804979,-3.467839398973993e-07,4.210238628066243e-05,0.7048548923712024,-2.055858866933935e-05,-0.23347272693104526
716,0.7059,0.00837664,931.494,0.0102066,0.0118893,0.0208935,0.0014038,-0.266106,0.534067,-0.266178,-3.19335e-07,4.21406e-05,-2.05508e-05,0.52963,-0.2336421107407931,-3.1933494903935156e-07,4.2141487927471744e-05,0.7058559359705767,-2.055058883376759e-05,-0.2336972865224678
717,0.7069,0.0083612,931.687,0.0101882,0.0119137,0.0208743,0.00141887,-0.266399,0.534653,-0.266471,-2.9185e-07,4.21797e-05,-2.05427e-05,0.530215,-0.2338666207100294,-2.918499574233735e-07,4.2180589576057415e-05,0.7068558604983282,-2.054248900018596e-05,-0.23392178032756816
718,0.7079,0.0083458,931.88,0.0101699,0.0119379,0.0208551,0.00143389,-0.266691,0.535239,-0.266764,-2.64327e-07,4.22188e-05,-2.05346e-05,0.5308,-0.2340902989981627,-2.6432696509370857e-07,4.221969122597535e-05,0.707856371153571,-2.0534389166493305e-05,-0.23414620836561906
719,0.7089,0.00833044,932.072,0.0101516,0.0119622,0.020836,0.00144886,-0.266984,0.535824,-0.267056,-2.36768e-07,4.22578e-05,-2.05265e-05,0.531384,-0.23431467766747593,-2.3676797200611333e-07,4.225869287344253e-05,0.7088557594232634,-2.052628933280065e-05,-0.23436980502607518
720,0.7099,0.00831512,932.264,0.0101333,0.0119864,0.0208169,0.00146377,-0.267276,0.536409,-0.267349,-2.09172e-07,4.22967e-05,-2.05184e-05,0.531969,-0.23453822514207734,-2.091719780716872e-07,4.229759451801485e-05,0.709855732506135,-2.0518189499107997e-05,-0.2345941018121187
721,0.7109,0.00829983,932.456,0.0101151,0.0120106,0.0207978,0.00147862,-0.267568,0.536994,-0.267641,-1.81539e-07,4.23355e-05,-2.05102e-05,0.532552,-0.23476170735034552,-1.8153898351247477e-07,4.233639615991436e-05,0.7108562907444009,-2.0509989667294448e-05,-0.2348175677067812
722,0.7119,0.00828459,932.647,0.0100969,0.0120348,0.0207788,0.00149343,-0.26786,0.537578,-0.267933,-1.5387e-07,4.23743e-05,-2.0502e-05,0.533136,-0.23498512431133545,-1.5386998819533204e-07,4.237519780336818e-05,0.7118557226238993,-2.05017898354809e-05,-0.23504096835892818
723,0.7129,0.00826938,932.838,0.0100787,0.0120589,0.0207598,0.00150818,-0.268152,0.538162,-0.268225,-1.26164e-07,4.2413e-05,-2.04937e-05,0.533719,-0.23520847604409667,-1.2616399203135842e-07,4.241389944392715e-05,0.7128557383420797,-2.0493490005546455e-05,-0.235264303787608
724,0.7139,0.0082542,933.029,0.0100607,0.012083,0.0207408,0.00152288,-0.268443,0.538746,-0.268516,-9.84222e-08,4.24517e-05,-2.04854e-05,0.534302,-0.2354309979990531,-9.842219517164352e-08,4.2452601086262476e-05,0.7138563382400032,-2.048519017561201e-05,-0.23548680949905454
725,0.7149,0.00823907,933.22,0.0100426,0.0121071,0.0207219,0.00153753,-0.268735,0.539329,-0.268808,-7.0644e-08,4.24903e-05,-2.04771e-05,0.534884,-0.23565421955570398,-7.064399754064254e-08,4.24912027254809e-05,0.7148558078022653,-2.0476890345566545e-05,-0.23571001476112663
726,0.7159,0.00822397,933.41,0.0100246,0.0121312,0.020703,0.00155212,-0.269026,0.539912,-0.269099,-4.28297e-08,4.25288e-05,-2.04688e-05,0.535466,-0.23587661181816977,-4.282969912061674e-08,4.2529704362248566e-05,0.7158558602251697,-2.046859051552108e-05,-0.23593239078954975
727,0.7169,0.00820891,933.6,0.0100066,0.0121552,0.0206841,0.00156666,-0.269317,0.540494,-0.26939,-1.49793e-08,4.25672e-05,-2.04604e-05,0.536048,-0.23609893937390236,-1.4979299911566102e-08,4.2568105996121375e-05,0.716854778992986,-2.046019068746574e-05,-0.23615470211596323
728,0.7179,0.00819389,933.79,0.00998872,0.0121792,0.0206653,0.00158114,-0.269608,0.541077,-0.269681,1.29069e-08,4.26056e-05,-2.0452e-05,0.536629,-0.2363212022417288,1.2906899993225807e-08,4.2606507631548496e-05,0.7178559971558747,-2.045179085929938e-05,-0.23637694875919257
729,0.7189,0.00817891,933.98,0.00997085,0.0122031,0.0206465,0.00159557,-0.269899,0.541659,-0.269972,4.0829e-08,4.26439e-05,-2.04436e-05,0.53721,-0.23654340044047062,4.082900084689811e-08,4.264480926408076e-05,0.7188560803421973,-2.0443391031021996e-05,-0.23659913073805783
730,0.7199,0.00816396,934.169,0.00995302,0.0122271,0.0206278,0.00160995,-0.270189,0.54224,-0.270263,6.87868e-08,4.26822e-05,-2.04351e-05,0.537791,-0.23676477075409597,6.878680247623947e-08,4.268311089816734e-05,0.7198550258904575,-2.043489120473474e-05,-0.2368212480713736
731,0.7209,0.00814905,934.358,0.00993523,0.012251,0.0206091,0.00162428,-0.27048,0.542822,-0.270553,9.67802e-08,4.27204e-05,-2.04266e-05,0.538371,-0.2369868398931797,9.678020473913307e-08,4.272131252935907e-05,0.7208562728501289,-2.0426391378447484e-05,-0.23704253782086837
732,0.7219,0.00813417,934.547,0.00991748,0.0122748,0.0205904,0.00163855,-0.27077,0.543402,-0.270844,1.24809e-07,4.27585e-05,-2.04181e-05,0.538951,-0.23720808162800855,1.2480900779543447e-07,4.275941415765594e-05,0.7218546589923751,-2.0417891552049205e-05,-0.2372645261414953
733,0.7229,0.00811933,934.735,0.00989978,0.0122987,0.0205718,0.00165277,-0.27106,0.543983,-0.271134,1.52873e-07,4.27966e-05,-2.04096e-05,0.539531,-0.23742925921203673,1.5287301158295463e-07,4.279751578750712e-05,0.7228553472210306,-2.0409391725539905e-05,-0.23748568735898778
734,0.7239,0.00810453,934.923,0.00988212,0.0123225,0.0205531,0.00166694,-0.27135,0.544563,-0.271424,1.80973e-07,4.28346e-05,-2.0401e-05,0.540111,-0.23765037266386502,1.809730163504497e-07,4.28355174146855e-05,0.7238548931627213,-2.0400791901020732e-05,-0.23770678444902615
735,0.7249,0.00808976,935.111,0.0098645,0.0123463,0.0205346,0.00168105,-0.27164,0.545143,-0.271714,2.09108e-07,4.28725e-05,-2.03924e-05,0.54069,-0.23787142200208933,2.0910802178697452e-07,4.2873419038746974e-05,0.7248550190092142,-2.0392192076390536e-05,-0.23792781743020452
736,0.7259,0.00807504,935.299,0.00984692,0.0123701,0.020516,0.00169511,-0.27193,0.545723,-0.272003,2.37278e-07,4.29104e-05,-2.03838e-05,0.541268,-0.23809240724529968,2.3727802811457366e-07,4.291132066436276e-05,0.7258557250969517,-2.038359225176034e-05,-0.23814802446951733
737,0.7269,0.00806034,935.486,0.00982939,0.0123938,0.0204975,0.00170911,-0.272219,0.546302,-0.272293,2.65483e-07,4.29482e-05,-2.03751e-05,0.541847,-0.23831256672502865,2.6548303533324713e-07,4.2949122287083696e-05,0.7268552849064234,-2.037489242900925e-05,-0.23836892950964228
738,0.7279,0.00804569,935.673,0.0098119,0.0124175,0.020479,0.00172306,-0.272508,0.546881,-0.272582,2.93723e-07,4.2986e-05,-2.03664e-05,0.542425,-0.238532662587861,2.9372304322095033e-07,4.298692391135894e-05,0.7278554236286037,-2.036619260625816e-05,-0.23858900908598335
739,0.7289,0.00803106,935.86,0.00979445,0.0124412,0.0204606,0.00173696,-0.272797,0.54746,-0.272871,3.21998e-07,4.30236e-05,-2.03577e-05,0.543002,-0.23875269485217954,3.2199805177768326e-07,4.302452552829017e-05,0.72885614159878,-2.0357492783396047e-05,-0.23880902506851676
740,0.7299,0.00801648,936.046,0.00977704,0.0124648,0.0204422,0.0017508,-0.273086,0.548038,-0.27316,3.50308e-07,4.30613e-05,-2.03489e-05,0.54358,-0.23897266353636137,3.503080614475351e-07,4.306222715100283e-05,0.7298557092958604,-2.0348692962524062e-05,-0.23902897747561824
741,0.7309,0.00800193,936.233,0.00975968,0.0124885,0.0204238,0.00176459,-0.273375,0.548616,-0.273449,3.78652e-07,4.30988e-05,-2.03401e-05,0.544157,-0.23919256865877858,3.7865207169751613e-07,4.3099728766593515e-05,0.7308558549100717,-2.0339893141541054e-05,-0.23924886632565845
742,0.7319,0.00798742,936.419,0.00974235,0.0125121,0.0204055,0.00177833,-0.273663,0.549193,-0.273738,4.07031e-07,4.31363e-05,-2.03313e-05,0.544734,-0.23941164964982786,4.070310828385715e-07,4.313723038351647e-05,0.7318548469198334,-2.0331093320558047e-05,-0.2394686916370029
743,0.7329,0.00797294,936.604,0.00972507,0.0125356,0.0203872,0.00179201,-0.273952,0.549771,-0.274026,4.35445e-07,4.31737e-05,-2.03225e-05,0.54531,-0.23963142792358882,4.3544509487070115e-07,4.3174631997544566e-05,0.7328561483695955,-2.0322293499352995e-05,-0.23968769311608473
744,0.7339,0.0079585,936.79,0.00970783,0.0125592,0.0203689,0.00180564,-0.27424,0.550348,-0.274314,4.63892e-07,4.32111e-05,-2.03136e-05,0.545886,-0.23985038254136848,4.63892107616104e-07,4.321203361312698e-05,0.7338562948817253,-2.0313393680249092e-05,-0.23990663153182212
745,0.7349,0.00794409,936.975,0.00969063,0.0125827,0.0203506,0.00181921,-0.274528,0.550924,-0.274603,4.92375e-07,4.32484e-05,-2.03047e-05,0.546462,-0.2400692741092978,4.923751211194372e-07,4.324933522559249e-05,0.7348552837887623,-2.0304493860923145e-05,-0.24012626677648785
746,0.7359,0.00792971,937.16,0.00967347,0.0126062,0.0203324,0.00183273,-0.274816,0.5515,-0.274891,5.20891e-07,4.32857e-05,-2.02958e-05,0.547037,-0.24028810264553258,5.208911355580881e-07,4.328663683939027e-05,0.735854848279162,-2.0295594041597198e-05,-0.24034507890119783
747,0.7369,0.00791538,937.345,0.00965635,0.0126297,0.0203142,0.0018462,-0.275104,0.552076,-0.275178,5.49441e-07,4.33229e-05,-2.02869e-05,0.547612,-0.2405068681682233,5.494411510209574e-07,4.3323838450293195e-05,0.7368549886845557,-2.028669422227125e-05,-0.2405630685805379
748,0.7379,0.00790107,937.529,0.00963927,0.0126531,0.0202961,0.00185961,-0.275391,0.552652,-0.275466,5.78026e-07,4.336e-05,-2.02779e-05,0.548187,-0.24072481142070623,5.780261671528564e-07,4.336094005830127e-05,0.737855705336766,-2.027769440482441e-05,-0.24078175492444165
749,0.7389,0.00788681,937.713,0.00962224,0.0126765,0.020278,0.00187297,-0.275679,0.553227,-0.275754,6.06644e-07,4.3397e-05,-2.02689e-05,0.548761,-0.2409434511893792,6.066441839980286e-07,4.3397941663414485e-05,0.7388552597116775,-2.0268694587266545e-05,-0.24100037829574683
750,0.7399,0.00787257,937.897,0.00960524,0.0126999,0.0202599,0.00188628,-0.275966,0.553802,-0.276041,6.35296e-07,4.3434e-05,-2.02599e-05,0.549335,-0.24116126916051384,6.352962018674191e-07,4.343494326985997e-05,0.7398553889956254,-2.0259694769597658e-05,-0.24121817993114625
751,0.7409,0.00785838,938.081,0.00958829,0.0127233,0.0202419,0.00189953,-0.276253,0.554377,-0.276328,6.63982e-07,4.3471e-05,-2.02508e-05,0.549909,-0.24137902462686067,6.639822205389834e-07,4.3471944877637725e-05,0.740856093519277,-2.02505949539189e-05,-0.24143591906644557
752,0.7419,0.00784421,938.264,0.00957137,0.0127466,0.0202238,0.00191273,-0.27654,0.554951,-0.276615,6.92702e-07,4.35078e-05,-2.02417e-05,0.550482,-0.24159671760635593,6.927022400127214e-07,4.350874647807146e-05,0.7418556317569873,-2.0241495138129117e-05,-0.24165359571957956
753,0.7429,0.00783008,938.447,0.0095545,0.0127699,0.0202059,0.00192587,-0.276827,0.555525,-0.276902,7.21455e-07,4.35447e-05,-2.02326e-05,0.551055,-0.2418143481169308,7.214552601997326e-07,4.3545648084286626e-05,0.7428557438943402,-2.0232395322339336e-05,-0.2418712099084782
754,0.7439,0.00781599,938.63,0.00953766,0.0127932,0.0201879,0.00193896,-0.277113,0.556098,-0.277188,7.50242e-07,4.35814e-05,-2.02235e-05,0.551628,-0.24203115820804855,7.502422814109622e-07,4.358234968293573e-05,0.7438546864052891,-2.0223295506438532e-05,-0.24208800373944883
755,0.7449,0.00780192,938.813,0.00952087,0.0128165,0.02017,0.00195199,-0.2774,0.556672,-0.277475,7.79062e-07,4.36181e-05,-2.02143e-05,0.552201,-0.24224866405206114,7.790623035575095e-07,4.361905128313914e-05,0.7448559463293929,-2.0214095692416834e-05,-0.24230549327113493
756,0.7459,0.0077879,938.995,0.00950411,0.0128397,0.0201521,0.00196497,-0.277686,0.557245,-0.277761,8.07916e-07,4.36547e-05,-2.02051e-05,0.552773,-0.24246534994658242,8.07916326284186e-07,4.365565288022566e-05,0.7458560352847623,-2.0204895878395135e-05,-0.24252216291482342
757,0.7469,0.0077739,939.177,0.0094874,0.0128629,0.0201343,0.00197789,-0.277972,0.557817,-0.278048,8.36802e-07,4.36913e-05,-2.01959e-05,0.553344,-0.24268197387779888,8.368023500793242e-07,4.369225447864444e-05,0.7468549505994893,-2.019569606415139e-05,-0.24273952786070518
758,0.7479,0.00775995,939.359,0.00947072,0.0128861,0.0201164,0.00199077,-0.278258,0.55839,-0.278334,8.65722e-07,4.37278e-05,-2.01867e-05,0.553916,-0.2428985358634298,8.657223746766363e-07,4.3728756074168373e-05,0.7478561853125336,-2.018649624990765e-05,-0.24295607338825054
759,0.7489,0.00774602,939.541,0.00945408,0.0129093,0.0200986,0.00200358,-0.278544,0.558962,-0.278619,8.94675e-07,4.37643e-05,-2.01774e-05,0.554487,-0.24311503592118888,8.946754002092661e-07,4.376525767102457e-05,0.7488562450403475,-2.0177196437654032e-05,-0.243171800164809
760,0.7499,0.00773213,939.722,0.00943749,0.0129324,0.0200809,0.00201634,-0.27883,0.559533,-0.278905,9.23661e-07,4.38007e-05,-2.01681e-05,0.555058,-0.24333147406878497,9.236614266772136e-07,4.380165926476387e-05,0.7498551271099567,-2.0167896625289394e-05,-0.24338822208015276
761,0.7509,0.00771827,939.903,0.00942093,0.0129555,0.0200632,0.00202905,-0.279115,0.560104,-0.279191,9.5268e-07,4.3837e-05,-2.01588e-05,0.555628,-0.24354709387139395,9.526804538584344e-07,4.383796085538627e-05,0.7508545797040971,-2.015859681270271e-05,-0.2436045821076791
762,0.7519,0.00770445,940.084,0.00940441,0.0129786,0.0200455,0.00204171,-0.2794,0.560676,-0.279476,9.81732e-07,4.38733e-05,-2.01494e-05,0.556198,-0.24376265223111537,9.817324819749729e-07,4.387426244734094e-05,0.7518563550041097,-2.014919700221718e-05,-0.24382012408558762
763,0.7529,0.00769065,940.264,0.00938793,0.0130017,0.0200278,0.0020543,-0.279685,0.561246,-0.279761,1.01082e-06,4.39095e-05,-2.01401e-05,0.556768,-0.24397814916545768,1.0108205108494417e-06,4.391046403617871e-05,0.7528551977696067,-2.0139897189519473e-05,-0.2440356046427853
764,0.7539,0.0076769,940.445,0.00937149,0.0130247,0.0200102,0.00206685,-0.27997,0.561817,-0.280046,1.03993e-06,4.39456e-05,-2.01307e-05,0.557338,-0.24419358469192476,1.039930540791545e-06,4.3946565622121625e-05,0.7538563638932596,-2.0130497378811896e-05,-0.24425102379677455
765,0.7549,0.00766317,940.625,0.00935509,0.0130477,0.0199926,0.00207934,-0.280255,0.562387,-0.280331,1.06908e-06,4.39817e-05,-2.01213e-05,0.557907,-0.2444089588280154,1.0690805714030915e-06,4.3982667209174764e-05,0.7548563469887863,-2.0121097567993296e-05,-0.24446638156505274
766,0.7559,0.00764948,940.805,0.00933872,0.0130707,0.019975,0.00209177,-0.28054,0.562956,-0.280616,1.09826e-06,4.40178e-05,-2.01118e-05,0.558476,-0.24462427159122324,1.0982606031273434e-06,4.401876879756017e-05,0.7558551443811337,-2.01115977590538e-05,-0.24468167796511242
767,0.7569,0.00763582,940.984,0.0093224,0.0130937,0.0199575,0.00210415,-0.280824,0.563526,-0.2809,1.12748e-06,4.40537e-05,-2.01024e-05,0.559044,-0.2448387678381826,1.1274806355210387e-06,4.405467037860156e-05,0.7568562671063019,-2.010219794812418e-05,-0.2448961579109764
768,0.7579,0.00762219,941.163,0.00930611,0.0131167,0.0199399,0.00211648,-0.281109,0.564095,-0.281185,1.15673e-06,4.40897e-05,-2.00929e-05,0.559612,-0.24505395812327646,1.1567306690274393e-06,4.409067196520233e-05,0.7578562027770055,-2.009269813907366e-05,-0.24511133184223022
769,0.7589,0.0076086,941.342,0.00928986,0.0131396,0.0199225,0.00212875,-0.281393,0.564663,-0.281469,1.18601e-06,4.41255e-05,-2.00834e-05,0.56018,-0.2452683323565874,1.1860107032024558e-06,4.4126473544237044e-05,0.7588549487171783,-2.0083198329912122e-05,-0.2453256897837185
770,0.7599,0.00759504,941.521,0.00927365,0.0131625,0.019905,0.00214097,-0.281677,0.565232,-0.281753,1.21532e-06,4.41613e-05,-2.00738e-05,0.560748,-0.24548264571626066,1.2153207384901776e-06,4.416227512460402e-05,0.7598560219613273,-2.0073598522629688e-05,-0.24553998685619527
771,0.7609,0.00758151,941.7,0.00925748,0.0131854,0.0198876,0.00215313,-0.281961,0.5658,-0.282037,1.24466e-06,4.41971e-05,-2.00643e-05,0.561315,-0.24569689821958174,1.24466077466856e-06,4.419807670630327e-05,0.7608559041214527,-2.0064098713246104e-05,-0.24575422307694483
772,0.7619,0.00756801,941.878,0.00924135,0.0132082,0.0198702,0.00216523,-0.282244,0.566368,-0.282321,1.27404e-06,4.42327e-05,-2.00547e-05,0.561882,-0.24591033579454413,1.274040811516386e-06,4.4233678280214406e-05,0.7618563543759684,-2.0054498905852647e-05,-0.24596839846324658
773,0.7629,0.00755455,942.056,0.00922525,0.0132311,0.0198529,0.00217728,-0.282528,0.566935,-0.282604,1.30344e-06,4.42684e-05,-2.00451e-05,0.562449,-0.2461244668511292,1.3034408494760896e-06,4.426937986012902e-05,0.7628556101911523,-2.0044899098348168e-05,-0.24618175921451124
774,0.7639,0.00754112,942.234,0.00920919,0.0132539,0.0198356,0.00218928,-0.282811,0.567502,-0.282888,1.33288e-06,4.43039e-05,-2.00354e-05,0.563015,-0.2463377834412892,1.3328808883272814e-06,4.430488143225553e-05,0.7638554327450386,-2.0035199292722794e-05,-0.24639581319778991
775,0.7649,0.00752772,942.412,0.00919317,0.0132767,0.0198183,0.00220122,-0.283094,0.568069,-0.283171,1.36235e-06,4.43394e-05,-2.00258e-05,0.563581,-0.24655103967139547,1.3623509280691337e-06,4.43403830057143e-05,0.7648558223590598,-2.002559948499627e-05,-0.24660905300779867
776,0.7659,0.00751435,942.589,0.00917719,0.0132995,0.019801,0.00221311,-0.283377,0.568635,-0.283454,1.39186e-06,4.43749e-05,-2.00161e-05,0.564146,-0.24676423555852756,1.3918609687024741e-06,4.437588458050534e-05,0.7658550134989328,-2.0015899679259874e-05,-0.24682223247947943
777,0.7669,0.00750102,942.766,0.00916125,0.0133222,0.0197838,0.00222494,-0.28366,0.569201,-0.283737,1.42139e-06,4.44103e-05,-2.00064e-05,0.564712,-0.24697737111976004,1.4213910102256477e-06,4.441128615195744e-05,0.7668547703410695,-2.0006199873301433e-05,-0.24703535162990553
778,0.7679,0.00748771,942.943,0.00914534,0.0133449,0.0197666,0.00223672,-0.283943,0.569767,-0.28402,1.45096e-06,4.44456e-05,-1.99967e-05,0.565277,-0.24719044637216292,1.4509610526403094e-06,4.444658772029264e-05,0.7678550932057484,-1.9996500067342993e-05,-0.24724841047614554
779,0.7689,0.00747444,943.12,0.00912946,0.0133676,0.0197494,0.00224844,-0.284225,0.570333,-0.284302,1.48055e-06,4.44809e-05,-1.9987e-05,0.565841,-0.247402708735886,1.4805510959448043e-06,4.448188928996011e-05,0.7688559824134285,-1.998680026127353e-05,-0.2474606564962959
780,0.7699,0.0074612,943.296,0.00911363,0.0133903,0.0197323,0.0022601,-0.284508,0.570898,-0.284585,1.51018e-06,4.45161e-05,-1.99772e-05,0.566406,-0.24761566363477427,1.5101811403628318e-06,4.451709085628863e-05,0.7698556684281976,-1.997700045708317e-05,-0.24767359499828823
781,0.7709,0.00744799,943.472,0.00909783,0.013413,0.0197151,0.00227171,-0.28479,0.571463,-0.284867,1.53984e-06,4.45513e-05,-1.99674e-05,0.56697,-0.24782780610413524,1.5398411854494753e-06,4.4552292423949424e-05,0.7708559194251574,-1.996720065278179e-05,-0.24788572113330798
782,0.7719,0.00743482,943.648,0.00908207,0.0134356,0.0196981,0.00228327,-0.285072,0.572027,-0.285149,1.56953e-06,4.45864e-05,-1.99576e-05,0.567533,-0.24803988875775418,1.5695312316488241e-06,4.458739398827127e-05,0.7718549638677632,-1.995740084848041e-05,-0.24809778745719135
783,0.7729,0.00742167,943.824,0.00906635,0.0134582,0.019681,0.00229477,-0.285354,0.572592,-0.285431,1.59926e-06,4.46215e-05,-1.99477e-05,0.568097,-0.24825191161249693,1.599261278739661e-06,4.462249555392539e-05,0.7728563447858192,-1.9947501045947114e-05,-0.24830979398680275
784,0.7739,0.00740856,943.999,0.00905066,0.0134808,0.019664,0.00230621,-0.285636,0.573155,-0.285713,1.62901e-06,4.46564e-05,-1.99379e-05,0.56866,-0.24846387468522424,1.6290113269423756e-06,4.46573971117914e-05,0.7738547439309211,-1.993770124142369e-05,-0.2485217407390018
785,0.7749,0.00739548,944.174,0.00903501,0.0135034,0.019647,0.0023176,-0.285917,0.573719,-0.285995,1.65879e-06,4.46914e-05,-1.9928e-05,0.569223,-0.24867502666819474,1.6587913758137063e-06,4.469239867543884e-05,0.7748554801875949,-1.992780143877937e-05,-0.24873362773064345
786,0.7759,0.00738242,944.349,0.0090194,0.013526,0.01963,0.00232894,-0.286199,0.574282,-0.286276,1.68861e-06,4.47263e-05,-1.99181e-05,0.569785,-0.2488868704392987,1.6886114257985696e-06,4.472730023596938e-05,0.7758550051628195,-1.9917901635913005e-05,-0.24894470392365708
787,0.7769,0.0073694,944.524,0.00900382,0.0135485,0.0196131,0.00234022,-0.28648,0.574845,-0.286557,1.71846e-06,4.47611e-05,-1.99082e-05,0.570347,-0.24909790357716077,1.718461476452049e-06,4.4762101792938935e-05,0.7768550930290443,-1.990800183304664e-05,-0.24915572081259318
788,0.7779,0.00735641,944.698,0.00898828,0.013571,0.0195962,0.00235144,-0.286761,0.575408,-0.286839,1.74833e-06,4.47959e-05,-1.98983e-05,0.570909,-0.24930887742304197,1.7483315284394507e-06,4.479690335124076e-05,0.7778557441032656,-1.9898102030180276e-05,-0.24936742904706
789,0.7789,0.00734345,944.873,0.00897277,0.0135935,0.0195793,0.00236261,-0.287042,0.57597,-0.28712,1.77824e-06,4.48306e-05,-1.98883e-05,0.57147,-0.24951979199360108,1.778241581096296e-06,4.483160490642568e-05,0.7788551798465901,-1.9888102229081994e-05,-0.24957832716692419
790,0.7799,0.00733052,945.047,0.0089573,0.013616,0.0195625,0.00237372,-0.287323,0.576532,-0.2874,1.80818e-06,4.48652e-05,-1.98783e-05,0.572032,-0.2497306473054921,1.8081816348658464e-06,4.486620645804962e-05,0.7798551774306648,-1.987810242787269e-05,-0.24978841582153322
791,0.7809,0.00731763,945.22,0.00894187,0.0136385,0.0195457,0.00238478,-0.287604,0.577094,-0.287681,1.83815e-06,4.48999e-05,-1.98683e-05,0.572593,-0.2499414433753644,1.8381516893040128e-06,4.490090801567703e-05,0.7808557371713329,-1.9868102626663386e-05,-0.24999919566073303
792,0.7819,0.00730476,945.394,0.00892647,0.0136609,0.0195289,0.00239578,-0.287884,0.577655,-0.287962,1.86815e-06,4.49344e-05,-1.98583e-05,0.573153,-0.25015143037166787,1.8681517450769292e-06,4.493540956529429e-05,0.7818550775286468,-1.9858102825232038e-05,-0.2502099162791189
793,0.7829,0.00729192,945.567,0.00891111,0.0136833,0.0195121,0.00240672,-0.288164,0.578216,-0.288242,1.89818e-06,4.49689e-05,-1.98482e-05,0.573713,-0.2503613585798432,1.8981818015184615e-06,4.496991111624382e-05,0.7828549786731871,-1.9848003025790817e-05,-0.25041982811353247
794,0.7839,0.00727911,945.74,0.00889578,0.0137057,0.0194954,0.00241761,-0.288445,0.578777,-0.288522,1.92824e-06,4.50033e-05,-1.98382e-05,0.574273,-0.2505719774447458,1.928241859072699e-06,4.500431266363236e-05,0.7838554409196441,-1.9838003224248446e-05,-0.25062968118086026
795,0.7849,0.00726634,945.913,0.00888049,0.0137281,0.0194787,0.00242844,-0.288725,0.579337,-0.288802,1.95833e-06,4.50377e-05,-1.98281e-05,0.574833,-0.2507817879162245,1.9583319175175973e-06,4.503871421235317e-05,0.7848546797273117,-1.9827903424474158e-05,-0.2508394754975546
796,0.7859,0.00725359,946.086,0.00886524,0.0137505,0.019462,0.00243922,-0.289004,0.579898,-0.289082,1.98845e-06,4.5072e-05,-1.9818e-05,0.575392,-0.25099079064016017,1.9884519770752007e-06,4.507301575795708e-05,0.7858562641207929,-1.981780362469987e-05,-0.2510492110800635
797,0.7869,0.00724088,946.258,0.00885002,0.0137728,0.0194454,0.00244994,-0.289284,0.580457,-0.289362,2.0186e-06,4.51063e-05,-1.98079e-05,0.575951,-0.2512004838603601,2.01860203730142e-06,4.510731730444917e-05,0.7868548368475106,-1.980770382481456e-05,-0.2512588879448301
798,0.7879,0.00722819,946.43,0.00883483,0.0137952,0.0194288,0.00246061,-0.289564,0.581017,-0.289642,2.04879e-06,4.51405e-05,-1.97977e-05,0.57651,-0.2514101183746775,2.048792098863217e-06,4.514151884760231e-05,0.787855755787291,-1.9797504026808355e-05,-0.2514685061082932
799,0.7889,0.00721553,946.602,0.00881968,0.0138175,0.0194122,0.00247122,-0.289843,0.581576,-0.289921,2.079e-06,4.51747e-05,-1.97876e-05,0.577068,-0.251618945818868,2.0790021610928022e-06,4.5175720392087726e-05,0.7888554465423101,-1.9787404226701e-05,-0.2516773172645781
800,0.7899,0.00720291,946.774,0.00880457,0.0138397,0.0193956,0.00248177,-0.290122,0.582135,-0.290201,2.10924e-06,4.52088e-05,-1.97774e-05,0.577626,-0.25182771500832835,2.109242224435093e-06,4.5209821933234196e-05,0.7898556962806824,-1.977720442847275e-05,-0.25188681828423254
801,0.7909,0.00719031,946.945,0.00878948,0.013862,0.0193791,0.00249227,-0.290401,0.582693,-0.29048,2.13951e-06,4.52429e-05,-1.97672e-05,0.578184,-0.25203642595930953,2.139512288668044e-06,4.524392347549089e-05,0.7908547144593576,-1.97670046302445e-05,-0.2520955127476998
802,0.7919,0.00717774,947.116,0.00877444,0.0138843,0.0193626,0.00250271,-0.29068,0.583252,-0.290759,2.16981e-06,4.52769e-05,-1.97569e-05,0.578741,-0.2522450786880577,2.1698123540137004e-06,4.527792501440864e-05,0.7918560821009204,-1.9756704833784333e-05,-0.2523041489935336
803,0.7929,0.00716521,947.287,0.00875943,0.0139065,0.0193461,0.0025131,-0.290959,0.58381,-0.291037,2.20014e-06,4.53108e-05,-1.97467e-05,0.579299,-0.2524536732108148,2.2001424202500175e-06,4.53118265497654e-05,0.7928562168063651,-1.9746505035223016e-05,-0.25251197955032745
804,0.7939,0.0071527,947.458,0.00874445,0.0139287,0.0193297,0.00252343,-0.291238,0.584367,-0.291316,2.2305e-06,4.53447e-05,-1.97364e-05,0.579855,-0.2526622095438177,2.23050248759904e-06,4.534572808645443e-05,0.7938551158866944,-1.9736205238540805e-05,-0.2527204996181309
805,0.7949,0.00714022,947.629,0.00872951,0.0139509,0.0193133,0.0025337,-0.291516,0.584925,-0.291595,2.2609e-06,4.53786e-05,-1.97262e-05,0.580412,-0.25286994057361356,2.26090255583955e-06,4.537962962425368e-05,0.7948563663642632,-1.9726005439757444e-05,-0.2529289615169503
806,0.7959,0.00712777,947.799,0.0087146,0.0139731,0.0192969,0.00254392,-0.291794,0.585482,-0.291873,2.29132e-06,4.54123e-05,-1.97159e-05,0.580968,-0.2530776138622095,2.2913226249698937e-06,4.541333115404278e-05,0.7958563798382259,-1.971570564296421e-05,-0.25313661840000445
807,0.7969,0.00711535,947.969,0.00869973,0.0139953,0.0192805,0.00255408,-0.292073,0.586038,-0.292151,2.32177e-06,4.54461e-05,-1.97056e-05,0.581524,-0.25328597614005255,2.3217726952129425e-06,4.544713268961331e-05,0.7968551536187971,-1.970540584594893e-05,-0.2533442175624686
808,0.7979,0.00710296,948.139,0.00868489,0.0140174,0.0192642,0.00256418,-0.292351,0.586595,-0.292429,2.35224e-06,4.54798e-05,-1.96952e-05,0.58208,-0.25349353378683603,2.352242766567869e-06,4.54808342218449e-05,0.7978562807273795,-1.9695006050812758e-05,-0.25355175902038696
809,0.7989,0.0070906,948.308,0.00867008,0.0140395,0.0192479,0.00257423,-0.292628,0.587151,-0.292707,2.38275e-06,4.55134e-05,-1.96849e-05,0.582635,-0.25370028744127393,2.382752838814284e-06,4.55144357505155e-05,0.7988561667620231,-1.9684706253575435e-05,-0.2537592427897991
810,0.7999,0.00707826,948.478,0.00865531,0.0140616,0.0192316,0.00258422,-0.292906,0.587706,-0.292985,2.41329e-06,4.5547e-05,-1.96745e-05,0.58319,-0.2539077299255239,2.413292911951359e-06,4.554803728029633e-05,0.799854809032172,-1.967430645832824e-05,-0.25396666888674013
811,0.8009,0.00706596,948.647,0.00864057,0.0140837,0.0192154,0.00259416,-0.293184,0.588262,-0.293263,2.44386e-06,4.55805e-05,-1.96641e-05,0.583744,-0.25411511474877857,2.4438629862011396e-06,4.558153880673821e-05,0.8008558065575189,-1.9663906662859e-05,-0.25417403732724086
812,0.8019,0.00705368,948.816,0.00862587,0.0141058,0.0191992,0.00260404,-0.293461,0.588817,-0.29354,2.47446e-06,4.56139e-05,-1.96537e-05,0.584299,-0.2543216962491345,2.4744630615636254e-06,4.561494032984115e-05,0.801855558935781,-1.9653506867278736e-05,-0.25438060250830297
813,0.8029,0.00704143,948.985,0.0086112,0.0141279,0.019183,0.00261386,-0.293738,0.589372,-0.293817,2.50508e-06,4.56474e-05,-1.96433e-05,0.584853,-0.25452822053433943,2.5050831378159444e-06,4.5648441858503475e-05,0.8028558663306158,-1.9643107071698473e-05,-0.2545871104787337
814,0.8039,0.00702922,949.153,0.00859656,0.0141499,0.0191668,0.00262362,-0.294015,0.589926,-0.294094,2.53574e-06,4.56807e-05,-1.96329e-05,0.585407,-0.2547346876202399,2.5357432149597514e-06,4.568174337915565e-05,0.8038549251943159,-1.9632707275896166e-05,-0.2547935612543787
815,0.8049,0.00701703,949.322,0.00858196,0.0141719,0.0191507,0.00263333,-0.294292,0.590481,-0.294371,2.56642e-06,4.5714e-05,-1.96224e-05,0.58596,-0.2549410975226778,2.5664232932154363e-06,4.5715044900918045e-05,0.8048563425454087,-1.9622207481972964e-05,-0.2549999548510784
816,0.8059,0.00700486,949.49,0.00856739,0.014194,0.0191346,0.00264299,-0.294569,0.591034,-0.294648,2.59713e-06,4.57473e-05,-1.96119e-05,0.586513,-0.25514745025749075,2.5971333725838264e-06,4.5748346423790665e-05,0.8058547041243704,-1.961170768793874e-05,-0.2552062912846692
817,0.8069,0.00699273,949.657,0.00855285,0.014216,0.0191185,0.00265258,-0.294845,0.591588,-0.294925,2.62788e-06,4.57805e-05,-1.96014e-05,0.587066,-0.2553530011938856,2.6278834528437045e-06,4.5781547943102296e-05,0.806855424804489,-1.9601207893793493e-05,-0.2554125705709832
818,0.8079,0.00698063,949.825,0.00853835,0.0142379,0.0191024,0.00266212,-0.295122,0.592141,-0.295201,2.65865e-06,4.58137e-05,-1.95909e-05,0.587618,-0.25555923984718276,2.6586535342154605e-06,4.581474946352415e-05,0.8078548921816653,-1.9590708099537224e-05,-0.2556180483442686
819,0.8089,0.00696855,949.992,0.00852388,0.0142599,0.0190864,0.0026716,-0.295398,0.592694,-0.295478,2.68945e-06,4.58468e-05,-1.95804e-05,0.588171,-0.2557646771453337,2.689453616477877e-06,4.584785098060706e-05,0.8088549124171522,-1.9580208305169933e-05,-0.25582421358967256
820,0.8099,0.0069565,950.16,0.00850944,0.0142819,0.0190704,0.00268103,-0.295674,0.593247,-0.295754,2.72028e-06,4.58798e-05,-1.95699e-05,0.588722,-0.2559700577506142,2.7202837000750435e-06,4.588085249412899e-05,0.809855485816765,-1.956970851080264e-05,-0.2560295777651619
821,0.8109,0.00694448,950.327,0.00849504,0.0143038,0.0190544,0.0026904,-0.29595,0.593799,-0.29603,2.75113e-06,4.59128e-05,-1.95593e-05,0.589274,-0.2561753816786696,2.7511337843399986e-06,4.5913854008761135e-05,0.8108548018307811,-1.955910871809241e-05,-0.25623488526796
822,0.8119,0.00693249,950.493,0.00848066,0.0143257,0.0190385,0.00269971,-0.296226,0.594351,-0.296306,2.78202e-06,4.59458e-05,-1.95487e-05,0.589825,-0.25638064894514045,2.7820238697184863e-06,4.5946855524503505e-05,0.8118546696195128,-1.954850892538218e-05,-0.2564401361137064
823,0.8129,0.00692052,950.66,0.00846632,0.0143476,0.0190226,0.00270896,-0.296502,0.594903,-0.296582,2.81293e-06,4.59787e-05,-1.95382e-05,0.590376,-0.25658585956566327,2.8129339562088518e-06,4.597975703668489e-05,0.8128550894876236,-1.95380091305708e-05,-0.25664533031803627
824,0.8139,0.00690859,950.826,0.00845202,0.0143695,0.0190067,0.00271816,-0.296777,0.595455,-0.296857,2.84388e-06,4.60115e-05,-1.95276e-05,0.590927,-0.25679027034651214,2.84388404381275e-06,4.601255854530528e-05,0.8138560617399457,-1.9527409337638524e-05,-0.2568497247466768
825,0.8149,0.00689668,950.992,0.00843774,0.0143914,0.0189908,0.0027273,-0.297053,0.596006,-0.297133,2.87485e-06,4.60443e-05,-1.95169e-05,0.591477,-0.2569953679271285,2.8748541323064813e-06,4.60453600550359e-05,0.8148557718248002,-1.9516709546585354e-05,-0.25705480592014285
826,0.8159,0.00688479,951.158,0.0084235,0.0144132,0.018975,0.00273638,-0.297328,0.596557,-0.297408,2.90585e-06,4.6077e-05,-1.95063e-05,0.592027,-0.2571996661086611,2.905854221912918e-06,4.607806156120553e-05,0.8158560329016957,-1.950610975332001e-05,-0.2572590877584746
827,0.8169,0.00687294,951.324,0.00840929,0.0144351,0.0189592,0.00274541,-0.297603,0.597107,-0.297683,2.93688e-06,4.61097e-05,-1.94957e-05,0.592577,-0.25740390811591796,2.93688431263206e-06,4.611076306848538e-05,0.8168550284183758,-1.949550996005467e-05,-0.25746331342702455
828,0.8179,0.00686111,951.489,0.00839511,0.0144569,0.0189434,0.00275438,-0.297878,0.597658,-0.297958,2.96793e-06,4.61424e-05,-1.9485e-05,0.593127,-0.25760809396434514,2.967934404241035e-06,4.614346457687546e-05,0.8178563913891981,-1.948481016866843e-05,-0.2576674829412373
829,0.8189,0.00684931,951.655,0.00838097,0.0144787,0.0189276,0.00276329,-0.298153,0.598207,-0.298233,2.99902e-06,4.6175e-05,-1.94743e-05,0.593676,-0.25781222366938406,2.9990244969635427e-06,4.617606608170455e-05,0.8188546685500779,-1.947411037706015e-05,-0.257871596316553
830,0.8199,0.00683754,951.82,0.00836686,0.0145005,0.0189119,0.00277214,-0.298427,0.598757,-0.298508,3.03013e-06,4.62075e-05,-1.94636e-05,0.594225,-0.2580155552623983,3.0301345907979282e-06,4.620856758297265e-05,0.8198553137699913,-1.9463410585340846e-05,-0.2580756535684078
831,0.8209,0.00682579,951.984,0.00835278,0.0145223,0.0188962,0.00278094,-0.298702,0.599306,-0.298782,3.06127e-06,4.624e-05,-1.94529e-05,0.594773,-0.2582195729309861,3.061274685745019e-06,4.624106908535097e-05,0.8208546886405521,-1.945271079362154e-05,-0.2582789129915174
832,0.8219,0.00681408,952.149,0.00833873,0.0145441,0.0188805,0.00278968,-0.298976,0.599855,-0.299057,3.09244e-06,4.62724e-05,-1.94422e-05,0.595322,-0.2584227929255922,3.0924447815827705e-06,4.6273470583946263e-05,0.8218546123185504,-1.9442011001680193e-05,-0.25848285824668693
833,0.8229,0.00680239,952.313,0.00832471,0.0145658,0.0188648,0.00279836,-0.29925,0.600404,-0.299331,3.12364e-06,4.63048e-05,-1.94314e-05,0.59587,-0.2586259572455477,3.123644878533227e-06,4.630587208387382e-05,0.8228550851053649,-1.943121121161795e-05,-0.258686006110999
834,0.8239,0.00679072,952.478,0.00831072,0.0145876,0.0188492,0.00280699,-0.299524,0.600953,-0.299605,3.15486e-06,4.63372e-05,-1.94207e-05,0.596417,-0.2588290659061052,3.1548649765955616e-06,4.633827358468956e-05,0.8238561073025381,-1.9420511419454556e-05,-0.2588890983204213
835,0.8249,0.00677908,952.642,0.00829677,0.0146093,0.0188336,0.00281555,-0.299798,0.601501,-0.299879,3.18612e-06,4.63694e-05,-1.94099e-05,0.596965,-0.2590321189225133,3.1861250757714288e-06,4.63704750772731e-05,0.8248558543550133,-1.9409711629059245e-05,-0.2590921348902011
836,0.8259,0.00676747,952.805,0.00828284,0.014631,0.018818,0.00282406,-0.300072,0.602049,-0.300153,3.2174e-06,4.64017e-05,-1.93991e-05,0.597512,-0.2592351163100165,3.217405175837129e-06,4.640277657563807e-05,0.8258561494190146,-1.9398911838663935e-05,-0.25929511583558174
837,0.8269,0.00675589,952.969,0.00826895,0.0146527,0.0188025,0.00283251,-0.300346,0.602596,-0.300426,3.24871e-06,4.64339e-05,-1.93883e-05,0.598058,-0.2594380580838549,3.2487152770155348e-06,4.643497807022001e-05,0.8268551659388557,-1.9388112048157602e-05,-0.2594973006694732
838,0.8279,0.00674433,953.132,0.00825509,0.0146744,0.018787,0.00284091,-0.300619,0.603143,-0.3007,3.28004e-06,4.6466e-05,-1.93775e-05,0.598605,-0.25964020389983866,3.280045379305818e-06,4.6467079561240965e-05,0.8278547290702174,-1.9377312257429224e-05,-0.259700170614638
839,0.8289,0.0067328,953.295,0.00824126,0.0146961,0.0187715,0.00284925,-0.300892,0.60369,-0.300973,3.31141e-06,4.64981e-05,-1.93667e-05,0.599151,-0.2598422945375467,3.3114154827096343e-06,4.649918105337214e-05,0.8288548391121784,-1.9366512466700847e-05,-0.2599022448836674
840,0.8299,0.0067213,953.458,0.00822747,0.0147178,0.018756,0.00285752,-0.301166,0.604237,-0.301246,3.3428e-06,4.65301e-05,-1.93559e-05,0.599697,-0.2600450699673409,3.342805587225328e-06,4.653118254194233e-05,0.8298554963639808,-1.9355712675750425e-05,-0.2601042639939509
841,0.8309,0.00670982,953.621,0.0082137,0.0147395,0.0187406,0.00286574,-0.301439,0.604783,-0.30152,3.37422e-06,4.65621e-05,-1.9345e-05,0.600242,-0.26024705009169846,3.3742256926316827e-06,4.6563184031400695e-05,0.830854870269244,-1.9344812886679108e-05,-0.260306967653947
842,0.8319,0.00669837,953.783,0.00819996,0.0147611,0.0187251,0.00287391,-0.301711,0.605329,-0.301792,3.40567e-06,4.65941e-05,-1.93342e-05,0.600788,-0.26044823553161334,3.405675799372787e-06,4.6595185521969285e-05,0.8318547899816515,-1.933401309550664e-05,-0.26050813679850116
843,0.8329,0.00668694,953.946,0.00818626,0.0147827,0.0187097,0.00288201,-0.301984,0.605875,-0.302065,3.43714e-06,4.6626e-05,-1.93233e-05,0.601333,-0.26065010560679414,3.4371459070037247e-06,4.662708700875484e-05,0.8328552557992954,-1.932311330621328e-05,-0.26070999052286814
844,0.8339,0.00667554,954.108,0.00817258,0.0148043,0.0186944,0.00289006,-0.302257,0.606421,-0.302338,3.46865e-06,4.66578e-05,-1.93124e-05,0.601877,-0.26085192057896633,3.468656015748195e-06,4.665888849197941e-05,0.8338562680204298,-1.9312213516808896e-05,-0.2609117891486896
845,0.8349,0.00666417,954.27,0.00815894,0.014826,0.018679,0.00289805,-0.302529,0.606966,-0.30261,3.50018e-06,4.66896e-05,-1.93015e-05,0.602422,-0.26105294151648206,3.500186125604543e-06,4.6690689976314204e-05,0.8348559920865637,-1.930131372729349e-05,-0.26111279380416885
846,0.8359,0.00665282,954.431,0.00814533,0.0148476,0.0186637,0.00290598,-0.302801,0.607511,-0.302883,3.53174e-06,4.67214e-05,-1.92906e-05,0.602966,-0.26125390778373814,3.5317462365735963e-06,4.6722491461537174e-05,0.8358562611508122,-1.929041393755604e-05,-0.26131448247970346
847,0.8369,0.0066415,954.593,0.00813174,0.0148691,0.0186484,0.00291385,-0.303073,0.608055,-0.303155,3.56332e-06,4.6753e-05,-1.92796e-05,0.60351,-0.2614548193956031,3.5633263486545275e-06,4.675409293852795e-05,0.836855238654123,-1.9279414149697693e-05,-0.26151537761749166
848,0.8379,0.00663021,954.754,0.00811819,0.0148907,0.0186332,0.00292167,-0.303345,0.608599,-0.303427,3.59493e-06,4.67847e-05,-1.92687e-05,0.604053,-0.261655676366941,3.594936461848164e-06,4.678579442107811e-05,0.8378547597490391,-1.9268514359738198e-05,-0.2617162181192332
849,0.8389,0.00661894,954.915,0.00810467,0.0149123,0.0186179,0.00292942,-0.303617,0.609143,-0.303699,3.62657e-06,4.68163e-05,-1.92578e-05,0.604596,-0.2618564787126122,3.626576575932461e-06,4.681739590006728e-05,0.838854824731355,-1.9257614569778703e-05,-0.2619170039997871
850,0.8399,0.0066077,955.076,0.00809118,0.0149338,0.0186027,0.00293712,-0.303889,0.609687,-0.30397,3.65824e-06,4.68479e-05,-1.92468e-05,0.605139,-0.26205722644747276,3.6582466913515077e-06,4.6848997379944635e-05,0.8398554338970254,-1.924661478158729e-05,-0.2621169973913746
851,0.8409,0.00659648,955.237,0.00807772,0.0149554,0.0185875,0.00294476,-0.30416,0.61023,-0.304242,3.68993e-06,4.68794e-05,-1.92358e-05,0.605682,-0.26225718184392555,3.6899368078824324e-06,4.6880498856261e-05,0.8408547466865002,-1.9235614993173833e-05,-0.2623176742747908
852,0.8419,0.00658529,955.397,0.00806428,0.0149769,0.0185723,0.00295235,-0.304431,0.610774,-0.304513,3.72165e-06,4.69108e-05,-1.92248e-05,0.606224,-0.26245708305980764,3.7216569253040177e-06,4.691190032879433e-05,0.8418564441056924,-1.9224615204760376e-05,-0.2625175590994452
853,0.8429,0.00657412,955.557,0.00805088,0.0149984,0.0185572,0.00295987,-0.304703,0.611316,-0.304785,3.7534e-06,4.69422e-05,-1.92138e-05,0.606766,-0.2626576674525013,3.753407044060353e-06,4.694330180221584e-05,0.842855000882839,-1.9213615416124874e-05,-0.26271812704489306
854,0.8439,0.00656298,955.717,0.00803751,0.0150199,0.0185421,0.00296733,-0.304974,0.611859,-0.305056,3.78518e-06,4.69736e-05,-1.92028e-05,0.607308,-0.26285746015148825,3.7851871637073486e-06,4.6974703276747576e-05,0.843855942879477,-1.920261562737835e-05,-0.2629179033615503
855,0.8449,0.00655186,955.877,0.00802417,0.0150414,0.018527,0.00297474,-0.305245,0.612401,-0.305327,3.81698e-06,4.70049e-05,-1.91918e-05,0.60785,-0.2630571987139896,3.816987284688267e-06,4.700600474771832e-05,0.8448555836787024,-1.9191615838631826e-05,-0.263117625546161
856,0.8459,0.00654077,956.037,0.00801086,0.0150629,0.0185119,0.00298209,-0.305515,0.612943,-0.305597,3.84881e-06,4.70362e-05,-1.91808e-05,0.608391,-0.263256146411189,3.84881740678189e-06,4.70373062193552e-05,0.8458557664300972,-1.9180616049663257e-05,-0.2633165569303182
857,0.8469,0.0065297,956.196,0.00799758,0.0150844,0.0184969,0.00298938,-0.305786,0.613484,-0.305868,3.88067e-06,4.70674e-05,-1.91697e-05,0.608932,-0.2634557769443526,3.880677529766174e-06,4.7068507687431094e-05,0.8468546445719105,-1.916951626246277e-05,-0.26351617109444914
858,0.8479,0.00651866,956.356,0.00798432,0.0151058,0.0184819,0.00299661,-0.306057,0.614026,-0.306139,3.91255e-06,4.70985e-05,-1.91587e-05,0.609472,-0.2636553533849716,3.912557654084381e-06,4.7099609151723953e-05,0.8478559111079884,-1.9158516473272158e-05,-0.263715731170471
859,0.8489,0.00650765,956.515,0.0079711,0.0151273,0.0184669,0.00300378,-0.306327,0.614567,-0.306409,3.94446e-06,4.71297e-05,-1.91476e-05,0.610012,-0.2638541396022107,3.944467779293248e-06,4.713081062179825e-05,0.8488558716208274,-1.9147416685849628e-05,-0.2639145010879085
860,0.8499,0.00649666,956.673,0.00795791,0.0151488,0.0184519,0.00301089,-0.306597,0.615108,-0.306679,3.9764e-06,4.71607e-05,-1.91365e-05,0.610552,-0.2640528721544162,3.976407905836865e-06,4.716181208319625e-05,0.849856373258665,-1.9136316898316075e-05,-0.26411321734471294
861,0.8509,0.00648569,956.832,0.00794474,0.0151702,0.0184369,0.00301795,-0.306867,0.615648,-0.306949,4.00836e-06,4.71918e-05,-1.91254e-05,0.611092,-0.2642515510560758,4.00836803349236e-06,4.719291355059774e-05,0.850855565457838,-1.91252171106715e-05,-0.26431187995537053
862,0.8519,0.00647475,956.99,0.00793161,0.0151916,0.018422,0.00302494,-0.307137,0.616188,-0.307219,4.04035e-06,4.72228e-05,-1.91143e-05,0.611631,-0.2644501763216732,4.04035816226056e-06,4.7223915013994144e-05,0.8518552973665072,-1.9114117322915902e-05,-0.2645104889343639
863,0.8529,0.00646384,957.149,0.0079185,0.015213,0.0184071,0.00303188,-0.307407,0.616728,-0.307489,4.07237e-06,4.72537e-05,-1.91032e-05,0.612171,-0.26464874796568805,4.072378292141465e-06,4.725481647360752e-05,0.8528555692761943,-1.9103017535049283e-05,-0.2647090442961716
864,0.8539,0.00645294,957.307,0.00790542,0.0152344,0.0183923,0.00303876,-0.307676,0.617267,-0.307759,4.10441e-06,4.72846e-05,-1.90921e-05,0.612709,-0.2648465308494947,4.1044184231342484e-06,4.728571793433112e-05,0.8538545276231235,-1.909191774707164e-05,-0.26490754605526823
865,0.8549,0.00644208,957.465,0.00789237,0.0152559,0.0183774,0.00304558,-0.307946,0.617807,-0.308028,4.13648e-06,4.73154e-05,-1.9081e-05,0.613248,-0.2650449954922329,4.136488555239737e-06,4.731651939127168e-05,0.8548558794086893,-1.9080817958871954e-05,-0.26510525933175144
866,0.8559,0.00643124,957.622,0.00787935,0.0152772,0.0183626,0.00305234,-0.308215,0.618346,-0.308298,4.16858e-06,4.73462e-05,-1.90699e-05,0.613786,-0.2652426717997902,4.16858868845793e-06,4.734732084910043e-05,0.8558559162133985,-1.9069718170561245e-05,-0.2653036541272292
867,0.8569,0.00642042,957.78,0.00786636,0.0152986,0.0183478,0.00305904,-0.308484,0.618884,-0.308567,4.2007e-06,4.7377e-05,-1.90587e-05,0.614324,-0.265440294939572,4.2007088230100464e-06,4.737812230781735e-05,0.8568546353276736,-1.905851838412964e-05,-0.26550126086497117
868,0.8579,0.00640963,957.937,0.0078534,0.01532,0.018333,0.00306568,-0.308753,0.619423,-0.308836,4.23285e-06,4.74077e-05,-1.90476e-05,0.614862,-0.2656378649258788,4.232858958452823e-06,4.740882376275124e-05,0.8578557497522155,-1.9047418595596888e-05,-0.2656988144536495
869,0.8589,0.00639886,958.094,0.00784047,0.0153414,0.0183183,0.00307226,-0.309022,0.619961,-0.309105,4.26503e-06,4.74383e-05,-1.90364e-05,0.615399,-0.2658353817730068,4.26503909523035e-06,4.74394252139021e-05,0.8588555450664064,-1.9036218808832217e-05,-0.2658963149075595
870,0.8599,0.00638811,958.251,0.00782757,0.0153627,0.0183035,0.00307878,-0.309291,0.620499,-0.309374,4.29723e-06,4.74689e-05,-1.90252e-05,0.615936,-0.2660328454952484,4.297239233119754e-06,4.747002666616318e-05,0.8598558784151946,-1.9025019022067546e-05,-0.26609376224099235
871,0.8609,0.00637739,958.408,0.00781469,0.0153841,0.0182888,0.00308525,-0.309559,0.621036,-0.309642,4.32946e-06,4.74995e-05,-1.9014e-05,0.616473,-0.26622952233678177,4.3294693721218636e-06,4.7500628119090393e-05,0.8608548892323011,-1.901381923508083e-05,-0.26629042275902526
872,0.8619,0.0063667,958.564,0.00780184,0.0154054,0.0182742,0.00309165,-0.309828,0.621574,-0.309911,4.36172e-06,4.753e-05,-1.90028e-05,0.61701,-0.2664268800494707,4.361729512236678e-06,4.753112956845662e-05,0.8618562985176512,-1.9002619447983093e-05,-0.26648776409170394
873,0.8629,0.00635602,958.72,0.00778902,0.0154268,0.0182595,0.003098,-0.310096,0.622111,-0.310179,4.394e-06,4.75605e-05,-1.89916e-05,0.617546,-0.26662345130389287,4.394009653685416e-06,4.756163101848898e-05,0.8628563838488339,-1.899141966066331e-05,-0.266684319031389
874,0.8639,0.00634537,958.876,0.00777623,0.0154481,0.0182449,0.00310428,-0.310364,0.622647,-0.310448,4.4263e-06,4.75909e-05,-1.89804e-05,0.618082,-0.26681996988427736,4.426309796023986e-06,4.759203246473831e-05,0.8638551425139875,-1.898021987334353e-05,-0.26688155442022043
875,0.8649,0.00633475,959.032,0.00776347,0.0154694,0.0182303,0.00311051,-0.310632,0.623184,-0.310716,4.45864e-06,4.76213e-05,-1.89692e-05,0.618617,-0.2670164358047392,4.458649939698134e-06,4.762243391209786e-05,0.86485630151265,-1.8969020085912724e-05,-0.267078003838238
876,0.8659,0.00632415,959.188,0.00775074,0.0154907,0.0182157,0.00311667,-0.3109,0.62372,-0.310984,4.491e-06,4.76516e-05,-1.8958e-05,0.619153,-0.26721284907938914,4.491010084484159e-06,4.7652735355452336e-05,0.8658561324210072,-1.8957820298259875e-05,-0.26727440061486574
877,0.8669,0.00631357,959.344,0.00773803,0.015512,0.0182011,0.00312278,-0.311168,0.624255,-0.311251,4.52339e-06,4.76819e-05,-1.89467e-05,0.619688,-0.2674092097223344,4.523400230604935e-06,4.7683036799917033e-05,0.8668546325268143,-1.894652051237511e-05,-0.2674700122345882
878,0.8679,0.00630302,959.499,0.00772535,0.0155333,0.0181866,0.00312883,-0.311435,0.624791,-0.311519,4.5558e-06,4.77122e-05,-1.89355e-05,0.620223,-0.26760478535282994,4.555810377615543e-06,4.7713338245047865e-05,0.8678555348277024,-1.8935320724500215e-05,-0.2676663039670424
879,0.8689,0.00629249,959.654,0.0077127,0.0155546,0.0181721,0.00313482,-0.311703,0.625326,-0.311786,4.58824e-06,4.77424e-05,-1.89242e-05,0.620757,-0.26780104097092794,4.588250525960902e-06,4.774353968661771e-05,0.8688551048999877,-1.8924020938504427e-05,-0.2678618109625378
880,0.8699,0.00628199,959.809,0.00770008,0.0155759,0.0181576,0.00314074,-0.31197,0.625861,-0.312054,4.6207e-06,4.77725e-05,-1.8913e-05,0.621291,-0.2679965119964456,4.620710675418138e-06,4.777364112396043e-05,0.8698552098853383,-1.8912821150296466e-05,-0.2680579977070019
881,0.8709,0.0062715,959.964,0.00768748,0.0155972,0.0181431,0.00314661,-0.312237,0.626396,-0.312321,4.65319e-06,4.78026e-05,-1.89017e-05,0.621825,-0.26819193083816617,4.653200826210124e-06,4.7803742562413376e-05,0.8708558500700088,-1.890152136396761e-05,-0.26825340013422916
882,0.8719,0.00626105,960.118,0.00767491,0.0156185,0.0181287,0.00315242,-0.312504,0.62693,-0.312588,4.68571e-06,4.78327e-05,-1.88904e-05,0.622359,-0.2683872975100211,4.685720977892771e-06,4.78338440017545e-05,0.8718551538843182,-1.8890221577527733e-05,-0.2684487503959728
883,0.8729,0.00625061,960.273,0.00766237,0.0156397,0.0181142,0.00315817,-0.312771,0.627464,-0.312855,4.71825e-06,4.78627e-05,-1.88792e-05,0.622892,-0.2685826120259377,4.71826113090934e-06,4.786384543731259e-05,0.8728549914693686,-1.8879021788986705e-05,-0.2686440485061592
884,0.8739,0.0062402,960.427,0.00764986,0.015661,0.0180998,0.00316386,-0.313038,0.627998,-0.313122,4.75082e-06,4.78927e-05,-1.88679e-05,0.623425,-0.2687778743998398,4.750831285260659e-06,4.789384687375886e-05,0.8738553631102695,-1.8867722002324783e-05,-0.2688392944787109
885,0.8749,0.00622981,960.581,0.00763738,0.0156822,0.0180855,0.00316948,-0.313304,0.628532,-0.313388,4.78342e-06,4.79226e-05,-1.88566e-05,0.623958,-0.2689723536183668,4.783431440502639e-06,4.7923748306200054e-05,0.874856269092283,-1.8856422215440816e-05,-0.26903375736166946
886,0.8759,0.00621945,960.735,0.00762492,0.0157035,0.0180711,0.00317505,-0.313571,0.629065,-0.313655,4.81604e-06,4.79525e-05,-1.88453e-05,0.624491,-0.26916751194515465,4.816051597078541e-06,4.7953649739529425e-05,0.8758558338440519,-1.8845122428445826e-05,-0.26922889929584637
887,0.8769,0.0062091,960.888,0.00761249,0.0157247,0.0180568,0.00318056,-0.313837,0.629598,-0.313921,4.84868e-06,4.79824e-05,-1.8834e-05,0.625023,-0.2693618875338778,4.848691754766321e-06,4.7983551173746974e-05,0.8768559315058411,-1.8833822641339815e-05,-0.2694232585577059
888,0.8779,0.00619878,961.042,0.00760008,0.015746,0.0180425,0.00318601,-0.314103,0.63013,-0.314188,4.88136e-06,4.80122e-05,-1.88227e-05,0.625555,-0.2695562114255704,4.881371913789678e-06,4.801335260418149e-05,0.8778546845061443,-1.882252285412278e-05,-0.26961829650894586
889,0.8789,0.00618849,961.195,0.00758771,0.0157672,0.0180282,0.00319139,-0.314369,0.630663,-0.314454,4.91405e-06,4.80419e-05,-1.88113e-05,0.626086,-0.269750483633982,4.914062073924086e-06,4.804305403061093e-05,0.8788558478393129,-1.8811123068562807e-05,-0.2698125522049215
890,0.8799,0.00617821,961.348,0.00757536,0.0157884,0.0180139,0.00319672,-0.314635,0.631195,-0.31472,4.94678e-06,4.80716e-05,-1.88e-05,0.626618,-0.26994470417285843,4.946792235394071e-06,4.807275545792855e-05,0.8798556650781677,-1.879982328112373e-05,-0.27000675623575376
891,0.8809,0.00616796,961.501,0.00756304,0.0158097,0.0179997,0.00320199,-0.314901,0.631727,-0.314985,4.97953e-06,4.81013e-05,-1.87887e-05,0.627149,-0.2701388730559422,4.9795423979759335e-06,4.810245688613435e-05,0.8808560143613053,-1.8788523493462606e-05,-0.27020017881572755
892,0.8819,0.00615774,961.654,0.00755074,0.0158309,0.0179855,0.00320719,-0.315167,0.632258,-0.315251,5.0123e-06,4.81309e-05,-1.87773e-05,0.62768,-0.27033299029697166,5.012312561669674e-06,4.813205831033507e-05,0.8818550141158927,-1.8777123707569565e-05,-0.2703942797515936
893,0.8829,0.00614753,961.806,0.00753847,0.0158521,0.0179713,0.00321234,-0.315432,0.632789,-0.315517,5.0451e-06,4.81605e-05,-1.8766e-05,0.62821,-0.2705263264363731,5.04511272647612e-06,4.816165973542397e-05,0.8828545444802143,-1.8765823919686397e-05,-0.27058832906347696
894,0.8839,0.00613735,961.958,0.00752623,0.0158733,0.0179571,0.00321742,-0.315697,0.63332,-0.315782,5.07793e-06,4.819e-05,-1.87546e-05,0.62874,-0.27071961134848543,5.077942892617315e-06,4.8191161156729834e-05,0.8838546057360985,-1.8754424133571312e-05,-0.2707815975470701
895,0.8849,0.00612719,962.111,0.00751401,0.0158945,0.017943,0.00322245,-0.315962,0.633851,-0.316047,5.11078e-06,4.82195e-05,-1.87433e-05,0.62927,-0.2709128450468823,5.110793060092433e-06,4.8220662578701834e-05,0.8848551981655237,-1.87431243454661e-05,-0.2709748148213006
896,0.8859,0.00611705,962.263,0.00750183,0.0159157,0.0179288,0.00322741,-0.316227,0.634382,-0.316312,5.14366e-06,4.8249e-05,-1.87319e-05,0.6298,-0.27110602754513324,5.143673228680257e-06,4.825016400178406e-05,0.8858563220506179,-1.8731724559017948e-05,-0.27116798089973704
897,0.8869,0.00610694,962.414,0.00748966,0.0159369,0.0179147,0.00323231,-0.316492,0.634912,-0.316577,5.17656e-06,4.82784e-05,-1.87205e-05,0.630329,-0.2712991588568048,5.176573398379958e-06,4.827956542063916e-05,0.886856090816625,-1.8720324772569796e-05,-0.2713610957959448
898,0.8879,0.00609685,962.566,0.00747753,0.0159581,0.0179007,0.00323716,-0.316757,0.635442,-0.316842,5.20949e-06,4.83077e-05,-1.87092e-05,0.630859,-0.2714922389954595,5.209503569414409e-06,4.830886683571123e-05,0.8878563896005198,-1.8709024984020495e-05,-0.27155415952348516
899,0.8889,0.00608678,962.717,0.00746542,0.0159793,0.0178866,0.00324194,-0.317022,0.635971,-0.317107,5.24245e-06,4.83371e-05,-1.86978e-05,0.631387,-0.2716852679746563,5.242463741561565e-06,4.833826825634269e-05,0.8888553298270132,-1.8697625197239276e-05,-0.27174717209591603
900,0.8899,0.00607673,962.869,0.00745334,0.0160005,0.0178726,0.00324666,-0.317286,0.6365,-0.317371,5.27543e-06,4.83663e-05,-1.86864e-05,0.631916,-0.27187751768583257,5.2754439150426435e-06,4.836746966829786e-05,0.889854798632683,-1.8686225410347035e-05,-0.27193940546656126
901,0.8909,0.00606671,963.02,0.00744128,0.0160217,0.0178585,0.00325132,-0.317551,0.637029,-0.317636,5.30843e-06,4.83956e-05,-1.8675e-05,0.632444,-0.2720704445797033,5.3084440896356e-06,4.839677108603446e-05,0.890854796297222,-1.867482562323275e-05,-0.272132315962343
902,0.8919,0.0060567,963.171,0.00742925,0.0160428,0.0178446,0.00325591,-0.317815,0.637558,-0.3179,5.34146e-06,4.84248e-05,-1.86636e-05,0.632972,-0.27226259261767727,5.341474265563306e-06,4.8425972499543946e-05,0.8918553231004702,-1.8663425836118464e-05,-0.2723244476684279
903,0.8929,0.00604672,963.321,0.00741724,0.016064,0.0178306,0.00326045,-0.318079,0.638087,-0.318164,5.37452e-06,4.84539e-05,-1.86522e-05,0.6335,-0.27245468993526456,5.3745344428257624e-06,4.8455073909270396e-05,0.8928563793224165,-1.8652026048782133e-05,-0.2725165286584371
904,0.8939,0.00603676,963.472,0.00740527,0.0160852,0.0178166,0.00326493,-0.318343,0.638615,-0.318428,5.4076e-06,4.8483e-05,-1.86408e-05,0.634028,-0.2726467365458537,5.407614621200096e-06,4.848417531966298e-05,0.8938560713861787,-1.864062626133478e-05,-0.2727085589457581
905,0.8949,0.00602683,963.622,0.00739331,0.0161063,0.0178027,0.00326934,-0.318606,0.639143,-0.318692,5.44071e-06,4.85121e-05,-1.86294e-05,0.634555,-0.2728380053011983,5.440724800687136e-06,4.8513276730943744e-05,0.8948562914267242,-1.8629226473776406e-05,-0.2729005385437744
906,0.8959,0.00601691,963.772,0.00738139,0.0161275,0.0177888,0.0032737,-0.31887,0.63967,-0.318955,5.47384e-06,4.85411e-05,-1.8618e-05,0.635082,-0.27302995072988734,5.473854981508097e-06,4.854227813821943e-05,0.8958551438668065,-1.861782668610701e-05,-0.27309174055797036
907,0.8969,0.00600702,963.922,0.00736949,0.0161487,0.0177749,0.00327799,-0.319134,0.640198,-0.319219,5.50699e-06,4.85701e-05,-1.86066e-05,0.635608,-0.2732218454916716,5.507005163440937e-06,4.8571279546383295e-05,0.8968564196963256,-1.860642689832659e-05,-0.27328361900939313
908,0.8979,0.00599715,964.072,0.00735761,0.0161698,0.0177611,0.00328222,-0.319397,0.640725,-0.319482,5.54018e-06,4.8599e-05,-1.85952e-05,0.636135,-0.2734129630132516,5.540195346931398e-06,4.860018095054208e-05,0.8978563264818016,-1.8595027110324125e-05,-0.2734747202866742
909,0.8989,0.0059873,964.221,0.00734576,0.016191,0.0177472,0.00328639,-0.31966,0.641251,-0.319746,5.57338e-06,4.86279e-05,-1.85837e-05,0.636661,-0.27360403027753255,5.573395531310865e-06,4.862908235558905e-05,0.8988548615012186,-1.8583527324089744e-05,-0.27366649764479334
910,0.8999,0.00597747,964.371,0.00733394,0.0162122,0.0177334,0.0032905,-0.319923,0.641778,-0.320009,5.60662e-06,4.86568e-05,-1.85723e-05,0.637186,-0.2737950472977303,5.6066357170259096e-06,4.865798376130215e-05,0.899855821743087,-1.8572127535865235e-05,-0.2738574982382338
911,0.9009,0.00596766,964.52,0.00732214,0.0162333,0.0177196,0.00329454,-0.320186,0.642304,-0.320272,5.63988e-06,4.86856e-05,-1.85609e-05,0.637712,-0.2739860140870575,5.639895904074876e-06,4.868678516301017e-05,0.9008554087736662,-1.8560727747529704e-05,-0.27404844860512323
912,0.9019,0.00595788,964.669,0.00731036,0.0162545,0.0177059,0.00329853,-0.320449,0.64283,-0.320535,5.67316e-06,4.87143e-05,-1.85494e-05,0.638237,-0.27417693065872295,5.673176092457766e-06,4.871548656071312e-05,0.9018555217253286,-1.8549227960962256e-05,-0.2742393487586695
913,0.9029,0.00594812,964.818,0.00729862,0.0162756,0.0176921,0.00330245,-0.320712,0.643356,-0.320797,5.70647e-06,4.87431e-05,-1.8538e-05,0.638762,-0.2743677970259323,5.70648628195336e-06,4.87442879641975e-05,0.9028561608747814,-1.8537828172293658e-05,-0.274429473141913
914,0.9039,0.00593837,964.967,0.0072869,0.0162968,0.0176784,0.00330631,-0.320974,0.643881,-0.32106,5.7398e-06,4.87717e-05,-1.85266e-05,0.639287,-0.2745578877601379,5.739816472782877e-06,4.8772889358783544e-05,0.9038554226425028,-1.852642838362506e-05,-0.27462027309918247
915,0.9049,0.00592865,965.115,0.0072752,0.0163179,0.0176647,0.00331011,-0.321236,0.644406,-0.321322,5.77316e-06,4.88004e-05,-1.85151e-05,0.639811,-0.27474792869709486,5.773176664725099e-06,4.880159075892898e-05,0.9048552091603872,-1.8514928596613522e-05,-0.27481029769332166
916,0.9059,0.00591896,965.264,0.00726353,0.0163391,0.017651,0.00331385,-0.321499,0.644931,-0.321585,5.80655e-06,4.8829e-05,-1.85037e-05,0.640335,-0.27493864491156605,5.806566858002071e-06,4.883019215506934e-05,0.9058555207040007,-1.8503528807611858e-05,-0.27500099750690365
917,0.9069,0.00590928,965.412,0.00725188,0.0163602,0.0176373,0.00331753,-0.321761,0.645456,-0.321847,5.83995e-06,4.88575e-05,-1.84922e-05,0.640859,-0.27512858610321655,5.839967052612138e-06,4.885869354698258e-05,0.9068563575490542,-1.8492029020378276e-05,-0.2751909223643141
918,0.9079,0.00589962,965.56,0.00724026,0.0163814,0.0176237,0.00332114,-0.322023,0.64598,-0.322109,5.87339e-06,4.8886e-05,-1.84808e-05,0.641383,-0.2753184775367935,5.873407248335738e-06,4.888719494000604e-05,0.9078558121146372,-1.8480629231043544e-05,-0.27538079746792987
919,0.9089,0.00588999,965.708,0.00722866,0.0164025,0.01761,0.00332469,-0.322285,0.646504,-0.322371,5.90685e-06,4.89145e-05,-1.84693e-05,0.641906,-0.2755083192253317,5.90686744539326e-06,4.8915696333695635e-05,0.9088557905316497,-1.8469129443476895e-05,-0.27557062283078493
920,0.9099,0.00588037,965.855,0.00721709,0.0164237,0.0175964,0.00332818,-0.322546,0.647028,-0.322633,5.94033e-06,4.8943e-05,-1.84579e-05,0.642429,-0.27569738687961176,5.940347643784705e-06,4.894419772827341e-05,0.9098562930746619,-1.845772965403114e-05,-0.2757603984659095
921,0.9109,0.00587078,966.003,0.00720554,0.0164448,0.0175829,0.00333161,-0.322808,0.647551,-0.322894,5.97384e-06,4.89714e-05,-1.84464e-05,0.642952,-0.27588712930690584,5.973857843510899e-06,4.897259911862406e-05,0.9108554091620227,-1.8446229866242447e-05,-0.27594940033609283
922,0.9119,0.00586121,966.15,0.00719402,0.0164659,0.0175693,0.00333498,-0.323069,0.648074,-0.323156,6.00738e-06,4.89997e-05,-1.84349e-05,0.643475,-0.27607609810465594,6.007398044349799e-06,4.9000900504969636e-05,0.9118550479237648,-1.843473007823171e-05,-0.2761390767445103
923,0.9129,0.00585166,966.297,0.00718252,0.0164871,0.0175558,0.00333828,-0.323331,0.648597,-0.323417,6.04094e-06,4.9028e-05,-1.84235e-05,0.643997,-0.2762657413226062,6.040958246522621e-06,4.9029201891981344e-05,0.912855209633318,-1.8423330288341866e-05,-0.27632797979255985
924,0.9139,0.00584213,966.444,0.00717105,0.0165082,0.0175422,0.00334152,-0.323592,0.64912,-0.323678,6.07452e-06,4.90563e-05,-1.8412e-05,0.644519,-0.27645461131551474,6.074538450029365e-06,4.905750327988123e-05,0.9138558945642561,-1.8411830500220105e-05,-0.27651683354334744
925,0.9149,0.00583262,966.591,0.0071596,0.0165294,0.0175288,0.0033447,-0.323853,0.649642,-0.323939,6.10813e-06,4.90845e-05,-1.84006e-05,0.64504,-0.2766434320197876,6.108148654648815e-06,4.908570466377604e-05,0.9148551881341496,-1.8400430709997195e-05,-0.2767056380097379
926,0.9159,0.00582313,966.738,0.00714818,0.0165505,0.0175153,0.00334782,-0.324114,0.650164,-0.3242,6.14176e-06,4.91127e-05,-1.83891e-05,0.645562,-0.2768322034482874,6.141778860602187e-06,4.9113906048336986e-05,0.9158550034714557,-1.8388930921542368e-05,-0.27689439320459297
927,0.9169,0.00581366,966.884,0.00713678,0.0165717,0.0175018,0.00335087,-0.324374,0.650686,-0.324461,6.17542e-06,4.91409e-05,-1.83776e-05,0.646083,-0.2770202026344376,6.175439067890309e-06,4.914210743378611e-05,0.9168553408486086,-1.837743113297652e-05,-0.2770830991407707
928,0.9179,0.00580421,967.031,0.0071254,0.0165928,0.0174884,0.00335386,-0.324635,0.651208,-0.324722,6.20911e-06,4.9169e-05,-1.83662e-05,0.646604,-0.27720887573863884,6.209129276513181e-06,4.917020881500811e-05,0.9178562005381841,-1.836603134242054e-05,-0.27727175583112584
929,0.9189,0.00579478,967.177,0.00711405,0.016614,0.017475,0.00335679,-0.324895,0.651729,-0.324982,6.24281e-06,4.9197e-05,-1.83547e-05,0.647124,-0.2773967770027239,6.242829486469148e-06,4.9198210192225034e-05,0.9188556639562768,-1.8354531553521625e-05,-0.27745964074851215
930,0.9199,0.00578538,967.323,0.00710272,0.0166351,0.0174616,0.00335965,-0.325156,0.65225,-0.325243,6.27655e-06,4.92251e-05,-1.83432e-05,0.647645,-0.27758535183384025,6.2765696975386476e-06,4.922631157522339e-05,0.9198556482304818,-1.8343031764511686e-05,-0.2776481991743318
931,0.9209,0.00577599,967.468,0.00709142,0.0166563,0.0174482,0.00336246,-0.325416,0.652771,-0.325503,6.31031e-06,4.9253e-05,-1.83317e-05,0.648165,-0.2777731552268644,6.3103299099420695e-06,4.925421294887933e-05,0.9208561536322355,-1.8331531975390725e-05,-0.2778359862291715
932,0.9219,0.00576663,967.614,0.00708014,0.0166774,0.0174349,0.0033652,-0.325676,0.653291,-0.325763,6.34409e-06,4.9281e-05,-1.83203e-05,0.648685,-0.27796090979735366,6.344110123679414e-06,4.928221432853874e-05,0.9218552585768967,-1.8320132184279636e-05,-0.27802372446572354
933,0.9229,0.00575728,967.759,0.00706889,0.0166986,0.0174215,0.00336787,-0.325936,0.653811,-0.326023,6.3779e-06,4.93089e-05,-1.83088e-05,0.649204,-0.27814861555799997,6.377920338751508e-06,4.931011570374899e-05,0.9228548831912315,-1.830863239493663e-05,-0.27821141389667914
934,0.9239,0.00574796,967.905,0.00705766,0.0167197,0.0174082,0.00337049,-0.326196,0.654331,-0.326283,6.41173e-06,4.93368e-05,-1.82973e-05,0.649723,-0.2783362725214925,6.411750555157525e-06,4.933801707984742e-05,0.9238550277455386,-1.8297132605482602e-05,-0.278399054534726
935,0.9249,0.00573865,968.05,0.00704645,0.0167409,0.0173949,0.00337304,-0.326455,0.654851,-0.326543,6.44559e-06,4.93646e-05,-1.82859e-05,0.650242,-0.2785231592240368,6.4456107728982914e-06,4.936581845194077e-05,0.9248556925102567,-1.8285732813927424e-05,-0.2785866463925487
936,0.9259,0.00572937,968.195,0.00703527,0.016762,0.0173817,0.00337552,-0.326715,0.65537,-0.326802,6.47947e-06,4.93924e-05,-1.82744e-05,0.650761,-0.2787107188188346,6.479490991750936e-06,4.939361982470025e-05,0.9258549519000512,-1.827423302414033e-05,-0.2787734682566573
937,0.9269,0.0057201,968.339,0.00702411,0.0167832,0.0173684,0.00337795,-0.326974,0.655889,-0.327062,6.51338e-06,4.94201e-05,-1.82629e-05,0.651279,-0.27889750855234585,6.513401212160375e-06,4.9421321193232615e-05,0.9268547300400729,-1.8262733234242212e-05,-0.2789609627795664
938,0.9279,0.00571086,968.484,0.00701297,0.0168044,0.0173552,0.00338031,-0.327234,0.656408,-0.327321,6.54731e-06,4.94478e-05,-1.82514e-05,0.651798,-0.2790849708289703,6.547331433681691e-06,4.9449022562653155e-05,0.9278550271996231,-1.8251233444233073e-05,-0.27914768770828435
939,0.9289,0.00570163,968.628,0.00700186,0.0168255,0.017342,0.00338261,-0.327493,0.656927,-0.32758,6.58127e-06,4.94755e-05,-1.824e-05,0.652315,-0.27927166364376244,6.581291656537758e-06,4.947672393273983e-05,0.9288558436481431,-1.8239833652233806e-05,-0.27933436428150815
940,0.9299,0.00569243,968.773,0.00699077,0.0168467,0.0173288,0.00338484,-0.327752,0.657445,-0.327839,6.61525e-06,4.95031e-05,-1.82285e-05,0.652833,-0.27945830811137673,6.615271880727747e-06,4.950432529859938e-05,0.9298552497989987,-1.82283338618916e-05,-0.2795209925117601
941,0.9309,0.00568324,968.917,0.00697971,0.0168679,0.0173156,0.00338701,-0.32801,0.657963,-0.328098,6.64926e-06,4.95307e-05,-1.8217e-05,0.65335,-0.2796441838888777,6.64928210647453e-06,4.9531926665347115e-05,0.930855173776346,-1.821683407143837e-05,-0.2797075724115595
942,0.9319,0.00567408,969.061,0.00696867,0.0168891,0.0173025,0.00338912,-0.328269,0.658481,-0.328357,6.68329e-06,4.95583e-05,-1.82056e-05,0.653868,-0.27983073188624197,6.683312333333191e-06,4.955952803276098e-05,0.9318556158484887,-1.8205434279106036e-05,-0.2798941039934224
943,0.9329,0.00566493,969.204,0.00695765,0.0169102,0.0172894,0.00339117,-0.328528,0.658998,-0.328615,6.71734e-06,4.95858e-05,-1.81941e-05,0.654384,-0.2800172315739313,6.71736256130373e-06,4.958702939616977e-05,0.9328546434282592,-1.819393448831974e-05,-0.2800798673500886
944,0.9339,0.00565581,969.348,0.00694666,0.0169314,0.0172763,0.00339315,-0.328786,0.659516,-0.328874,6.75142e-06,4.96133e-05,-1.81826e-05,0.654901,-0.2802029631677794,6.751442790831064e-06,4.9614530760022646e-05,0.9338561214939809,-1.8182434697533445e-05,-0.28026630252004825
945,0.9349,0.0056467,969.491,0.00693569,0.0169526,0.0172632,0.00339506,-0.329045,0.660033,-0.329132,6.78553e-06,4.96407e-05,-1.81712e-05,0.655417,-0.2803893664600505,6.785553021693147e-06,4.964193211987045e-05,0.9348561836025728,-1.8171034904757022e-05,-0.28045196986188115
946,0.9359,0.00563762,969.635,0.00692474,0.0169738,0.0172501,0.00339692,-0.329303,0.660549,-0.329391,6.81966e-06,4.96681e-05,-1.81597e-05,0.655933,-0.28057500205548236,6.819683253889153e-06,4.9669333480606426e-05,0.935854827021156,-1.815953511363766e-05,-0.2806383086697696
947,0.9369,0.00562855,969.778,0.00691381,0.016995,0.0172371,0.0033987,-0.329561,0.661066,-0.329649,6.85381e-06,4.96954e-05,-1.81482e-05,0.656449,-0.28076058976310836,6.853833487419081e-06,4.969663483689324e-05,0.9368559227276674,-1.8148035322407274e-05,-0.2808238800463959
948,0.9379,0.00561951,969.921,0.00690291,0.0170162,0.017224,0.00340043,-0.329819,0.661582,-0.329907,6.88799e-06,4.97227e-05,-1.81368e-05,0.656964,-0.28094612959528187,6.888013722283759e-06,4.9723936193846185e-05,0.937855598277906,-1.8136635529186762e-05,-0.2810094035517826
949,0.9389,0.00561048,970.063,0.00689203,0.0170374,0.017211,0.00340209,-0.330076,0.662098,-0.330165,6.9222e-06,4.975e-05,-1.81253e-05,0.65748,-0.28113090269561547,6.922223958483187e-06,4.975123755168731e-05,0.9388557897938363,-1.8125135737734333e-05,-0.281194879198279
950,0.9399,0.00560147,970.206,0.00688118,0.0170586,0.017198,0.00340369,-0.330334,0.662613,-0.330422,6.95643e-06,4.97773e-05,-1.81139e-05,0.657995,-0.28131634699937624,6.956454196016537e-06,4.9778538910416614e-05,0.9398545576862376,-1.8113735944291776e-05,-0.2813795883781788
951,0.9409,0.00559248,970.348,0.00687035,0.0170798,0.0171851,0.00340522,-0.330592,0.663129,-0.33068,6.99068e-06,4.98045e-05,-1.81024e-05,0.658509,-0.28150174346467793,6.99070443488381e-06,4.980574026469675e-05,0.9408557809313858,-1.810223615250628e-05,-0.28156496852930935
952,0.9419,0.00558351,970.491,0.00685954,0.017101,0.0171721,0.00340669,-0.330849,0.663644,-0.330937,7.02496e-06,4.98316e-05,-1.8091e-05,0.659024,-0.28168637379059447,7.0249846750858325e-06,4.983284161474977e-05,0.9418555790844922,-1.8090836358841678e-05,-0.28174958260847205
953,0.9429,0.00557456,970.633,0.00684875,0.0171222,0.0171592,0.00340809,-0.331106,0.664159,-0.331195,7.05926e-06,4.98587e-05,-1.80795e-05,0.659538,-0.28187095667261397,7.0592849166217775e-06,4.985994296569096e-05,0.9428558922662562,-1.8079336566834137e-05,-0.28193486731340434
954,0.9439,0.00556563,970.775,0.00683798,0.0171435,0.0171463,0.00340943,-0.331363,0.664673,-0.331452,7.09359e-06,4.98858e-05,-1.80681e-05,0.660052,-0.282055492122928,7.093615159492472e-06,4.988704431729829e-05,0.9438547768862364,-1.8067936772836468e-05,-0.28211938634079425
955,0.9449,0.00555672,970.917,0.00682724,0.0171647,0.0171334,0.00341071,-0.33162,0.665188,-0.331709,7.12794e-06,4.99129e-05,-1.80566e-05,0.660566,-0.2822399801537251,7.127965403919134e-06,4.991414566957175e-05,0.9448561199200323,-1.8056436980606883e-05,-0.28230385795288715
956,0.9459,0.00554783,971.058,0.00681652,0.0171859,0.0171205,0.00341192,-0.331877,0.665702,-0.331966,7.16232e-06,4.99399e-05,-1.80452e-05,0.661079,-0.2824244207771902,7.162345649458501e-06,4.994114701761809e-05,0.9458560329212982,-1.804503718638717e-05,-0.2824882821618673
957,0.9469,0.00553896,971.2,0.00680583,0.0172072,0.0171077,0.00341307,-0.332134,0.666215,-0.332223,7.19672e-06,4.99669e-05,-1.80337e-05,0.661592,-0.28260881400550575,7.1967458965538356e-06,4.996814836633057e-05,0.9468545131544692,-1.8033537393824517e-05,-0.2826726589799158
958,0.9479,0.0055301,971.341,0.00679515,0.0172284,0.0170948,0.00341415,-0.332391,0.666729,-0.332479,7.23114e-06,4.99938e-05,-1.80223e-05,0.662105,-0.2827931598508505,7.2311661447610476e-06,4.999504971081592e-05,0.9478554535938866,-1.8022137599271737e-05,-0.28285627127584023
959,0.9489,0.00552127,971.482,0.0067845,0.0172497,0.017082,0.00341517,-0.332647,0.667242,-0.332736,7.26559e-06,5.00207e-05,-1.80109e-05,0.662618,-0.2829767413025003,7.265616394525054e-06,5.0021951055967406e-05,0.9488549597930003,-1.8010737804718957e-05,-0.28304055353283797
960,0.9499,0.00551245,971.623,0.00677387,0.0172709,0.0170692,0.00341612,-0.332903,0.667755,-0.332992,7.30007e-06,5.00475e-05,-1.79994e-05,0.66313,-0.2831602757633136,7.30009664562381e-06,5.0048752397113816e-05,0.9498549788703361,-1.7999238011823238e-05,-0.2832240716598111
961,0.9509,0.00550365,971.764,0.00676326,0.0172922,0.0170565,0.00341701,-0.33316,0.668268,-0.333248,7.33457e-06,5.00744e-05,-1.7988e-05,0.663642,-0.2833444799011968,7.334596898056489e-06,5.007565374359757e-05,0.9508555110890684,-1.798783821693739e-05,-0.28340754281215663
962,0.9519,0.00549487,971.905,0.00675268,0.0173134,0.0170437,0.00341783,-0.333416,0.66878,-0.333504,7.36909e-06,5.01011e-05,-1.79766e-05,0.664154,-0.2835279202329778,7.36911715182309e-06,5.010235508096095e-05,0.9518546048569252,-1.797643842194052e-05,-0.2835909670018988
963,0.9529,0.00548611,972.045,0.00674212,0.0173347,0.017031,0.00341859,-0.333672,0.669293,-0.33376,7.40364e-06,5.01279e-05,-1.79652e-05,0.664665,-0.2837113136100443,7.403667406924441e-06,5.012915642410576e-05,0.9528561631469532,-1.7965038626721608e-05,-0.2837743442410582
964,0.9539,0.00547737,972.185,0.00673158,0.017356,0.0170183,0.00341928,-0.333927,0.669805,-0.334016,7.43821e-06,5.01546e-05,-1.79538e-05,0.665177,-0.28389394393871714,7.438237663581759e-06,5.015585776302345e-05,0.9538562815109375,-1.7953638831502694e-05,-0.28395767454165277
965,0.9549,0.00546865,972.326,0.00672106,0.0173773,0.0170056,0.00341991,-0.334183,0.670316,-0.334272,7.47281e-06,5.01813e-05,-1.79423e-05,0.665688,-0.28407724362570785,7.472837921573827e-06,5.018255910238523e-05,0.9548549572106997,-1.794213903794084e-05,-0.28414095791569727
966,0.9559,0.00545995,972.466,0.00671056,0.0173986,0.0169929,0.00342047,-0.334439,0.670828,-0.334528,7.50743e-06,5.02079e-05,-1.79309e-05,0.666198,-0.28426049639398454,7.5074581808998175e-06,5.020916043774193e-05,0.9558560992192755,-1.793073924238886e-05,-0.2843241943752033
967,0.9569,0.00545126,972.605,0.00670009,0.0174199,0.0169802,0.00342097,-0.334694,0.671339,-0.334783,7.54208e-06,5.02345e-05,-1.79195e-05,0.666709,-0.28444298669890133,7.542108441560558e-06,5.023576177354272e-05,0.9568557970870284,-1.7919339446725857e-05,-0.2845066684392057
968,0.9579,0.00544259,972.745,0.00668963,0.0174412,0.0169676,0.0034214,-0.334949,0.67185,-0.335039,7.57675e-06,5.02611e-05,-1.79081e-05,0.667219,-0.2846254304747231,7.57677870355522e-06,5.026236311023169e-05,0.9578560059309347,-1.7907939650951832e-05,-0.2846898112888002
969,0.9589,0.00543394,972.885,0.0066792,0.0174625,0.016955,0.00342176,-0.335204,0.67236,-0.335294,7.61145e-06,5.02876e-05,-1.78967e-05,0.667729,-0.28480782773331326,7.611478967106677e-06,5.028886444247149e-05,0.9588547671564238,-1.7896539855066784e-05,-0.2848721921323758
970,0.9599,0.00542531,973.024,0.00666879,0.0174838,0.0169424,0.00342206,-0.335459,0.672871,-0.335549,7.64617e-06,5.03141e-05,-1.78854e-05,0.668239,-0.2849901784865321,7.646199231992057e-06,5.0315365775599474e-05,0.9598559977350667,-1.788524005719161e-05,-0.28505452647476537
971,0.9609,0.0054167,973.163,0.00665841,0.0175052,0.0169298,0.0034223,-0.335714,0.673381,-0.335804,7.68091e-06,5.03405e-05,-1.7874e-05,0.668748,-0.2851724827462371,7.680939498211359e-06,5.034176710427829e-05,0.9608557792165191,-1.7873840260973495e-05,-0.2852368143278252
972,0.9619,0.00540811,973.302,0.00664804,0.0175265,0.0169172,0.00342247,-0.335969,0.673891,-0.336059,7.71568e-06,5.03669e-05,-1.78626e-05,0.669257,-0.28535474052428245,7.715709765987455e-06,5.036816843362324e-05,0.9618560707165709,-1.786244046475538e-05,-0.28541905570340875
973,0.9629,0.00539953,973.441,0.0066377,0.0175479,0.0169047,0.00342257,-0.336224,0.6744,-0.336313,7.75048e-06,5.03933e-05,-1.78512e-05,0.669766,-0.2855369518325196,7.750510035098301e-06,5.039456976363432e-05,0.9628549096395063,-1.785104066831522e-05,-0.2856005362142595
974,0.9639,0.00539098,973.58,0.00662738,0.0175692,0.0168922,0.00342261,-0.336478,0.67491,-0.336568,7.7853e-06,5.04196e-05,-1.78398e-05,0.670275,-0.2857184024015563,7.78533030554307e-06,5.0420871089418284e-05,0.9638562209561048,-1.783964087176404e-05,-0.2857826848525865
975,0.9649,0.00538244,973.719,0.00661707,0.0175906,0.0168797,0.00342258,-0.336733,0.675419,-0.336822,7.82014e-06,5.04459e-05,-1.78285e-05,0.670783,-0.28590052098783736,7.820170577321761e-06,5.044717241586838e-05,0.9648560782146567,-1.782834107322273e-05,-0.28596407301336235
976,0.9659,0.00537392,973.857,0.00660679,0.017612,0.0168672,0.00342249,-0.336987,0.675928,-0.337077,7.85501e-06,5.04722e-05,-1.78171e-05,0.671292,-0.28608187922203565,7.855040850657247e-06,5.047347374298461e-05,0.9658564445300972,-1.7816941276449505e-05,-0.28614612896162395
977,0.9669,0.00536541,973.996,0.00659654,0.0176333,0.0168547,0.00342233,-0.337241,0.676436,-0.337331,7.8899e-06,5.04984e-05,-1.78058e-05,0.671799,-0.2862631913970922,7.889931125326655e-06,5.049967506565167e-05,0.9668553533052657,-1.780564147768615e-05,-0.28632742481931905
978,0.9679,0.00535693,974.134,0.0065863,0.0176547,0.0168423,0.0034221,-0.337495,0.676944,-0.337585,7.92482e-06,5.05246e-05,-1.77944e-05,0.672307,-0.2864444575247046,7.924851401552857e-06,5.0525876389206914e-05,0.9678547696550048,-1.779424168057986e-05,-0.2865086746337141
979,0.9689,0.00534846,974.272,0.00657608,0.0176761,0.0168298,0.00342181,-0.337749,0.677452,-0.337839,7.95976e-06,5.05508e-05,-1.77831e-05,0.672815,-0.2866256776165673,7.959791678890937e-06,5.0552077713206245e-05,0.9688546938372282,-1.778294188159446e-05,-0.2866898784165025
980,0.9699,0.00534001,974.41,0.00656589,0.0176976,0.0168174,0.00342145,-0.338002,0.67796,-0.338093,7.99473e-06,5.05769e-05,-1.77718e-05,0.673322,-0.2868061384908671,7.994761958007857e-06,5.0578179032978454e-05,0.9698551261099801,-1.777164208249804e-05,-0.2868710361793748
981,0.9709,0.00533158,974.547,0.00655572,0.017719,0.016805,0.00342103,-0.338256,0.678468,-0.338346,8.02972e-06,5.0603e-05,-1.77604e-05,0.673829,-0.2869872667274306,8.029752238236654e-06,5.06042803534168e-05,0.9708560667314361,-1.776024228505868e-05,-0.2870514349858102
982,0.9719,0.00532317,974.685,0.00654556,0.0177404,0.0167926,0.00342054,-0.33851,0.678975,-0.3386,8.06474e-06,5.0629e-05,-1.77491e-05,0.674335,-0.2871683489632644,8.064772520022245e-06,5.0630281669405974e-05,0.9718555441033734,-1.7748942485629193e-05,-0.2872325009249761
983,0.9729,0.00531477,974.822,0.00653543,0.0177618,0.0167803,0.00341998,-0.338763,0.679482,-0.338853,8.09978e-06,5.0655e-05,-1.77378e-05,0.674842,-0.2873486725590799,8.099812803363804e-06,5.065628298628333e-05,0.9728555283388169,-1.7737642686199706e-05,-0.28741280829239835
984,0.9739,0.0053064,974.959,0.00652532,0.0177833,0.0167679,0.00341935,-0.339016,0.679989,-0.339106,8.13484e-06,5.0681e-05,-1.77265e-05,0.675348,-0.28752895053879635,8.13487308781724e-06,5.0682284303604774e-05,0.9738560196948121,-1.7726342886548174e-05,-0.28759307004782675
985,0.9749,0.00529804,975.096,0.00651523,0.0178048,0.0167556,0.00341866,-0.339269,0.680495,-0.33936,8.16993e-06,5.07069e-05,-1.77152e-05,0.675853,-0.2877091829139532,8.169963374049516e-06,5.070818561647705e-05,0.9748550435725032,-1.771504308678562e-05,-0.2877739984291574
986,0.9759,0.00528969,975.233,0.00650517,0.0178262,0.0167433,0.00341791,-0.339522,0.681001,-0.339613,8.20505e-06,5.07328e-05,-1.77039e-05,0.676359,-0.2878893696960869,8.205083661616541e-06,5.073408693023751e-05,0.9758545730841912,-1.7703743286912044e-05,-0.28795416881504
987,0.9769,0.00528137,975.37,0.00649512,0.0178477,0.016731,0.00341708,-0.339775,0.681507,-0.339865,8.24019e-06,5.07587e-05,-1.76926e-05,0.676864,-0.28806951089673105,8.240223950517489e-06,5.07599882446641e-05,0.9768546084857912,-1.7692443486927445e-05,-0.28813358175751835
988,0.9779,0.00527306,975.507,0.00648509,0.0178692,0.0167188,0.00341619,-0.340028,0.682013,-0.340118,8.27535e-06,5.07845e-05,-1.76813e-05,0.677369,-0.28824960652741627,8.27538424075236e-06,5.0785789554641525e-05,0.9778551500333488,-1.76811436867208e-05,-0.2883136611803262
989,0.9789,0.00526477,975.643,0.00647508,0.0178907,0.0167065,0.00341523,-0.34028,0.682519,-0.340371,8.31054e-06,5.08103e-05,-1.767e-05,0.677874,-0.2884289450289711,8.310574532544024e-06,5.081159086506304e-05,0.9788561979830381,-1.7669843886514158e-05,-0.28849369504880285
990,0.9799,0.0052565,975.78,0.0064651,0.0179122,0.0166943,0.00341421,-0.340533,0.683024,-0.340623,8.34575e-06,5.08361e-05,-1.76588e-05,0.678379,-0.2886089497343234,8.345784825891656e-06,5.083739217637273e-05,0.9798557727344013,-1.7658644084317388e-05,-0.28867297204779996
991,0.9809,0.00524824,975.916,0.00645514,0.0179337,0.0166821,0.00341311,-0.340785,0.683529,-0.340876,8.38099e-06,5.08618e-05,-1.76475e-05,0.678883,-0.28878819769279895,8.381025120574037e-06,5.086309348323326e-05,0.9808558523984938,-1.7647344283777677e-05,-0.28885291502212584
992,0.9819,0.00524001,976.052,0.00644519,0.0179553,0.0166699,0.00341195,-0.341037,0.684034,-0.341128,8.41625e-06,5.08875e-05,-1.76363e-05,0.679387,-0.28896740048648006,8.416285416812386e-06,5.088879479075992e-05,0.9818564372303604,-1.7636144481358862e-05,-0.28903210150909464
993,0.9829,0.00523179,976.188,0.00643527,0.0179768,0.0166577,0.00341073,-0.341289,0.684538,-0.34138,8.45154e-06,5.09132e-05,-1.7625e-05,0.679891,-0.2891465581267467,8.451575714385484e-06,5.091449609895271e-05,0.9828555446286398,-1.7624844680597107e-05,-0.2892112428467578
994,0.9839,0.00522358,976.323,0.00642536,0.0179984,0.0166456,0.00340943,-0.341541,0.685042,-0.341632,8.48685e-06,5.09388e-05,-1.76138e-05,0.680395,-0.28932567062497605,8.48688601351455e-06,5.094009740269634e-05,0.9838551557039639,-1.7613644877956247e-05,-0.2893903390464915
995,0.9849,0.0052154,976.459,0.00641548,0.01802,0.0166334,0.00340807,-0.341793,0.685546,-0.341884,8.52219e-06,5.09644e-05,-1.76026e-05,0.680898,-0.2895047379925427,8.522226313978365e-06,5.09656987071061e-05,0.9848552707102498,-1.7602445075093343e-05,-0.289569390119669
996,0.9859,0.00520723,976.594,0.00640562,0.0180415,0.0166213,0.00340664,-0.342045,0.68605,-0.342136,8.55755e-06,5.09899e-05,-1.75913e-05,0.681401,-0.2896837602408179,8.557586615998147e-06,5.0991200007066695e-05,0.9858558899015428,-1.759114527399852e-05,-0.2897483960776608
997,0.9869,0.00519908,976.73,0.00639578,0.0180631,0.0166092,0.00340514,-0.342296,0.686553,-0.342387,8.59293e-06,5.10154e-05,-1.75801e-05,0.681904,-0.2898620272435527,8.592966919351852e-06,5.1016701307693424e-05,0.9868550266759961,-1.757994547091357e-05,-0.2899266468588364
998,0.9879,0.00519094,976.865,0.00638595,0.0180847,0.0165971,0.00340358,-0.342548,0.687056,-0.342639,8.62834e-06,5.10409e-05,-1.75689e-05,0.682406,-0.2900409594662804,8.628377224262351e-06,5.104220260898629e-05,0.9878546661426635,-1.7568745667828622e-05,-0.29010556279947264
999,0.9889,0.00518282,977.0,0.00637615,0.0181064,0.016585,0.00340195,-0.342799,0.687559,-0.34289,8.66378e-06,5.10664e-05,-1.75577e-05,0.682909,-0.2902191368232606,8.663817530729645e-06,5.106770391072324e-05,0.9888548085544628,-1.755754586452163e-05,-0.29028372394305113
