,Time,S11,S22,S33,S12,S13,S23,LE11,LE22,LE33,LE12,LE13,LE23,SDV_EPBAR,E11,E12,E13,E22,E23,E33
0,1e-05,-1.66533e-16,2.08407,-2.22045e-16,-1.69736e-17,0.0,-3.59433e-39,-2.99999e-06,9.99995e-06,-2.99999e-06,0.0,0.0,0.0,0.0,-2.999985500018454e-06,0.0,0.0,9.999999999621423e-06,0.0,-2.999985500018454e-06
1,2e-05,3.33067e-16,4.16811,4.44089e-16,2.20659e-22,0.0,-3.59433e-39,-5.99994e-06,1.99998e-05,-5.99994e-06,0.0,0.0,0.0,0.0,-5.999922000343716e-06,0.0,0.0,1.9999999997244444e-05,0.0,-5.999922000343716e-06
2,3.5e-05,-1.11022e-16,7.29414,-2.22045e-16,2.20659e-22,1.37033e-38,-3.59433e-39,-1.04998e-05,3.49994e-05,-1.04998e-05,0.0,0.0,0.0,0.0,-1.0499744877323636e-05,0.0,0.0,3.5000012486241516e-05,0.0,-1.0499744877323636e-05
3,5.75e-05,-4.21885e-15,11.9831,-4.44089e-15,-1.69731e-17,3.39477e-17,-1.0783e-38,-1.72495e-05,5.74983e-05,-1.72495e-05,0.0,0.0,0.0,0.0,-1.7249351228265652e-05,0.0,0.0,5.749995305892597e-05,0.0,-1.7249351228265652e-05
4,9.125e-05,-2.88658e-14,19.0163,-2.93099e-14,-1.69724e-17,0.0,-3.39462e-17,-2.73738e-05,9.12458e-05,-2.73738e-05,0.0,0.0,0.0,0.0,-2.737342534098186e-05,0.0,0.0,9.124996302456445e-05,0.0,-2.737342534098186e-05
5,0.00014188,-1.57208e-13,29.5657,-1.57208e-13,1.69742e-17,1.35791e-16,1.48934e-21,-4.25595e-05,0.000141865,-4.25595e-05,0.0,0.0,0.0,0.0,-4.255859435731146e-05,0.0,0.0,0.00014187506331508892,0.0,-4.255859435731146e-05
6,0.00021781,-8.01581e-13,45.3888,-8.01137e-13,8.48612e-17,6.78954e-17,-6.78872e-17,-6.53366e-05,0.000217789,-6.53366e-05,0.0,0.0,0.0,0.0,-6.533446561085565e-05,0.0,0.0,0.0002178127177461242,0.0,-6.533446561085565e-05
7,0.00033172,-4.04787e-12,69.1212,-4.05009e-12,-1.86693e-16,4.75268e-16,-6.78772e-17,-9.94991e-05,0.000331664,-9.94991e-05,0.0,0.0,0.0,0.0,-9.949415012866503e-05,0.0,0.0,0.0003317190065854625,0.0,-9.949415012866503e-05
8,0.00050258,-2.05174e-11,104.715,-2.05169e-11,-1.86651e-16,3.39477e-16,2.03659e-16,-0.000150736,0.000502452,-0.000150736,0.0,0.0,0.0,0.0,-0.00015072463989995732,0.0,0.0,0.0005025782501502096,0.0,-0.00015072463989995732
9,0.00075887,-1.03756e-10,158.094,-1.03753e-10,-1.86589e-16,6.78954e-17,2.03591e-16,-0.000227574,0.000758579,-0.000227574,0.0,0.0,0.0,0.0,-0.0002275481070015406,0.0,0.0,0.0007588667938165372,0.0,-0.0002275481070015406
10,0.0011433,-5.24726e-10,238.136,-5.24729e-10,3.56396e-16,6.11059e-16,2.0349e-16,-0.000342794,0.00114265,-0.000342794,0.0,0.0,0.0,0.0,-0.00034273525284966855,0.0,0.0,0.0011433030732321825,0.0,-0.00034273525284966855
11,0.00172,-2.65266e-09,358.143,-2.65265e-09,-1.86627e-16,-4.75268e-16,2.03337e-16,-0.000515542,0.00171847,-0.000515542,0.0,0.0,0.0,0.0,-0.0005154091310572984,0.0,0.0,0.001719947415747436,0.0,-0.0005154091310572984
12,0.0025849,0.154165,383.057,0.252857,-0.045816,0.113419,-0.0829794,-0.000936952,0.00258159,-0.000909378,-6.95012e-07,-2.1597e-06,2.23439e-06,0.000774973,-0.0009365131975311858,-6.950117584780813e-07,-2.1596976678139868e-06,0.0025849251728629064,2.234392496358595e-06,-0.0009089646411358787
13,0.0034499,-0.174367,396.149,-0.293872,0.0516848,0.0638999,-0.225553,-0.00137015,0.00344396,-0.00131572,8.83286e-07,-6.06078e-06,1.85988e-06,0.0016056,-0.001369211773041612,8.832863900298804e-07,-6.060761633563949e-06,0.0034498972441614484,1.8598817295156778e-06,-0.0013148548199273247
14,0.0043149,0.225346,408.531,0.358998,-0.0849887,0.128954,-0.0922327,-0.00180345,0.0043056,-0.00171871,-1.19193e-06,-6.96373e-06,5.21213e-06,0.00244121,-0.0018018247612078264,-1.1919292896012124e-06,-6.963705753260108e-06,0.0043148824130179175,5.212143583177564e-06,-0.0017172338637724271
15,0.0051799,0.157664,419.064,0.264417,-0.0616205,0.131001,-0.11793,-0.0022383,0.00516648,-0.0021252,-1.15797e-06,-8.01295e-06,5.8122e-06,0.00328302,-0.002235796874485274,-1.1579693295349358e-06,-8.012917896427219e-06,0.005179849271904402,5.812216890888067e-06,-0.00212294336136587
16,0.0061799,-0.16444,429.72,-0.192224,0.0290263,0.068419,-0.208438,-0.00274283,0.00616084,-0.00259647,1.93244e-07,-1.07795e-05,5.02144e-06,0.00426196,-0.0027390718785434975,1.9324401856479767e-07,-1.0779441901420661e-05,0.006179857008276057,5.021452607500976e-06,-0.0025931020872949073
17,0.0071799,-0.207262,439.619,-0.306223,0.0508211,0.0708681,-0.236095,-0.00324691,0.0071542,-0.00306738,7.92653e-07,-1.21594e-05,4.292e-06,0.00524424,-0.003241644488148676,7.926533140967251e-07,-1.2159326074789867e-05,0.007179852426528299,4.292009210704606e-06,-0.0030626803963526017
18,0.0081799,0.18809,449.214,0.280478,-0.0682883,0.143632,-0.118238,-0.00375068,0.00814658,-0.00353595,-1.0322e-06,-1.15906e-05,6.15361e-06,0.00622845,-0.0037436549853738788,-1.0321994672324308e-06,-1.159053282928646e-05,0.008179853677031446,6.153628933525113e-06,-0.003529705890586432
19,0.0091799,-0.206474,457.123,-0.331947,0.0561334,0.0735093,-0.244166,-0.00425579,0.00913798,-0.00400921,8.55138e-07,-1.31852e-05,3.58909e-06,0.00721689,-0.00424674695871452,8.551383656740796e-07,-1.3185113075686594e-05,0.009179858804601926,3.589096440714812e-06,-0.004001183847347822
20,0.01018,0.231304,465.481,0.368522,-0.083506,0.154624,-0.0972675,-0.0047597,0.0101284,-0.00447767,-1.3059e-06,-1.19434e-05,5.57907e-06,0.00820513,-0.004748390578221406,-1.305899147263645e-06,-1.1943328677932463e-05,0.010179865852104397,5.579085563089947e-06,-0.004467660181480038
21,0.01118,-0.224343,472.183,-0.364514,0.0653013,0.0696113,-0.248076,-0.00526477,0.0111178,-0.0049516,9.17858e-07,-1.33834e-05,2.38859e-06,0.00919701,-0.005250935387755451,9.17858421267681e-07,-1.338331044264951e-05,0.011179832413263036,2.388592852620164e-06,-0.00493936103786774
22,0.01218,0.258415,479.642,0.413818,-0.0912054,0.160317,-0.0827312,-0.0057684,0.0121063,-0.00541983,-1.48839e-06,-1.17062e-05,4.48729e-06,0.0101877,-0.005751794724685566,-1.4883888923566957e-06,-1.1706131482713822e-05,0.012179877868638389,4.4873000679679365e-06,-0.00540516921965617
23,0.01318,-0.230672,485.463,-0.376421,0.0706457,0.0669224,-0.246939,-0.00627319,0.0130938,-0.00589392,9.12244e-07,-1.30444e-05,9.82461e-07,0.0111816,-0.006253554623882107,9.122444160070131e-07,-1.3044314922217026e-05,0.013179899177290011,9.824614826126066e-07,-0.005876584927414719
24,0.01418,0.263909,492.205,0.423943,-0.0916696,0.161338,-0.075347,-0.00677638,0.0140803,-0.00636191,-1.56219e-06,-1.11514e-05,3.06481e-06,0.0121738,-0.006753472110442638,-1.5621887797800937e-06,-1.1151337823367413e-05,0.014179894314331642,3.0648146964740164e-06,-0.006341715897624001
25,0.01518,-0.220646,497.379,-0.361652,0.0704625,0.0670797,-0.240018,-0.00728069,0.0150658,-0.00683574,8.29686e-07,-1.23495e-05,-4.79208e-07,0.0131688,-0.007254249982664773,8.296863442947e-07,-1.2349423745283694e-05,0.015179861252955895,-4.792078851512116e-07,-0.006812429474466364
26,0.01618,0.250139,503.51,0.402962,-0.0857161,0.158225,-0.0746634,-0.00778337,0.0160504,-0.00730357,-1.53202e-06,-1.0421e-05,1.42651e-06,0.0141618,-0.00775315801023424,-1.5320188264666967e-06,-1.0420945701583584e-05,0.016179899582425605,1.4265110175326612e-06,-0.007276963745578735
27,0.01718,-0.196133,508.208,-0.323156,0.0651684,0.0700595,-0.22804,-0.00828703,0.0170339,-0.00777681,6.8394e-07,-1.14169e-05,-1.93347e-06,0.0151573,-0.008252787222484348,6.839402337810441e-07,-1.1416834827415734e-05,0.01717980413613107,-1.933468130821403e-06,-0.007746648849600746
28,0.01818,0.222469,513.801,0.359055,-0.0749872,0.152096,-0.0792606,-0.00878915,0.0180166,-0.00824454,-1.41976e-06,-9.58464e-06,-3.42837e-07,0.0161507,-0.008750638332004623,-1.4197589921494114e-06,-9.584594067524321e-06,0.018179878035485153,-3.428369412805665e-07,-0.008210646988150438
29,0.01918,0.235687,518.669,0.390745,-0.0800933,0.152685,-0.071767,-0.00929171,0.0189982,-0.00871427,-1.85952e-06,-8.7384e-06,-4.83384e-07,0.0171451,-0.009248675453954136,-1.8595182711411695e-06,-8.738361820248564e-06,0.019179814092091574,-4.833838831430626e-07,-0.00867641080075876
30,0.02018,-0.100125,522.87,-0.200655,0.0446263,0.0928594,-0.196308,-0.00979411,0.0199789,-0.00918634,-7.95948e-08,-9.1007e-06,-3.27768e-06,0.0181404,-0.009746303904672238,-7.959479686459048e-08,-9.10065858872322e-06,0.020179814005581553,-3.2776746283769143e-06,-0.009144274486618365
31,0.02118,-0.241319,527.194,-0.386758,0.084461,0.059649,-0.230918,-0.0102959,0.0209587,-0.00965671,8.26421e-07,-9.3705e-06,-5.22883e-06,0.0191349,-0.010243078658110472,8.26421341582062e-07,-9.370456096946533e-06,0.021179876037728196,-5.228816329694297e-06,-0.009610233699019699
32,0.02218,0.3099,532.209,0.457071,-0.0910434,0.177363,-0.0475557,-0.0107962,0.0219375,-0.0101229,-1.78486e-06,-6.82001e-06,-3.04658e-06,0.0201275,-0.010738130198389095,-1.7848584071833429e-06,-6.8199867437890305e-06,0.022179896230437146,-3.0465753592112677e-06,-0.010071835898646686
33,0.02318,0.295833,536.392,0.479716,-0.0966019,0.163749,-0.0451919,-0.0112974,0.0229153,-0.0105915,-2.29729e-06,-6.00248e-06,-3.12237e-06,0.0211212,-0.011233824016286253,-2.29728736123036e-06,-6.002461985121776e-06,0.023179872541717383,-3.1223651254519424e-06,-0.010535607566156457
34,0.02418,-0.118576,539.875,-0.239172,0.0564423,0.0858705,-0.19956,-0.0117984,0.0238921,-0.0110629,-1.17494e-07,-6.57413e-06,-6.34262e-06,0.0221157,-0.011729071800525182,-1.1749399309035624e-07,-6.5741083904446995e-06,0.024179802927710714,-6.342599885633682e-06,-0.011001931159643319
35,0.02518,-0.271834,543.615,-0.438705,0.0996431,0.0498386,-0.236478,-0.0122986,0.0248681,-0.0115322,8.86364e-07,-6.88521e-06,-8.37571e-06,0.0231091,-0.0122232813067088,8.863643927714548e-07,-6.885186296989865e-06,0.025179890378655756,-8.375674923843945e-06,-0.011465959060686592
36,0.02618,-0.212034,547.493,-0.331829,0.0781121,0.0598862,-0.211278,-0.012798,0.025843,-0.012,9.79677e-07,-6.53307e-06,-9.44338e-06,0.0241015,-0.012716453844591746,9.7967747980654e-07,-6.53304865949611e-06,0.0261798255930088,-9.44333541141873e-06,-0.011928287138069482
37,0.02718,0.172966,551.654,0.249678,-0.0446999,0.144308,-0.0842458,-0.0132966,0.026817,-0.0124657,-7.5101e-07,-4.61292e-06,-8.29837e-06,0.0250928,-0.013208590720786062,-7.510097179697084e-07,-4.612909360490747e-06,0.02717981165729455,-8.298335568590609e-06,-0.01238832500661724
38,0.02818,-0.250214,554.703,-0.401553,0.0949836,0.0515418,-0.225183,-0.013796,0.0277901,-0.0129355,1.42713e-06,-5.58571e-06,-1.15438e-05,0.0260855,-0.013701271317995478,1.427131018250094e-06,-5.585694399901087e-06,0.028179846820213683,-1.1543733370644738e-05,-0.01285219599970111
39,0.02918,-0.299191,558.125,-0.473539,0.110701,0.0407282,-0.236015,-0.0142943,0.0287622,-0.013403,2.12355e-06,-5.60679e-06,-1.32395e-05,0.0270768,-0.014192621544421802,2.1235522547069507e-06,-5.606774281963212e-06,0.029179826410640874,-1.3239412358201363e-05,-0.013313579741218495
40,0.03018,0.288676,562.253,0.435582,-0.0823629,0.169796,-0.0351305,-0.0147913,0.0297334,-0.0138664,-6.48923e-07,-2.93399e-06,-1.08329e-05,0.0280661,-0.01468244608003455,-6.489227895034588e-07,-2.9339856958410238e-06,0.030179851391577195,-1.0832841324304177e-05,-0.013770704304424841
41,0.03118,0.273484,565.553,0.449375,-0.0863571,0.156917,-0.0347875,-0.0152892,0.0307036,-0.0143325,-1.0755e-06,-2.12349e-06,-1.09352e-05,0.0290562,-0.015172913578115232,-1.075499421632209e-06,-2.1234877454201495e-06,0.0311798168882218,-1.093514021088815e-05,-0.0142302786670232
42,0.03218,-0.0936874,568.27,-0.199636,0.0537884,0.0867648,-0.176848,-0.0157868,0.0316729,-0.014801,9.16192e-07,-2.5312e-06,-1.38374e-05,0.0300467,-0.015662841632109847,9.161924197087501e-07,-2.531196796495827e-06,0.0321798240599116,-1.3837304263630834e-05,-0.014692003613953397
43,0.03318,-0.22511,571.262,-0.366596,0.0901213,0.0538602,-0.208743,-0.0162836,0.0326413,-0.0152674,1.76772e-06,-2.70583e-06,-1.55871e-05,0.031036,-0.016151738880255118,1.7677215624622988e-06,-2.705826339211015e-06,0.03317987114617682,-1.5586978521775485e-05,-0.01515144411361491
44,0.03418,0.280299,574.965,0.414636,-0.0760749,0.167492,-0.0342307,-0.016779,0.0336087,-0.0157298,-6.34575e-07,-2.42291e-07,-1.35253e-05,0.0320231,-0.016639016600156986,-6.345747987079875e-07,-2.4229097062011817e-07,0.034179852966743196,-1.3525208533593513e-05,-0.015606732814996693
45,0.03518,0.229775,577.917,0.379514,-0.0694568,0.14638,-0.044185,-0.0172752,0.0345752,-0.0161946,-8.47716e-07,3.91567e-07,-1.38422e-05,0.0330109,-0.017126839281303652,-8.47715640683866e-07,3.915670767629109e-07,0.035179870975493355,-1.3842104197192562e-05,-0.01606417248836889
46,0.03618,-0.0458066,580.46,-0.124395,0.0401432,0.0950364,-0.15534,-0.0177709,0.0355407,-0.0166611,6.97978e-07,2.88413e-07,-1.62005e-05,0.0339988,-0.01761392877196777,6.979782436467019e-07,2.8841304167137594e-07,0.03617981978853102,-1.620036877258979e-05,-0.016523071505385123
47,0.03718,0.267359,583.752,0.428143,-0.073792,0.165868,-0.0213558,-0.0182655,0.0365053,-0.0171231,-1.03703e-06,2.20315e-06,-1.45675e-05,0.0349844,-0.01809969678246537,-1.0370294623029963e-06,2.2031524269383596e-06,0.03717980105612817,-1.4567393894493463e-05,-0.01697733290388659
48,0.03818,-0.275049,585.839,-0.477988,0.117323,0.043187,-0.231101,-0.0187607,0.037469,-0.0175904,1.85373e-06,8.53806e-07,-1.86763e-05,0.0359716,-0.018585813440200383,1.8537317181266388e-06,8.538063644980554e-07,0.03817981300877116,-1.8676125599026427e-05,-0.01743659208195636
49,0.03918,0.201632,589.222,0.336279,-0.0583463,0.138906,-0.0480344,-0.0192541,0.0384318,-0.0180508,-5.84727e-07,2.88978e-06,-1.66188e-05,0.0369555,-0.01906992376001193,-5.847268290670726e-07,2.8897841755082254e-06,0.03917985387515732,-1.6618661908496257e-05,-0.017888860154862574
50,0.04018,-0.314291,591.221,-0.542862,0.130775,0.0277093,-0.24936,-0.0197483,0.0393936,-0.0185173,2.33269e-06,1.58375e-06,-2.07364e-05,0.0379412,-0.019554579635358782,2.3326927207634185e-06,1.5837512541416743e-06,0.04017981786421143,-2.0736185002312446e-05,-0.01834690815359774
51,0.04118,0.201948,594.547,0.338256,-0.0580334,0.138393,-0.04455,-0.0202408,0.0403545,-0.0189768,-2.66722e-07,3.80067e-06,-1.83873e-05,0.0389236,-0.02003733011782427,-2.6672196440369333e-07,3.8006772224985497e-06,0.041179807019043224,-1.8387130954589104e-05,-0.0187978741319329
52,0.04218,0.206494,597.142,0.355222,-0.0607356,0.137866,-0.0403783,-0.0207337,0.0413145,-0.0194388,-5.50346e-07,4.6263e-06,-1.85198e-05,0.0399066,-0.020520234696199013,-5.503458485600632e-07,4.626310701416614e-06,0.04217981956300165,-1.8519628509516828e-05,-0.019251084814355113
53,0.04318,-0.0572284,599.304,-0.135788,0.0464695,0.0888926,-0.149686,-0.0212262,0.0422736,-0.0199027,9.85365e-07,4.51717e-06,-2.08029e-05,0.0408897,-0.02100250971064055,9.85365485428602e-07,4.517180202334714e-06,0.04317985371766464,-2.0802683621146123e-05,-0.01970594872226894
54,0.04418,0.259236,602.222,0.416851,-0.0690559,0.161656,-0.0155174,-0.0217177,0.0432317,-0.0203621,-7.40694e-07,6.41252e-06,-1.91486e-05,0.0418704,-0.021483568747175386,-7.406937256870805e-07,6.412540560329916e-06,0.044179803284859265,-1.914841666672551e-05,-0.020156192380539006
55,0.04518,-0.262301,603.974,-0.458031,0.117063,0.0415361,-0.220452,-0.0222097,0.044189,-0.0208266,2.07015e-06,5.10095e-06,-2.30913e-05,0.0428526,-0.02196488041897149,2.070152142819026e-06,5.100963009763149e-06,0.04517987521860101,-2.3091033398037197e-05,-0.0206112241398706
56,0.04618,-0.303824,606.333,-0.498779,0.126514,0.0284278,-0.226676,-0.0227005,0.0451453,-0.0212878,2.70794e-06,5.03927e-06,-2.45841e-05,0.0438328,-0.022444782278112196,2.7079436664134704e-06,5.039282697127945e-06,0.04617985879921371,-2.4583797813448882e-05,-0.021062814098648186
57,0.04718,0.267442,609.422,0.408515,-0.0702384,0.158809,-0.0201603,-0.0231901,0.0461007,-0.0217449,-3.51842e-08,7.62654e-06,-2.20616e-05,0.0448108,-0.022923276167846396,-3.518419933179473e-08,7.626569082042067e-06,0.04717985665922253,-2.206135664473141e-05,-0.021510184032136004
58,0.04818,0.224308,611.702,0.377115,-0.0642799,0.140558,-0.0292786,-0.0236804,0.0470552,-0.0222048,-2.18634e-07,8.23884e-06,-2.22962e-05,0.0457895,-0.02340221946299792,-2.186339761456324e-07,8.23887393930356e-06,0.048179867011421074,-2.2295951441542172e-05,-0.021960088035144265
59,0.04918,-0.0427358,613.604,-0.11808,0.0447317,0.0893111,-0.140937,-0.0241703,0.0480088,-0.0226663,1.3276e-06,8.10379e-06,-2.45377e-05,0.0467681,-0.023880537542103064,1.327600881229074e-06,8.10382283589206e-06,0.049179888066861466,-2.4537398953139444e-05,-0.022411349317965734
60,0.05018,0.247245,616.244,0.400319,-0.0638188,0.156944,-0.012938,-0.0246592,0.0489614,-0.0231235,-2.83868e-07,9.88895e-06,-2.29548e-05,0.0477444,-0.024357645708704134,-2.8386795969392864e-07,9.88899889575734e-06,0.05017981301687269,-2.2954536540553683e-05,-0.022858200691049824
61,0.05118,-0.237013,617.803,-0.421116,0.111654,0.0442929,-0.207376,-0.0251485,0.0499132,-0.0235855,2.36032e-06,8.69624e-06,-2.66542e-05,0.0487221,-0.024834910740246796,2.3603227856661135e-06,8.696277812303421e-06,0.051179850005008465,-2.6653844779955804e-05,-0.02330953593586116
62,0.05218,-0.271444,619.941,-0.448368,0.118098,0.0321815,-0.211083,-0.0256366,0.0508641,-0.0240443,2.91359e-06,8.68071e-06,-2.79859e-05,0.0496977,-0.025310772676761406,2.9135942445357443e-06,8.680747677569656e-06,0.05217989231914233,-2.7985508398331582e-05,-0.02375753874107167
63,0.05318,0.238928,622.732,0.363344,-0.0588544,0.15051,-0.02475,-0.0261235,0.051814,-0.0244994,4.6887e-07,1.10489e-05,-2.57523e-05,0.0506713,-0.025785233344722047,4.688701098487513e-07,1.1048961039428207e-05,0.05317983284542116,-2.5751968412368598e-05,-0.024201725602803648
64,0.05418,-0.32729,624.107,-0.541089,0.139578,0.0180901,-0.233136,-0.0266117,0.0527631,-0.0249605,3.50582e-06,9.44479e-06,-2.97771e-05,0.0516468,-0.026260728915890152,3.5058261453890793e-06,9.444834602190255e-06,0.05417988032223553,-2.977665666659135e-05,-0.024651562469268584
65,0.05518,-0.310556,626.202,-0.508359,0.132686,0.0221261,-0.221225,-0.0270983,0.0537112,-0.0254179,3.94388e-06,9.57006e-06,-3.09638e-05,0.05262,-0.0267344351831178,3.943887777024813e-06,9.570105793166306e-06,0.055179822214319385,-3.0963320626464785e-05,-0.025097584831504705
66,0.05618,0.233537,628.944,0.36171,-0.0578217,0.148443,-0.020672,-0.0275838,0.0546585,-0.0258717,1.33564e-06,1.20173e-05,-2.85289e-05,0.0535911,-0.027206840929062337,1.3356408918863139e-06,1.2017372208017463e-05,0.05617986765664207,-2.8528493054791326e-05,-0.025539895179699568
67,0.05718,-0.339466,630.212,-0.564072,0.145257,0.013876,-0.235886,-0.0280706,0.0556048,-0.0263317,4.44702e-06,1.03637e-05,-3.26419e-05,0.0545643,-0.027680281394139472,4.447029888110521e-06,1.0363753703224177e-05,0.05717980371053044,-3.264136725900091e-05,-0.02598804374584429
68,0.05818,-0.311376,632.234,-0.512194,0.134313,0.0208779,-0.219213,-0.0285559,0.0565503,-0.0267879,4.83458e-06,1.05214e-05,-3.37427e-05,0.0555351,-0.028152033673629506,4.834591686542211e-06,1.0521455350076536e-05,0.05817983990755082,-3.374213072149246e-05,-0.026432286660774018
69,0.05918,0.225612,634.882,0.350464,-0.0549666,0.146051,-0.0195224,-0.0290401,0.0574949,-0.0272405,2.25456e-06,1.29322e-05,-3.13132e-05,0.0565039,-0.028622488552607073,2.2545625415482107e-06,1.2932283621314156e-05,0.05917986882362647,-3.131270974687794e-05,-0.02687282370677757
70,0.06018,-0.328921,636.089,-0.548963,0.142731,0.0152711,-0.229493,-0.0295255,0.0584386,-0.0276992,5.28296e-06,1.1338e-05,-3.5307e-05,0.0574747,-0.029093880780514336,5.282973954967574e-06,1.1338064275445703e-05,0.060179888650975455,-3.5306376715227294e-05,-0.027319094782447206
71,0.06118,-0.297039,638.035,-0.48986,0.130136,0.0229956,-0.211275,-0.0300095,0.0593814,-0.0281542,5.6279e-06,1.15204e-05,-3.63263e-05,0.0584431,-0.029563685640269344,5.62791583669231e-06,1.1520466359993264e-05,0.061179897580131426,-3.632564020794593e-05,-0.027761563924957766
72,0.06218,0.213209,640.569,0.330624,-0.0502711,0.142694,-0.0206506,-0.0304924,0.0603233,-0.0286058,3.17846e-06,1.38351e-05,-3.40185e-05,0.0594096,-0.030032196205493245,3.178465051378865e-06,1.3835195705524939e-05,0.0621798937999507,-3.4017921377360594e-05,-0.028200527677213705
73,0.06318,-0.305942,641.745,-0.512654,0.135582,0.019751,-0.218048,-0.0309764,0.0612643,-0.0290631,6.02579e-06,1.2369e-05,-3.77718e-05,0.0603779,-0.030501547030467813,6.025808155118995e-06,1.2369076496376863e-05,0.0631798754976165,-3.777108665459217e-05,-0.028644829978442976
74,0.06418,-0.274436,643.616,-0.453201,0.122729,0.0269933,-0.200166,-0.031459,0.0622044,-0.0295169,6.33385e-06,1.25719e-05,-3.87156e-05,0.061344,-0.030969314102597734,6.333870058883306e-06,1.2571979026709812e-05,0.06417984085864337,-3.871485056083923e-05,-0.02908553095198485
75,0.06518,0.198625,646.03,0.306563,-0.0446586,0.13884,-0.0230497,-0.0319406,0.0631437,-0.0299675,4.06996e-06,1.47584e-05,-3.65923e-05,0.0623081,-0.03143588692117316,4.069968282394143e-06,1.4758508905643453e-05,0.06517989458486673,-3.659163050995229e-05,-0.02952292645912935
76,0.06618,-0.276881,647.192,-0.465833,0.126091,0.0257922,-0.20416,-0.0324233,0.064082,-0.0304235,6.68731e-06,1.34544e-05,-4.00458e-05,0.0632739,-0.03190329999933428,6.6873323600891155e-06,1.3454490510822481e-05,0.06617982192250427,-4.004499817766849e-05,-0.029965363121438493
77,0.06718,-0.248453,648.991,-0.410503,0.113919,0.0318044,-0.187794,-0.0329046,0.0650195,-0.030876,6.96578e-06,1.36724e-05,-4.09231e-05,0.0642376,-0.032369132829381586,6.965804261183095e-06,1.3672493467620228e-05,0.06717983418806295,-4.092226266139143e-05,-0.030404204499276388
78,0.06818,0.183846,651.284,0.281817,-0.0388946,0.134926,-0.0258858,-0.0333849,0.0659561,-0.0313257,4.90704e-06,1.57201e-05,-3.90077e-05,0.0651994,-0.032833774342292066,4.907052039593296e-06,1.5720223561332958e-05,0.0681798230424433,-3.900693920955156e-05,-0.030840133702485173
79,0.06918,-0.246425,652.44,-0.416311,0.115948,0.0322547,-0.189726,-0.0338662,0.0668919,-0.0317802,7.28279e-06,1.45855e-05,-4.2148e-05,0.0661627,-0.033299159442792825,7.282816519627033e-06,1.458560636891093e-05,0.0691798935808694,-4.2147111785517666e-05,-0.03128051677708288
80,0.07018,-0.222511,654.17,-0.367578,0.104995,0.0366704,-0.175497,-0.0343462,0.0678267,-0.0322316,7.53886e-06,1.48133e-05,-4.29691e-05,0.067124,-0.03376306450013944,7.538888417313316e-06,1.4813409717540083e-05,0.07017983024296837,-4.296817684146248e-05,-0.03171769807256786
81,0.07118,0.170099,656.35,0.258621,-0.0334675,0.131226,-0.0286095,-0.0348253,0.0687607,-0.0326804,5.68083e-06,1.6726e-05,-4.12579e-05,0.0680835,-0.03422587774017305,5.680846135946993e-06,1.6726139880240964e-05,0.07117984513867404,-4.125704890456383e-05,-0.03215216566785195
82,0.07218,-0.217579,657.501,-0.369151,0.106256,0.0383957,-0.175978,-0.0353051,0.0696938,-0.0331334,7.82738e-06,1.57511e-05,-4.41013e-05,0.0690442,-0.03468914501732623,7.827410634098086e-06,1.5751224049287416e-05,0.07217982952233215,-4.41003275519769e-05,-0.03259050144625475
83,0.07318,0.370339,659.901,0.58406,-0.104229,0.181861,0.0520697,-0.0357831,0.0706261,-0.0335801,4.80592e-06,1.85673e-05,-4.09008e-05,0.0700017,-0.03515045334453426,4.8059315485016185e-06,1.8567472373387517e-05,0.07317988888263027,-4.089996357370396e-05,-0.03302254676475258
84,0.07418,0.226355,661.35,0.389496,-0.0630012,0.13649,0.00159764,-0.036262,0.0715574,-0.0340304,5.09131e-06,1.87603e-05,-4.14858e-05,0.0709601,-0.03561240916827668,5.091322960781852e-06,1.8760475975598823e-05,0.07417980685267866,-4.1484939476088556e-05,-0.03345787868960548
85,0.07518,0.00696436,662.629,-0.039079,0.0328448,0.0938645,-0.0985025,-0.0367403,0.072488,-0.0344815,6.41452e-06,1.87363e-05,-4.32767e-05,0.071918,-0.036073565458653034,6.414540573151939e-06,1.873647552552704e-05,0.07517990385389539,-4.3275763577099724e-05,-0.033893787513901374
86,0.07618,0.176478,664.458,0.293343,-0.0368647,0.134776,-0.0117841,-0.0372177,0.0734176,-0.0349292,5.40673e-06,1.99909e-05,-4.22216e-05,0.072874,-0.03653363411137778,5.4067446164651756e-06,1.999109981931646e-05,0.0761798557981721,-4.222070868076244e-05,-0.034326216458789194
87,0.07718,-0.125625,665.605,-0.245809,0.0793261,0.061915,-0.144807,-0.0376952,0.0743464,-0.03538,7.15447e-06,1.94018e-05,-4.46908e-05,0.0738305,-0.03699357948039361,7.154495593297838e-06,1.9401988216039e-05,0.07717987598572207,-4.468980138105927e-05,-0.0347614440927303
88,0.07818,0.283301,667.705,0.46191,-0.0749239,0.158988,0.0272571,-0.0381713,0.0752743,-0.0358255,4.94889e-06,2.14924e-05,-4.23416e-05,0.0747843,-0.03745195771160659,4.948902245782705e-06,2.1492630963182435e-05,0.07817985506119296,-4.234070360709108e-05,-0.03519136209804086
89,0.07918,-0.291505,668.468,-0.512027,0.138861,0.0197367,-0.208365,-0.0386483,0.0762014,-0.0362771,8.13569e-06,1.98305e-05,-4.64591e-05,0.0757399,-0.03791098364139045,8.135723094770952e-06,1.983069662570003e-05,0.07917989910360657,-4.645802079272787e-05,-0.035626971310953826
90,0.08018,-0.264579,670.028,-0.446246,0.124682,0.0238097,-0.189792,-0.0391239,0.0771276,-0.0367246,8.4104e-06,1.99803e-05,-4.72782e-05,0.0766931,-0.03836844438478282,8.410435367478541e-06,1.9980499607497038e-05,0.08017989855441487,-4.727708240348516e-05,-0.03605843169483103
91,0.08118,0.184504,672.112,0.285702,-0.0381155,0.131957,-0.0165215,-0.0395985,0.0780529,-0.037169,6.23206e-06,2.2047e-05,-4.51657e-05,0.0776444,-0.03882472643678225,6.232079419410397e-06,2.2047243036782405e-05,0.08117985157146568,-4.5164680045117755e-05,-0.036486712156818646
92,0.08218,-0.248391,673.028,-0.424297,0.120482,0.0270583,-0.185471,-0.040074,0.0789774,-0.0376185,8.65661e-06,2.08563e-05,-4.8307e-05,0.0785971,-0.03928165663559746,8.656647468630041e-06,2.0856517494172166e-05,0.08217986452900727,-4.830583323567339e-05,-0.03691971405523686
93,0.08318,-0.208256,674.554,-0.347679,0.103294,0.0355785,-0.16445,-0.0405483,0.079901,-0.0380647,8.81273e-06,2.11289e-05,-4.89424e-05,0.0795478,-0.039737217301103134,8.8127688322448e-06,2.1129123216834245e-05,0.08317982756373188,-4.89412023402247e-05,-0.03734934462111805
94,0.08418,0.147604,676.467,0.22442,-0.0241478,0.122791,-0.0285444,-0.0410217,0.0808238,-0.0385086,7.12829e-06,2.28771e-05,-4.73663e-05,0.0804969,-0.04019169811833567,7.128315406390584e-06,2.2877361682827058e-05,0.08417984724672456,-4.736517823455966e-05,-0.037776570417260014
95,0.08518,-0.183067,677.474,-0.315546,0.0970107,0.0425215,-0.156717,-0.0414958,0.0817457,-0.0389562,8.99598e-06,2.20813e-05,-4.98256e-05,0.081447,-0.04064663538285773,8.996020463891696e-06,2.2081543793683878e-05,0.0851798135115287,-4.982435872535884e-05,-0.03820716525002865
96,0.08618,0.311585,679.544,0.493635,-0.0829943,0.165102,0.0392908,-0.0419683,0.0826668,-0.0393983,6.44275e-06,2.45051e-05,-4.71144e-05,0.0823941,-0.041099822773686845,6.442770754455651e-06,2.450540025233927e-05,0.08617983312608413,-4.711329013407095e-05,-0.038632279883757725
97,0.08718,-0.334435,680.107,-0.569738,0.154117,0.00609669,-0.216378,-0.0424419,0.0835871,-0.0398471,9.96751e-06,2.25217e-05,-5.15045e-05,0.0833433,-0.041553850375398715,9.967559675860826e-06,2.252195361540643e-05,0.08717990453878621,-5.1503173665978785e-05,-0.039063644910993234
98,0.08818,-0.278141,681.582,-0.4684,0.131221,0.0183212,-0.189983,-0.042914,0.0845064,-0.0402913,1.01455e-05,2.27435e-05,-5.22025e-05,0.08429,-0.04200622601096571,1.0145551465834401e-05,2.2743758635312972e-05,0.08817980856049301,-5.2201137473173453e-05,-0.03949039805103438
99,0.08918,0.174218,683.557,0.273621,-0.0347144,0.127872,-0.0133048,-0.0433851,0.085425,-0.0407326,7.94072e-06,2.47901e-05,-5.00285e-05,0.0852348,-0.042457430588308864,7.940751527657497e-06,2.479040727698667e-05,0.08917986979043646,-5.0027248595485574e-05,-0.03991417742457826
100,0.09018,-0.241183,684.38,-0.41541,0.119584,0.0265252,-0.178791,-0.0438571,0.0863427,-0.0411789,1.03002e-05,2.3641e-05,-5.30682e-05,0.086181,-0.042909284035268946,1.0300253047157426e-05,2.3641279450536956e-05,0.0901798689363702,-5.306679190797414e-05,-0.040342568124698275
101,0.09118,-0.194143,685.804,-0.326166,0.0995374,0.0368033,-0.15466,-0.0443279,0.0872595,-0.0416219,1.03988e-05,2.39415e-05,-5.35907e-05,0.0871252,-0.0433597762901472,1.039885406761698e-05,2.394178659992363e-05,0.09117980414046967,-5.358926404408493e-05,-0.04076760221501696
102,0.09218,0.133321,687.573,0.201912,-0.0185291,0.117964,-0.0282981,-0.044798,0.0881756,-0.0420629,8.85188e-06,2.55742e-05,-5.21306e-05,0.0880679,-0.04380938716999583,8.85191917809891e-06,2.5574527022564908e-05,0.09217989197933463,-5.212924122388607e-05,-0.041190530439912276
103,0.09318,-0.16017,688.522,-0.278994,0.0899055,0.0462093,-0.143036,-0.0452685,0.0890907,-0.0425072,1.05287e-05,2.49028e-05,-5.4329e-05,0.0890114,-0.04425916903385152,1.0528755427063885e-05,2.490311007719015e-05,0.09317980323810349,-5.432752420664322e-05,-0.041616434865563434
104,0.09418,0.275649,690.413,0.437058,-0.0700506,0.155128,0.031568,-0.0457376,0.0900051,-0.0429466,8.27616e-06,2.70825e-05,-5.19346e-05,0.0899522,-0.044707401916415535,8.276194247480717e-06,2.708286673414051e-05,0.09417986400828693,-5.193325142205385e-05,-0.04203745609894449
105,0.09518,-0.283879,690.985,-0.488515,0.137169,0.0162583,-0.192396,-0.0462077,0.0909186,-0.0433917,1.13575e-05,2.5409e-05,-5.5772e-05,0.0908947,-0.04515637942634243,1.1357564496661254e-05,2.5409322811364987e-05,0.09517985398994333,-5.577044477089732e-05,-0.042463750348411766
106,0.09618,-0.23395,692.352,-0.395289,0.115839,0.026425,-0.168402,-0.0466764,0.0918313,-0.0438329,1.14917e-05,2.56505e-05,-5.63601e-05,0.0918349,-0.04560380976781386,1.1491766029880779e-05,2.5650828976875317e-05,0.09617988093555607,-5.635851179941476e-05,-0.042886122159685014
107,0.09718,0.15046,694.14,0.233389,-0.0252346,0.120986,-0.0177327,-0.0471442,0.0927431,-0.0442715,9.63229e-06,2.7459e-05,-5.45356e-05,0.0927734,-0.046050171893363245,9.632336390730245e-06,2.745937700177059e-05,0.09717983356011639,-5.453411296119093e-05,-0.04330582025998431
108,0.09818,-0.194145,694.96,-0.337677,0.103422,0.0363327,-0.155207,-0.0476127,0.0936541,-0.0447142,1.16068e-05,2.65714e-05,-5.70769e-05,0.093713,-0.04649699271188168,1.1606867359237327e-05,2.6571753022786027e-05,0.09817981981306878,-5.707527114473532e-05,-0.04372925503915126
109,0.09918,0.313755,696.892,0.503528,-0.0846715,0.1638,0.050996,-0.0480796,0.0945643,-0.0451513,8.95196e-06,2.90186e-05,-5.41832e-05,0.0946495,-0.04694207935242267,8.952000069006871e-06,2.901902104368581e-05,0.09917983812435627,-5.418173211690913e-05,-0.04414714964425426
110,0.1002,-0.333735,697.288,-0.57429,0.156921,0.00257543,-0.211159,-0.0485477,0.0954737,-0.0455951,1.2529e-05,2.69929e-05,-5.85905e-05,0.0955883,-0.04738810136548133,1.2529078488254797e-05,2.6993264311547804e-05,0.1001798869224142,-5.858878361020281e-05,-0.0445712630215227
111,0.1012,-0.261733,698.63,-0.445018,0.127655,0.0187948,-0.17784,-0.0490141,0.0963822,-0.0460342,1.25987e-05,2.72686e-05,-5.91004e-05,0.0965244,-0.047832295960772764,1.2598779363992563e-05,2.726897179172738e-05,0.10117985451618394,-5.9098653605760276e-05,-0.044990699685870994
112,0.1022,0.152099,700.405,0.239189,-0.0262439,0.120372,-0.0132221,-0.0494798,0.0972899,-0.0464708,1.05743e-05,2.91537e-05,-5.70752e-05,0.0974588,-0.04827561722517526,1.0574355908010702e-05,2.9154124973285178e-05,0.10217984924907819,-5.7073571241739174e-05,-0.04540756573790705
113,0.1032,-0.20738,701.149,-0.362066,0.109249,0.0317057,-0.158986,-0.0499462,0.0981968,-0.0469117,1.26513e-05,2.81902e-05,-5.97318e-05,0.0983944,-0.04871939797958491,1.2651380028039227e-05,2.8190597347377278e-05,0.103179869545025,-5.973001609160811e-05,-0.04582835277285491
114,0.1042,0.324028,703.063,0.523868,-0.08906,0.165635,0.0592581,-0.0504109,0.0991028,-0.0473466,9.8549e-06,3.07169e-05,-5.6646e-05,0.0993269,-0.0491613553785889,9.854948559651078e-06,3.0717371768851365e-05,0.10417980340847444,-5.664439564567747e-05,-0.04624323180025036
115,0.1052,-0.346866,703.374,-0.59899,0.162986,-0.00199214,-0.21507,-0.0508769,0.100008,-0.0477887,1.35796e-05,2.85884e-05,-6.12152e-05,0.100262,-0.04960434296285887,1.3579692203169458e-05,2.8588808652196818e-05,0.10517975947835789,-6.121332638786559e-05,-0.04666479447417615
116,0.1062,-0.26468,704.678,-0.451988,0.129764,0.0169533,-0.177171,-0.0513412,0.100913,-0.0482259,1.3601e-05,2.88886e-05,-6.1652e-05,0.101194,-0.050045509241744224,1.3601092494042177e-05,2.8889017279709606e-05,0.10618039988217265,-6.165009955449996e-05,-0.04708150152723267
117,0.1072,0.146704,706.403,0.231508,-0.0242905,0.118229,-0.0121076,-0.0518048,0.101816,-0.0486605,1.15809e-05,3.07513e-05,-5.9614e-05,0.102124,-0.05048580607496789,1.1580967058888447e-05,3.075177282596542e-05,0.10717973191377306,-5.961222312078629e-05,-0.047495549927434544
118,0.1082,-0.202194,707.111,-0.354685,0.108036,0.0318433,-0.154809,-0.052269,0.102719,-0.0490995,1.36106e-05,2.98162e-05,-6.22011e-05,0.103056,-0.050926468278177706,1.3610692624732579e-05,2.981664450740773e-05,0.10817996674975294,-6.2199165551724e-05,-0.047913607610640896
119,0.1092,0.31288,708.956,0.507377,-0.0852665,0.162222,0.0584069,-0.0527317,0.103621,-0.0495326,1.08916e-05,3.22701e-05,-5.91863e-05,0.103984,-0.05136550302278442,1.0891659313783109e-05,3.227062068522635e-05,0.10917999602516226,-5.918454852549271e-05,-0.04832586694598151
120,0.1102,-0.331197,709.254,-0.574614,0.158051,0.000648074,-0.206923,-0.0531956,0.104522,-0.0499726,1.44854e-05,3.02327e-05,-6.35878e-05,0.104915,-0.051805472507119976,1.4485504914008018e-05,3.0233157012782286e-05,0.11017981755354134,-6.358577833864842e-05,-0.04874451145597891
121,0.1112,-0.249242,710.512,-0.426813,0.124551,0.0194451,-0.168877,-0.0536578,0.105422,-0.0504079,1.44805e-05,3.05444e-05,-6.39678e-05,0.105843,-0.052243626752480954,1.4480604842992406e-05,3.054486648501609e-05,0.1111794291470829,-6.396575410394512e-05,-0.04915850285837631
122,0.1122,0.13709,712.158,0.215464,-0.0204823,0.115174,-0.0132182,-0.0541193,0.106322,-0.0508408,1.25861e-05,3.2315e-05,-6.20527e-05,0.106769,-0.05268091540661646,1.2586179205298365e-05,3.231552213533995e-05,0.11217994079602267,-6.20507747710608e-05,-0.049570033060349794
123,0.1132,-0.184736,712.857,-0.325847,0.102047,0.0352059,-0.145271,-0.0545815,0.107221,-0.0512777,1.44693e-05,3.14766e-05,-6.44477e-05,0.107697,-0.053118665115764796,1.446940468086133e-05,3.147709539330634e-05,0.11318024012997885,-6.444562329155357e-05,-0.049985185216313566
124,0.1142,0.288184,714.603,0.46723,-0.0761812,0.15544,0.0515316,-0.0550421,0.108119,-0.0517092,1.19716e-05,3.3759e-05,-6.16781e-05,0.108622,-0.05355469823247683,1.1971671659782857e-05,3.375956984141837e-05,0.11418032495649655,-6.167619794505974e-05,-0.05039502817891439
125,0.1152,-0.29768,714.933,-0.519395,0.146158,0.00782655,-0.191183,-0.0555038,0.109016,-0.052147,1.52578e-05,3.19343e-05,-6.57024e-05,0.109548,-0.05399157116842512,1.5257916400779337e-05,3.193480990515418e-05,0.11518019308179483,-6.570024164453958e-05,-0.0508106742440152
126,0.1162,-0.223276,716.139,-0.382947,0.115048,0.0244722,-0.156172,-0.055964,0.109912,-0.0525804,1.52465e-05,3.2245e-05,-6.60445e-05,0.110472,-0.05442682408799493,1.5246616228425935e-05,3.2245519875573336e-05,0.11617984231077272,-6.604231911000458e-05,-0.05122196376492072
127,0.1172,0.125852,717.693,0.195888,-0.0158821,0.111783,-0.0154134,-0.0564235,0.110808,-0.0530117,1.35442e-05,3.38866e-05,-6.43269e-05,0.111395,-0.054861215153336196,1.3544291723066593e-05,3.388717415742093e-05,0.11718038762684713,-6.432483106932896e-05,-0.05163108349893619
128,0.1182,-0.16133,718.397,-0.286362,0.0936637,0.0401831,-0.133113,-0.0568835,0.111702,-0.0534465,1.52335e-05,3.31772e-05,-6.6471e-05,0.112318,-0.055295879014013116,1.5233616030396746e-05,3.3177750369484116e-05,0.11817959347184814,-6.646879085203672e-05,-0.052043344671757086
129,0.1192,0.257568,720.031,0.416406,-0.0646797,0.147152,0.0417511,-0.0573422,0.112596,-0.0538764,1.30251e-05,3.52425e-05,-6.40301e-05,0.113239,-0.05572911542394243,1.302518482693138e-05,3.524312102420879e-05,0.11917969300629427,-6.402805011684887e-05,-0.0524507836525987
130,0.1202,-0.256665,720.415,-0.450829,0.131207,0.0169847,-0.17218,-0.0578017,0.113489,-0.0543119,1.59253e-05,3.36831e-05,-6.7585e-05,0.114162,-0.05616290822387682,1.5925426808172105e-05,3.368366728206951e-05,0.12017956684937414,-6.758271618534373e-05,-0.052863351493150135
131,0.1212,-0.193695,721.567,-0.332381,0.103973,0.0304288,-0.141938,-0.0582599,0.114382,-0.0547435,1.59221e-05,3.39839e-05,-6.79052e-05,0.115082,-0.056595275316463134,1.5922226757281166e-05,3.398447745928124e-05,0.12118033397858863,-6.790289449409848e-05,-0.05327204746771008
132,0.1222,0.114855,723.027,0.176363,-0.0112869,0.108469,-0.0178186,-0.0587174,0.115273,-0.0551731,1.44316e-05,3.54869e-05,-6.6408e-05,0.116001,-0.05702678426280794,1.4431704135953183e-05,3.548752966753277e-05,0.1221797508302529,-6.640579503758293e-05,-0.053678674446389074
133,0.1232,-0.136963,723.74,-0.244865,0.084795,0.045487,-0.120536,-0.0591754,0.116164,-0.0556058,1.59198e-05,3.49104e-05,-6.82928e-05,0.11692,-0.05745856710979591,1.5919926720675548e-05,3.4911009375138136e-05,0.1231800585591587,-6.829046809986306e-05,-0.054088059107197384
134,0.1242,0.226765,725.263,0.364793,-0.0529688,0.138774,0.0314911,-0.0596321,0.117054,-0.0560343,1.40095e-05,3.67545e-05,-6.61933e-05,0.117837,-0.057888927501921095,1.4009598133579715e-05,3.67551754549833e-05,0.12418013377873582,-6.619110927186256e-05,-0.05449329554576243
135,0.1252,-0.215799,725.705,-0.381994,0.116129,0.0262077,-0.153168,-0.0600895,0.117943,-0.0564675,1.652e-05,3.54613e-05,-6.92748e-05,0.118755,-0.05831975056973493,1.6520136455921985e-05,3.546192875925058e-05,0.12517997428091876,-6.927240055643047e-05,-0.05490280034498851
136,0.1262,0.348173,727.483,0.571531,-0.099499,0.169664,0.0838131,-0.0605451,0.118831,-0.0568939,1.3477e-05,3.80832e-05,-6.58407e-05,0.11967,-0.058748682373291006,1.3477090815117165e-05,3.808392517434811e-05,0.12617957785638168,-6.583853254871208e-05,-0.05530570388578193
137,0.1272,-0.359579,727.555,-0.628158,0.171852,-0.0106408,-0.214231,-0.061002,0.119719,-0.0573281,1.74578e-05,3.57592e-05,-7.06587e-05,0.120588,-0.05917864186858823,1.745795238816683e-05,3.575983936787708e-05,0.12718006947405214,-7.065620373281067e-05,-0.05571580111060426
138,0.1282,-0.251817,728.715,-0.436055,0.128169,0.0152377,-0.164697,-0.0614572,0.120606,-0.0577568,1.73196e-05,3.61377e-05,-7.08385e-05,0.121502,-0.05960680629319337,1.7319749985089672e-05,3.6138352974557364e-05,0.1281803217419759,-7.083599101265214e-05,-0.056120528987049334
139,0.1292,0.120792,730.215,0.191506,-0.0144234,0.108504,-0.0109212,-0.0619118,0.121492,-0.0581834,1.54727e-05,3.78228e-05,-6.89302e-05,0.122416,-0.06003421188240132,1.5472819702821994e-05,3.782351529113548e-05,0.1291803324463643,-6.892782436840328e-05,-0.05652310209443434
140,0.1302,-0.167322,730.827,-0.299581,0.0973293,0.0361102,-0.13215,-0.0623669,0.122377,-0.0586138,1.71963e-05,3.70796e-05,-7.10992e-05,0.12333,-0.06046189298635685,1.7196447857248387e-05,3.7080287456969785e-05,0.13018009937219044,-7.109667251181673e-05,-0.05692908717703593
141,0.1312,0.254564,732.382,0.416127,-0.0643644,0.144779,0.0475728,-0.0628207,0.123261,-0.0590393,1.49477e-05,3.91348e-05,-6.85712e-05,0.124241,-0.060888158652324775,1.4947811717513915e-05,3.913556577628263e-05,0.13117962030319674,-6.856884904904437e-05,-0.05733027849093708
142,0.1322,-0.252494,732.686,-0.447472,0.131318,0.0154702,-0.167237,-0.0632754,0.124145,-0.0594704,1.78396e-05,3.75785e-05,-7.20947e-05,0.125154,-0.06131507573963024,1.7839759126614396e-05,3.757920608071785e-05,0.13218002520136207,-7.209210123959586e-05,-0.057736575824197
143,0.1332,-0.182368,733.764,-0.315319,0.100929,0.0308553,-0.133399,-0.0637287,0.125028,-0.0598975,1.77777e-05,3.79035e-05,-7.2308e-05,0.126065,-0.06174048518946118,1.777785802414833e-05,3.79042183467071e-05,0.1331801816677105,-7.230538583957724e-05,-0.058138930603683026
144,0.1342,0.102593,735.112,0.156875,-0.00646631,0.10368,-0.0173317,-0.0641814,0.12591,-0.0603228,1.63997e-05,3.93044e-05,-7.0906e-05,0.126974,-0.06216513914414101,1.639983447576654e-05,3.930517242811682e-05,0.1341800874815844,-7.090348622895704e-05,-0.05853941894661452
145,0.1352,-0.119414,735.782,-0.216251,0.0790659,0.0477528,-0.108829,-0.0646344,0.126791,-0.0607509,1.77317e-05,3.88228e-05,-7.25783e-05,0.127884,-0.06258988212456029,1.7731857207436974e-05,3.8823553614619755e-05,0.1351797404211179,-7.257566625895606e-05,-0.058942371963116136
146,0.1362,0.199482,737.165,0.321272,-0.0429058,0.130279,0.0261931,-0.0650863,0.127672,-0.0611753,1.60533e-05,4.04733e-05,-7.07215e-05,0.128792,-0.06301340205529238,1.60534288549119e-05,4.047411905516718e-05,0.136180274442951,-7.071899929367298e-05,-0.05934167208297625
147,0.1372,-0.180499,737.61,-0.323896,0.103777,0.0327912,-0.134448,-0.0655388,0.128551,-0.0616037,1.82362e-05,3.9399e-05,-7.33921e-05,0.129701,-0.0634372925783987,1.8236366280399707e-05,3.93997761507503e-05,0.1371794159625528,-7.338940686574258e-05,-0.0597445638050873
148,0.1382,0.295907,739.195,0.486828,-0.0802763,0.154968,0.0685036,-0.0659897,0.12943,-0.0620262,1.56549e-05,4.1662e-05,-7.04695e-05,0.130607,-0.06385949351082176,1.5655022538529906e-05,4.16628678732156e-05,0.13817943611365213,-7.046701708313119e-05,-0.06014173781796117
149,0.1392,-0.291836,739.347,-0.516064,0.147437,0.00395736,-0.182397,-0.0664417,0.130309,-0.0624552,1.9e-05,3.97785e-05,-7.45149e-05,0.131515,-0.06428253340553625,1.9000180501160813e-05,3.977929117504608e-05,0.13918033566890586,-7.451212383380312e-05,-0.06054485053857628
150,0.1402,-0.201913,740.408,-0.351097,0.109595,0.0248847,-0.139949,-0.0668921,0.131186,-0.0628797,1.88662e-05,4.01423e-05,-7.46415e-05,0.13242,-0.06470388565684038,1.8866377967885484e-05,4.014310571287538e-05,0.14017983503969966,-7.463871439250536e-05,-0.06094356461647221
151,0.1412,0.101306,741.74,0.157092,-0.00627308,0.102208,-0.0145399,-0.067342,0.132063,-0.0633024,1.73801e-05,4.1585e-05,-7.31054e-05,0.133324,-0.06512458073622918,1.738025103481533e-05,4.1585864668070016e-05,0.14118021135592596,-7.310272786531513e-05,-0.0613404198904377
152,0.1422,-0.126134,742.358,-0.229236,0.0822892,0.0446757,-0.109985,-0.0677923,0.132939,-0.063728,1.87583e-05,4.10658e-05,-7.48271e-05,0.134228,-0.06554546036936248,1.8758475937907804e-05,4.1066643211573606e-05,0.14218032320610896,-7.482430052241362e-05,-0.061739828407570974
153,0.1432,0.202249,743.715,0.328402,-0.0443667,0.130031,0.0308307,-0.0682414,0.133814,-0.0641497,1.70159e-05,4.27413e-05,-7.2875e-05,0.135131,-0.06596502968176954,1.7016044771223093e-05,4.2742213422375386e-05,0.14318016835737568,-7.28723446816737e-05,-0.06213540930783645
154,0.1442,-0.184513,744.108,-0.332398,0.106073,0.0304546,-0.134474,-0.0686911,0.134688,-0.0645756,1.92512e-05,4.16283e-05,-7.55978e-05,0.136034,-0.06638497077708938,1.9251385305452118e-05,4.1629166469769885e-05,0.14417974457569827,-7.559494255837684e-05,-0.06253476078907783
155,0.1452,0.296677,745.661,0.490831,-0.0811217,0.154385,0.0725107,-0.0691392,0.135562,-0.0649956,1.66278e-05,4.38994e-05,-7.26073e-05,0.136935,-0.0668032299537169,1.6627938242530504e-05,4.3900363592808134e-05,0.1451801948055227,-7.260466415381917e-05,-0.06292841351668688
156,0.1462,-0.291499,745.77,-0.517637,0.148251,0.00262513,-0.180873,-0.0695884,0.136435,-0.0654221,1.99938e-05,4.20009e-05,-7.66679e-05,0.137837,-0.06722232780639681,1.9993999877288005e-05,4.2001782050160585e-05,0.14618037363012282,-7.666496109171028e-05,-0.06332798933272221
157,0.1472,-0.196819,746.799,-0.343647,0.108308,0.0248826,-0.13601,-0.0700362,0.137307,-0.065844,1.98241e-05,4.23804e-05,-7.67349e-05,0.138737,-0.06763993213941666,1.982429649882711e-05,4.238129806188873e-05,0.14718027881122797,-7.673195595281346e-05,-0.063723087902119
158,0.1482,0.0950384,748.077,0.147088,-0.00380593,0.0996753,-0.0144348,-0.0704833,0.138178,-0.0662642,1.83915e-05,4.37728e-05,-7.52443e-05,0.139636,-0.06805669715099627,1.839166912476209e-05,4.3773758042986444e-05,0.14817990810943527,-7.524146921866759e-05,-0.06411642881386925
159,0.1492,-0.11773,748.677,-0.215455,0.0795058,0.0456582,-0.104284,-0.0709308,0.139049,-0.0666873,1.96925e-05,4.32998e-05,-7.68619e-05,0.140535,-0.06847364847920334,1.9692693898454294e-05,4.3300737449847304e-05,0.14918040846405134,-7.685894619979816e-05,-0.06451231739670271
160,0.1502,0.189157,749.968,0.30742,-0.0394986,0.125801,0.0282756,-0.0713772,0.139918,-0.0671066,1.80617e-05,4.48815e-05,-7.5027e-05,0.141432,-0.06888938904232478,1.8061863113594256e-05,4.488250718948095e-05,0.15017948027283579,-7.502418554505841e-05,-0.06490448515830138
161,0.1512,-0.168086,750.362,-0.305126,0.100241,0.0334169,-0.125521,-0.0718241,0.140787,-0.0675298,2.01414e-05,4.3871e-05,-7.75548e-05,0.14233,-0.06930540940768715,2.014160283936306e-05,4.3871962346342386e-05,0.15117942065236134,-7.75517927041891e-05,-0.0653001338550131
162,0.1522,0.272594,751.825,0.451552,-0.0721624,0.147397,0.0654591,-0.0722696,0.141656,-0.0679476,1.7733e-05,4.59746e-05,-7.48027e-05,0.143225,-0.06971994150391558,1.7733157230637175e-05,4.597565684805183e-05,0.15218023035774442,-7.479990234782186e-05,-0.06569056989132105
163,0.1532,-0.261095,751.969,-0.466874,0.13714,0.00908674,-0.166156,-0.072716,0.142523,-0.0683713,2.0808e-05,4.42753e-05,-7.85091e-05,0.144122,-0.07013512584598847,2.080821648786646e-05,4.427628016556717e-05,0.1531796037832429,-7.850601824122005e-05,-0.06608635294429743
164,0.1542,-0.175294,752.951,-0.306732,0.100219,0.0289172,-0.124889,-0.073161,0.14339,-0.0687907,2.06468e-05,4.46427e-05,-7.85594e-05,0.145017,-0.07054882366039639,2.0647013146746218e-05,4.4643696500257235e-05,0.15417984404121898,-7.855631429110055e-05,-0.06647795420334845
165,0.1552,0.0871857,754.154,0.133195,-0.000468068,0.0968749,-0.0154879,-0.0736054,0.144256,-0.0692086,1.93674e-05,4.59304e-05,-7.72256e-05,0.145911,-0.07096177999746733,1.9367587549279364e-05,4.5931454816905415e-05,0.15517979670316806,-7.722261818010612e-05,-0.06686799156230439
166,0.1562,-0.101133,754.751,-0.186839,0.0733811,0.0489024,-0.0947961,-0.0740502,0.145121,-0.069629,2.05278e-05,4.55457e-05,-7.86594e-05,0.146804,-0.07137492430761827,2.0528010696629906e-05,4.55467372211249e-05,0.15617945951915302,-7.865630643055788e-05,-0.06726019781112158
167,0.1572,0.168357,755.957,0.272373,-0.031442,0.119618,0.0219497,-0.0744939,0.145986,-0.0700461,1.91008e-05,4.69728e-05,-7.70549e-05,0.147696,-0.07178686385815558,1.9100982421527135e-05,4.6973903239155845e-05,0.1571799874175681,-7.705193134743826e-05,-0.06764916245839836
168,0.1582,-0.141861,756.379,-0.2603,0.0903872,0.0389828,-0.112184,-0.0749381,0.14685,-0.0704665,2.09215e-05,4.61335e-05,-7.92649e-05,0.148589,-0.07219908457223112,2.092171885603733e-05,4.613456416624473e-05,0.15818022296623147,-7.926175862082996e-05,-0.06804104037199177
169,0.1592,0.237267,757.727,0.392187,-0.0586142,0.13746,0.0530533,-0.0753809,0.147713,-0.0708822,1.8851e-05,4.79879e-05,-7.68991e-05,0.149479,-0.07260982387319004,1.8851177681300513e-05,4.798905143776899e-05,0.15918016391110856,-7.689614333994399e-05,-0.06842837519838763
170,0.1602,-0.217655,757.942,-0.392868,0.120676,0.019027,-0.145563,-0.0758245,0.148575,-0.0713029,2.14929e-05,4.65833e-05,-8.00831e-05,0.150371,-0.07302112292244611,2.149313097410399e-05,4.658438501881079e-05,0.16017980799710263,-8.007989343417066e-05,-0.0688202049537735
171,0.1612,0.331201,759.511,0.555615,-0.0958617,0.161721,0.0949647,-0.0762663,0.149437,-0.0717167,1.84521e-05,4.90994e-05,-7.65662e-05,0.151259,-0.07343057173643608,1.8452270241109403e-05,4.910060539531358e-05,0.16118031414779543,-7.656326888327847e-05,-0.06920544744079604
172,0.1622,-0.328366,759.439,-0.585859,0.164789,-0.0100057,-0.194386,-0.0767094,0.150297,-0.0721381,2.22609e-05,4.68946e-05,-8.11296e-05,0.152149,-0.07384104370331945,2.226114777559296e-05,4.689569956894957e-05,0.1621793587455651,-8.112630908296836e-05,-0.06959760163255313
173,0.1632,-0.206535,760.427,-0.364333,0.113933,0.0198605,-0.136867,-0.0771509,0.151158,-0.0725541,2.19585e-05,4.73437e-05,-8.10189e-05,0.153037,-0.07424985263131312,2.1958741089678213e-05,4.73448207305438e-05,0.16318042607108607,-8.101561805751167e-05,-0.06998456853557755
174,0.1642,0.0842675,761.63,0.131422,0.000166712,0.0947075,-0.0130335,-0.0775919,0.152017,-0.0729687,2.05126e-05,4.86999e-05,-7.94873e-05,0.153924,-0.074658018439127,2.051281038473185e-05,4.8701085859415016e-05,0.16418002732435388,-7.948414096825562e-05,-0.07037007301286236
175,0.1652,-0.111272,762.174,-0.206292,0.0780154,0.0446915,-0.0975647,-0.0780332,0.152875,-0.073386,2.17357e-05,4.8267e-05,-8.09947e-05,0.154811,-0.07506628176566121,2.173593622201153e-05,4.8268164870357566e-05,0.16517932242409206,-8.099142001782855e-05,-0.07075792665010439
176,0.1662,0.173263,763.362,0.283739,-0.033875,0.119725,0.0278637,-0.0784734,0.153733,-0.0737998,2.02105e-05,4.9739e-05,-7.92521e-05,0.155696,-0.07547334798657945,2.0210704233525334e-05,4.974023700454744e-05,0.16617947528695387,-7.924895963529188e-05,-0.07114236747376446
177,0.1672,-0.149281,763.725,-0.274931,0.0940383,0.0356081,-0.113602,-0.0789142,0.15459,-0.0742172,2.21178e-05,4.88384e-05,-8.15561e-05,0.156582,-0.07588078952807387,2.2118044600283326e-05,4.8839592614147165e-05,0.1671793194693123,-8.155277439170217e-05,-0.07152999174676733
178,0.1682,0.241823,765.05,0.402943,-0.0609935,0.137667,0.0589543,-0.0793536,0.155447,-0.0746296,1.99627e-05,5.07276e-05,-7.90709e-05,0.157465,-0.07628675831128184,1.996289925609851e-05,5.072888666646236e-05,0.16818002088540718,-7.90677739788137e-05,-0.07191281383483084
179,0.1692,-0.222405,765.211,-0.403157,0.123418,0.0162606,-0.146022,-0.0797937,0.156303,-0.0750472,2.26763e-05,4.92726e-05,-8.2331e-05,0.15835,-0.07669319506598093,2.2676557109191364e-05,4.927381391439667e-05,0.16918041108920723,-8.232761089621565e-05,-0.07230030213058602
180,0.1702,0.331942,766.751,0.560194,-0.0969384,0.161075,0.0994236,-0.0802321,0.157157,-0.0754579,1.95829e-05,5.17994e-05,-7.87336e-05,0.159232,-0.0770978840549561,1.9583091746211423e-05,5.180074161215131e-05,0.1701793176326616,-7.873050059148401e-05,-0.07268123016757422
181,0.1712,-0.327161,766.639,-0.58646,0.165417,-0.0113538,-0.192598,-0.0806718,0.158012,-0.0758761,2.34135e-05,4.95815e-05,-8.33141e-05,0.160116,-0.07750359491326841,2.341377409820211e-05,4.958272918287321e-05,0.1711802487863303,-8.331062947675161e-05,-0.07306895379845613
182,0.1722,-0.200107,767.596,-0.354657,0.112119,0.0200313,-0.132239,-0.0811099,0.158865,-0.076289,2.30682e-05,5.00496e-05,-8.31346e-05,0.160997,-0.07790765207315342,2.306846607291746e-05,5.0050852502092624e-05,0.17217969174036463,-8.313114441493852e-05,-0.07345160462373346
183,0.1732,0.0773186,768.744,0.120082,0.00293481,0.0918282,-0.013138,-0.0815474,0.159718,-0.0767005,2.1686e-05,5.13477e-05,-8.16602e-05,0.161877,-0.07831097924112007,2.1686235142981403e-05,5.134901831560512e-05,0.17317998758294406,-8.16568658966732e-05,-0.07383280085192778
184,0.1742,-0.102102,769.271,-0.190957,0.0748329,0.0457625,-0.0912508,-0.0819853,0.16057,-0.0771146,2.28221e-05,5.09662e-05,-8.30517e-05,0.162757,-0.07871449850631917,2.282236042616681e-05,5.096749879873741e-05,0.17417996286134274,-8.304825130300841e-05,-0.07421624729103038
185,0.1752,0.159517,770.392,0.261368,-0.0286796,0.115121,0.0250468,-0.0824222,0.161421,-0.0775254,2.14177e-05,5.23377e-05,-8.14377e-05,0.163636,-0.07911692022649575,2.141792936050102e-05,5.23390696414161e-05,0.17517961530152193,-8.143438404051295e-05,-0.07459648115126105
186,0.1762,-0.132769,770.758,-0.247028,0.087985,0.0385192,-0.104216,-0.0828595,0.162272,-0.0779395,2.31624e-05,5.15419e-05,-8.35383e-05,0.164515,-0.0795195343592846,2.3162668250531482e-05,5.154322830658309e-05,0.176180118808005,-8.353481077338909e-05,-0.07497961141582021
187,0.1772,0.218236,771.995,0.363958,-0.0520544,0.13055,0.0519846,-0.0832956,0.163122,-0.0783491,2.12234e-05,5.32638e-05,-8.12938e-05,0.165392,-0.07992086837310819,2.1223625217947628e-05,5.3265218541431736e-05,0.17718029692447224,-8.129049574856495e-05,-0.07535842218124333
188,0.1782,-0.193849,772.189,-0.354718,0.112711,0.0222457,-0.131521,-0.0837323,0.163971,-0.0787633,2.36538e-05,5.19987e-05,-8.42084e-05,0.16627,-0.08032257920994434,2.365407975335465e-05,5.2000051955936044e-05,0.1781801473730189,-8.420485457216742e-05,-0.0757413294172129
189,0.1792,0.292988,773.604,0.495069,-0.0820772,0.150016,0.0859287,-0.0841675,0.164819,-0.0791713,2.09286e-05,5.42514e-05,-8.10304e-05,0.167145,-0.08072273574309474,2.0928819004728538e-05,5.425287163385306e-05,0.17917966787478723,-8.102711712576482e-05,-0.07611835003737422
190,0.1802,-0.27985,773.571,-0.505898,0.147427,-0.000581255,-0.17004,-0.0846037,0.165667,-0.0795859,2.42864e-05,5.2356e-05,-8.50419e-05,0.168022,-0.08112363704283354,2.4286694916941798e-05,5.2357370599276365e-05,0.18018003632942237,-8.5038284040162e-05,-0.07650131197595311
191,0.1812,-0.170323,774.47,-0.302579,0.100465,0.0260321,-0.117101,-0.0850384,0.166514,-0.0799958,2.39814e-05,5.27907e-05,-8.48776e-05,0.168897,-0.0815229857930716,2.3981687556018372e-05,5.2792093453435385e-05,0.1811800722756305,-8.487399799839146e-05,-0.07687977651656752
192,0.1822,0.0695704,775.532,0.105722,0.00637956,0.0889419,-0.0142315,-0.0854727,0.16736,-0.0804045,2.27989e-05,5.39586e-05,-8.36114e-05,0.16977,-0.08192179375292474,2.2799159896891297e-05,5.396005579139107e-05,0.1821797734307391,-8.360790466432899e-05,-0.07725697866539549
193,0.1832,-0.0829404,776.063,-0.157217,0.0674939,0.0496469,-0.080165,-0.0859072,0.168206,-0.0808153,2.37742e-05,5.36761e-05,-8.47932e-05,0.170644,-0.08232061208398223,2.377448260859616e-05,5.3677540587715455e-05,0.18318032069087686,-8.478960515823086e-05,-0.07763596364971437
194,0.1842,0.1372,777.094,0.223,-0.0198361,0.10833,0.0178632,-0.0863409,0.16905,-0.0812233,2.26005e-05,5.48761e-05,-8.34435e-05,0.171516,-0.08271852334122809,2.2600755393176186e-05,5.487760572076006e-05,0.18417934641109035,-8.344001868798578e-05,-0.0780122114167815
195,0.1852,-0.105441,777.494,-0.199409,0.0773956,0.0443515,-0.0898596,-0.0867748,0.169895,-0.0816341,2.40653e-05,5.42615e-05,-8.52007e-05,0.172389,-0.08311644543850838,2.4065589571575785e-05,5.4262972181806646e-05,0.18518040084474108,-8.519707052345726e-05,-0.07839088621520252
196,0.1862,0.182759,778.612,0.303344,-0.0381451,0.120279,0.0391372,-0.0872076,0.170738,-0.082041,2.2478e-05,5.57278e-05,-8.33607e-05,0.17326,-0.08351318677990327,2.247825263212988e-05,5.5729352822719846e-05,0.18617992916464732,-8.335722559338343e-05,-0.07876581267963945
197,0.1872,-0.15189,778.879,-0.281991,0.0963801,0.0318693,-0.110837,-0.0876409,0.171581,-0.0824516,2.44739e-05,5.47526e-05,-8.57501e-05,0.174131,-0.08391021449380553,2.447419948836682e-05,5.475409895105976e-05,0.18718030044218392,-8.574642356529161e-05,-0.07914399379105774
198,0.1882,0.239168,780.132,0.403005,-0.0609837,0.134964,0.0651492,-0.0880728,0.172423,-0.0828572,2.22861e-05,5.66206e-05,-8.31946e-05,0.175,-0.08430578824186563,2.2286348337008377e-05,5.6622202976530644e-05,0.18818032720734235,-8.31911394252316e-05,-0.07951741725177897
199,0.1892,-0.216282,780.225,-0.395819,0.122571,0.014637,-0.139878,-0.0885055,0.173264,-0.083268,2.49841e-05,5.51708e-05,-8.64155e-05,0.17587,-0.08470192341726757,2.498441210518898e-05,5.517232193663624e-05,0.1891800071690264,-8.641176628820801e-05,-0.07989547383863227
200,0.1902,0.314522,781.663,0.535911,-0.0915039,0.154727,0.0997091,-0.0889366,0.174104,-0.0836719,2.19834e-05,5.75848e-05,-8.2895e-05,0.176737,-0.08509642337750623,2.198364163663591e-05,5.7586458036329446e-05,0.19017933803525167,-8.289156430441036e-05,-0.08026702901612959
201,0.1912,-0.302533,781.528,-0.54824,0.157648,-0.00836497,-0.178947,-0.0893688,0.174944,-0.0840831,2.56212e-05,5.55003e-05,-8.72291e-05,0.177606,-0.08549175926508312,2.5621528225716617e-05,5.5501840170224526e-05,0.19117950869206712,-8.722529565263759e-05,-0.08064514546772794
202,0.1922,-0.17607,782.412,-0.314787,0.103708,0.0230697,-0.117868,-0.0897995,0.175783,-0.0844892,2.52299e-05,5.59806e-05,-8.69532e-05,0.178473,-0.08588555315476609,2.523021827660621e-05,5.5982166943024936e-05,0.19217932766526946,-8.694941968012682e-05,-0.08101841967569556
203,0.1932,0.0633517,783.437,0.0964175,0.0087124,0.0859718,-0.0137724,-0.0902297,0.176622,-0.0848941,2.40391e-05,5.71282e-05,-8.56653e-05,0.179339,-0.0862787206134148,2.4039388941465845e-05,5.712983184680276e-05,0.19317998583858564,-8.566163083301159e-05,-0.08139043999697237
204,0.1942,-0.0798488,783.942,-0.15269,0.0667098,0.0489361,-0.0766027,-0.0906602,0.17746,-0.0853012,2.49707e-05,5.68671e-05,-8.67871e-05,0.180205,-0.08667199296624306,2.4971011770569262e-05,5.686871696419793e-05,0.19418028973551316,-8.678333410860883e-05,-0.08176432983840864
205,0.1952,0.129368,784.922,0.211159,-0.0169996,0.10503,0.0177537,-0.0910899,0.178297,-0.0857056,2.38495e-05,5.80116e-05,-8.54835e-05,0.181069,-0.08706436570354548,2.3849784401619445e-05,5.801328270549355e-05,0.19518023705759835,-8.547984638973549e-05,-0.08213558926970532
206,0.1962,-0.0971416,785.305,-0.185724,0.0745386,0.0450209,-0.0839637,-0.0915197,0.179133,-0.0861126,2.52322e-05,5.74463e-05,-8.71339e-05,0.181933,-0.08745666112884021,2.523251833452811e-05,5.744795007034398e-05,0.19617982550553226,-8.713010395200449e-05,-0.0825090840735242
207,0.1972,0.169259,786.359,0.281751,-0.0331198,0.115566,0.0365881,-0.0919486,0.179969,-0.0865159,2.37581e-05,5.88151e-05,-8.54125e-05,0.182796,-0.08784796704532971,2.3758382225791408e-05,5.881682964181678e-05,0.19718024995881045,-8.540885245622576e-05,-0.08287903355459014
208,0.1982,-0.136224,786.627,-0.255592,0.090641,0.0344348,-0.101761,-0.0923778,0.180804,-0.0869227,2.55992e-05,5.79398e-05,-8.76089e-05,0.18366,-0.08823937869492526,2.5599527662345523e-05,5.7941478542655744e-05,0.19818031293571314,-8.760506245242272e-05,-0.08325204248857898
209,0.1992,0.216522,787.793,0.365685,-0.0523985,0.127906,0.0586362,-0.0928058,0.181638,-0.0873249,2.36169e-05,5.96462e-05,-8.52814e-05,0.184521,-0.08862952874277774,2.3617178881218948e-05,5.9647978869925566e-05,0.19918001213332137,-8.527776364475326e-05,-0.08362068437823655
210,0.2002,-0.189428,787.917,-0.350118,0.112445,0.020085,-0.125948,-0.0932345,0.182471,-0.0877317,2.60462e-05,5.83756e-05,-8.81747e-05,0.185383,-0.08902014952825787,2.6046539205237806e-05,5.837730388846829e-05,0.20017934524788505,-8.817081272538552e-05,-0.0839933916700285
211,0.2012,0.277961,789.235,0.474645,-0.0774731,0.144067,0.0871565,-0.0936617,0.183304,-0.0881324,2.33919e-05,6.05301e-05,-8.50484e-05,0.186242,-0.08940923700537695,2.339217359259571e-05,6.053193198352069e-05,0.20117951115374266,-8.504478348736466e-05,-0.08436036199057262
212,0.2022,-0.259,789.172,-0.473675,0.140951,0.00138624,-0.157711,-0.0940898,0.184136,-0.0885394,2.65888e-05,5.87438e-05,-8.88515e-05,0.187104,-0.08979897748111387,2.658915348519031e-05,5.874552545082068e-05,0.20217930836498876,-8.884755282234647e-05,-0.0847329514961348
213,0.2032,0.358149,790.69,0.616753,-0.110223,0.165282,0.124227,-0.094516,0.184968,-0.0889384,2.30566e-05,6.14848e-05,-8.46833e-05,0.187961,-0.09018682250126675,2.3056865805504145e-05,6.148669022909559e-05,0.2031799377536525,-8.467971447057021e-05,-0.08509807020246196
214,0.2042,-0.349209,790.386,-0.634039,0.177947,-0.0227794,-0.199113,-0.0949436,0.185799,-0.0893459,2.72525e-05,5.90286e-05,-8.9671e-05,0.188822,-0.09057577545189788,2.7252871352745345e-05,5.903034222209946e-05,0.20418019583159563,-8.966697967605075e-05,-0.08547081678657986
215,0.2052,-0.192142,791.272,-0.346236,0.111451,0.0173248,-0.123339,-0.0953696,0.186629,-0.0897475,2.67145e-05,5.95911e-05,-8.92179e-05,0.189679,-0.09096310766393656,2.6714856835363676e-05,5.959287558487958e-05,0.20518008028878398,-8.92139202015585e-05,-0.08583801796762591
216,0.2062,0.0560754,792.272,0.0859255,0.011328,0.0824686,-0.0133585,-0.0957952,0.187458,-0.0901481,2.54611e-05,6.07439e-05,-8.78481e-05,0.190535,-0.09134991144763105,2.5461424136619115e-05,6.074574494796536e-05,0.20617958881438514,-8.784424146868197e-05,-0.08620415791490021
217,0.2072,-0.080037,792.744,-0.154298,0.0672967,0.0471335,-0.0744546,-0.096221,0.188287,-0.0905509,2.63666e-05,6.04923e-05,-8.89337e-05,0.191392,-0.09173673229533374,2.636694760194125e-05,6.049412969599821e-05,0.20717992627610093,-8.89297455157756e-05,-0.08657216075934349
218,0.2082,0.123731,793.679,0.203589,-0.015136,0.102121,0.0190305,-0.096646,0.189115,-0.090951,2.52645e-05,6.16009e-05,-8.7634e-05,0.192247,-0.0921226621682012,2.526481915010592e-05,6.160279737432717e-05,0.20817988518091446,-8.763016025314929e-05,-0.08693755013680449
219,0.2092,-0.0920975,794.036,-0.177921,0.0730151,0.0446723,-0.0793248,-0.0970712,0.189942,-0.0913536,2.65987e-05,6.10625e-05,-8.92174e-05,0.193103,-0.0925086095540183,2.659905374846616e-05,6.106436435238116e-05,0.20917946321450587,-8.921342024614809e-05,-0.08730507509138175
220,0.2102,0.159205,795.032,0.266422,-0.0295258,0.111592,0.0359359,-0.0974955,0.190769,-0.0917528,2.51977e-05,6.23587e-05,-8.75656e-05,0.193956,-0.09289357647447682,2.519801746481143e-05,6.236064434417266e-05,0.21017986824104562,-8.756176624480361e-05,-0.08766935019125777
221,0.2112,-0.124885,795.289,-0.236807,0.086632,0.0357117,-0.0943655,-0.09792,0.191595,-0.0921552,2.69296e-05,6.15517e-05,-8.96229e-05,0.194811,-0.09327856143242486,2.6929962605004576e-05,6.155359434467655e-05,0.21117988976424407,-8.96188839878409e-05,-0.08803639818973064
222,0.2122,0.19883,796.38,0.337113,-0.0458124,0.121979,0.0546274,-0.0983435,0.19242,-0.0925532,2.50987e-05,6.31315e-05,-8.74581e-05,0.195663,-0.09366247666187044,2.5099014975049627e-05,6.313349283515457e-05,0.2121795254663288,-8.745427565182151e-05,-0.08839928748349146
223,0.2132,-0.16869,796.516,-0.31503,0.104728,0.0237922,-0.114445,-0.0987675,0.193245,-0.0929556,2.73229e-05,6.19956e-05,-9.00987e-05,0.196516,-0.09404668231441149,2.732327327392703e-05,6.199752176683226e-05,0.2131799862081496,-9.009464123399535e-05,-0.08876604181428782
224,0.2142,0.248681,797.73,0.426028,-0.0663277,0.135137,0.0780685,-0.0991901,0.194069,-0.0933523,2.49383e-05,6.39418e-05,-8.72752e-05,0.197366,-0.0944294573004143,2.4938610962088603e-05,6.394384432040212e-05,0.21418005848997979,-8.727139163056119e-05,-0.08912745663413091
225,0.2152,-0.224403,797.715,-0.414513,0.127745,0.00868715,-0.140104,-0.0996135,0.194892,-0.0937547,2.77862e-05,6.23895e-05,-9.06554e-05,0.198218,-0.09481279470993698,2.7786586040079442e-05,6.239144626540849e-05,0.21517973999062834,-9.065129092344915e-05,-0.08949391800860773
226,0.2162,0.311861,799.088,0.538685,-0.0923533,0.151908,0.107671,-0.100035,0.195715,-0.09415,2.46986e-05,6.48015e-05,-8.69964e-05,0.199067,-0.09519425071946519,2.469890501299865e-05,6.480359966265503e-05,0.2161802445678016,-8.699261592293173e-05,-0.08985376993340011
227,0.2172,-0.294636,798.884,-0.540059,0.15679,-0.0102924,-0.172623,-0.100458,0.196537,-0.0945527,2.83356e-05,6.27235e-05,-9.1313e-05,0.199918,-0.09557690261482943,2.8336001456796822e-05,6.272546715990757e-05,0.21718035571820593,-9.130883109487176e-05,-0.09022021203217923
228,0.2182,-0.159864,799.704,-0.289133,0.0985641,0.0237806,-0.106461,-0.10088,0.197358,-0.0949501,2.78595e-05,6.32369e-05,-9.0898e-05,0.200767,-0.09595848864161138,2.7859888079406758e-05,6.32388994949995e-05,0.2181800711172679,-9.089386890193119e-05,-0.09058168669014588
229,0.2192,0.0493418,800.614,0.0731334,0.0144363,0.0795373,-0.0137846,-0.101301,0.198178,-0.0953468,2.68156e-05,6.42533e-05,-8.97469e-05,0.201614,-0.09633901001252443,2.6815959541348633e-05,6.425536428755763e-05,0.2191793884396911,-8.974287286744875e-05,-0.09094238138651267
230,0.2202,-0.0618068,801.085,-0.121613,0.0601315,0.0505755,-0.0631944,-0.101722,0.198998,-0.0957451,2.75677e-05,6.40919e-05,-9.06304e-05,0.202462,-0.0967193712176575,2.756807999260147e-05,6.409395392981132e-05,0.22017952553838116,-9.062629318934423e-05,-0.09130438693781506
231,0.2212,0.103351,801.932,0.168128,-0.006903,0.0954464,0.012755,-0.102142,0.199817,-0.0961414,2.66836e-05,6.50378e-05,-8.95807e-05,0.203308,-0.09709866942354717,2.6683956010353782e-05,6.503991500350637e-05,0.2211792619059576,-8.95766877688775e-05,-0.09166443166169747
232,0.2222,-0.0682853,802.315,-0.135625,0.0635466,0.0494187,-0.0658397,-0.102563,0.200636,-0.0965395,2.77634e-05,6.46581e-05,-9.08501e-05,0.204155,-0.09747871087938009,2.7763785406698105e-05,6.466019037998372e-05,0.22217981739300274,-9.084597325459409e-05,-0.09202596808285346
233,0.2232,0.128864,803.202,0.213951,-0.01739,0.102228,0.0252449,-0.102983,0.201454,-0.0969348,2.66711e-05,6.57298e-05,-8.95527e-05,0.204999,-0.09785769022957624,2.6671455676918754e-05,6.573196025061456e-05,0.2231799694900689,-8.954869027666401e-05,-0.09238481928605713
234,0.2242,-0.0907957,803.512,-0.176629,0.0730351,0.043179,-0.0763145,-0.103403,0.202271,-0.0973326,2.80342e-05,6.51613e-05,-9.11613e-05,0.205845,-0.09823651044186654,2.803459296196742e-05,6.516342304352385e-05,0.2241797158659269,-9.115714493490579e-05,-0.09274579680175699
235,0.2252,0.15602,804.464,0.262938,-0.0286803,0.109316,0.0383674,-0.103822,0.203088,-0.097727,2.66427e-05,6.64272e-05,-8.95049e-05,0.206688,-0.0986142701977959,2.6643054919839315e-05,6.642940633527772e-05,0.22518027936832463,-8.950089455594945e-05,-0.09310354730646142
236,0.2262,-0.120455,804.69,-0.23004,0.0854178,0.0350018,-0.0900171,-0.104241,0.203904,-0.0981246,2.83449e-05,6.5634e-05,-9.1516e-05,0.207532,-0.0989918717055428,2.834530172046712e-05,6.563615395815958e-05,0.22618043448407987,-9.151181253863605e-05,-0.09346405766184451
237,0.2272,0.189222,805.724,0.322676,-0.0424799,0.118055,0.0543028,-0.104659,0.204719,-0.0985179,2.65778e-05,6.71454e-05,-8.94112e-05,0.208374,-0.09936841440026412,2.6578153192957643e-05,6.714765430282377e-05,0.22718017887868736,-8.940720293781901e-05,-0.09382052814345077
238,0.2282,-0.157242,805.849,-0.296155,0.100755,0.0248987,-0.107063,-0.105078,0.205533,-0.0989153,2.86977e-05,6.60752e-05,-9.19183e-05,0.209217,-0.09974569998778016,2.869811178296544e-05,6.607738301411814e-05,0.2281795102169697,-9.191407564246301e-05,-0.09418057232005028
239,0.2292,0.23017,806.985,0.396246,-0.0595014,0.128905,0.0738457,-0.105496,0.206347,-0.0993074,2.64664e-05,6.78909e-05,-8.92604e-05,0.210057,-0.10012192764812622,2.646675023831868e-05,6.789320463940207e-05,0.22917965534212792,-8.92564164090004e-05,-0.09453567449531264
240,0.2302,-0.202404,806.986,-0.377337,0.11959,0.0125413,-0.128088,-0.105914,0.20716,-0.0997048,2.91005e-05,6.64801e-05,-9.23778e-05,0.210899,-0.10049799807817372,2.9100923423674985e-05,6.648230985084602e-05,0.2301793847368543,-9.237353330238118e-05,-0.09489543452921478
241,0.2312,0.280481,808.25,0.486597,-0.080429,0.142311,0.0977728,-0.106331,0.207973,-0.100096,2.62987e-05,6.86703e-05,-8.90411e-05,0.211737,-0.10087301221709288,2.629904581374909e-05,6.867265785892585e-05,0.23117992724206315,-8.90371359588693e-05,-0.09524944218681453
242,0.2322,-0.257551,808.099,-0.476565,0.142613,-0.0025,-0.153891,-0.106748,0.208785,-0.100493,2.9563e-05,6.6843e-05,-9.29069e-05,0.212578,-0.10124787000771707,2.9563436989787917e-05,6.684523404310028e-05,0.23218005133841468,-9.29025842876241e-05,-0.09560855686928516
243,0.2332,0.34203,809.521,0.597127,-0.106054,0.158794,0.126972,-0.107164,0.209596,-0.100883,2.60631e-05,6.94914e-05,-8.87399e-05,0.213415,-0.10162167313735215,2.6063439645618303e-05,6.949381458332127e-05,0.23317975468496321,-8.873596273151207e-05,-0.09596120076207737
244,0.2342,-0.324574,809.187,-0.597324,0.170632,-0.0207295,-0.185408,-0.107581,0.210407,-0.10128,3.00968e-05,6.71568e-05,-9.35198e-05,0.214255,-0.10199621880145548,3.0097252913252603e-05,6.715905506826658e-05,0.23418026911977785,-9.35154271598515e-05,-0.09632003293247604
245,0.2352,-0.166215,809.999,-0.303191,0.102292,0.0201718,-0.107348,-0.107997,0.211217,-0.101672,2.94909e-05,6.77389e-05,-9.29408e-05,0.215091,-0.10236971068273648,2.949133486085387e-05,6.77411943310613e-05,0.2351803601199398,-9.293648113761765e-05,-0.09667420605709875
246,0.2362,0.040863,810.866,0.0598089,0.0177241,0.0754824,-0.013911,-0.108412,0.212026,-0.102063,2.84445e-05,6.8725e-05,-9.17742e-05,0.215927,-0.1027421499663066,2.8444904548674543e-05,6.872736161689375e-05,0.23618002534133709,-9.17699888769441e-05,-0.09702733740085379
247,0.2372,-0.0576058,811.313,-0.114964,0.0588327,0.0497419,-0.0585606,-0.108827,0.212834,-0.102456,2.91322e-05,6.85954e-05,-9.25732e-05,0.216763,-0.1031144347196411,2.9132624346672742e-05,6.859775271816915e-05,0.2371792624392366,-9.256891523357069e-05,-0.09738213593477685
248,0.2382,0.0937655,812.101,0.153123,-0.00331202,0.0911935,0.0122711,-0.109242,0.213642,-0.102847,2.83175e-05,6.94713e-05,-9.15888e-05,0.217598,-0.10348656500685705,2.831790094415254e-05,6.947371318655193e-05,0.23817930724698222,-9.15846058738845e-05,-0.09773499053205714
249,0.2392,-0.0590806,812.468,-0.119839,0.0601539,0.049957,-0.0588067,-0.109657,0.21445,-0.10324,2.92975e-05,6.91488e-05,-9.27293e-05,0.218433,-0.10385854089204438,2.9297929176053117e-05,6.915119083328314e-05,0.23918016041746681,-9.272500077139867e-05,-0.09808951101294061
250,0.2402,0.114396,813.284,0.190288,-0.0118367,0.0967321,0.0225372,-0.110071,0.215256,-0.10363,2.8332e-05,7.01123e-05,-9.15665e-05,0.219267,-0.10422946666918131,2.8332401354802528e-05,7.011475792473298e-05,0.240179342242947,-9.156230791595998e-05,-0.09844118752226871
251,0.2412,-0.075484,813.594,-0.149999,0.0671566,0.0453361,-0.0665058,-0.110485,0.216062,-0.104022,2.95316e-05,6.96439e-05,-9.29705e-05,0.2201,-0.10460023891482972,2.953203606193e-05,6.96463251927959e-05,0.24117932973361778,-9.296617837695198e-05,-0.09879452931724353
252,0.2422,0.13444,814.456,0.226713,-0.020256,0.10196,0.0324107,-0.110898,0.216868,-0.104412,2.83436e-05,7.07501e-05,-9.154e-05,0.220932,-0.10496996266294856,2.8344001683722198e-05,7.075260284739038e-05,0.24218012353910745,-9.153581034204716e-05,-0.09914593092304269
253,0.2432,-0.0968489,814.705,-0.18875,0.0761708,0.0393565,-0.0764484,-0.111312,0.217672,-0.104804,2.97931e-05,7.01173e-05,-9.32407e-05,0.221765,-0.10534042840670577,2.9793543818712465e-05,7.011975827531103e-05,0.2431792379486053,-9.323635322100454e-05,-0.09949899651274419
254,0.2442,0.157924,815.625,0.26931,-0.0301221,0.108135,0.0439153,-0.111725,0.218477,-0.105192,2.83337e-05,7.13987e-05,-9.14856e-05,0.222596,-0.10570984651968252,2.8334101403126866e-05,7.140124894777777e-05,0.24418040014887454,-9.1481415320116e-05,-0.09984832312835135
255,0.2452,-0.122484,815.801,-0.235145,0.0869695,0.0322113,-0.0884154,-0.112137,0.21928,-0.105584,3.00798e-05,7.05707e-05,-9.35387e-05,0.223427,-0.10607821817314511,3.008025240180956e-05,7.057319017045316e-05,0.24517987824694454,-9.353432539216389e-05,-0.10020111343426752
256,0.2462,0.185854,816.792,0.319907,-0.0418586,0.11553,0.0575194,-0.112549,0.220083,-0.105971,2.82968e-05,7.20616e-05,-9.13971e-05,0.224256,-0.10644643808874654,2.829720035824046e-05,7.206419649952167e-05,0.24618015924824954,-9.139292341231453e-05,-0.10054926823107002
257,0.2472,-0.152876,816.882,-0.290153,0.0997756,0.0237744,-0.102672,-0.112962,0.220885,-0.106362,3.03953e-05,7.10021e-05,-9.38687e-05,0.225086,-0.10681539951403718,3.0395761941859334e-05,7.100462070885882e-05,0.24717999661715995,-9.386429447144629e-05,-0.10090088472168812
258,0.2482,0.218969,817.957,0.379871,-0.0557824,0.124351,0.0735886,-0.113373,0.221686,-0.106749,2.82282e-05,7.27419e-05,-9.12692e-05,0.225914,-0.10718242295635294,2.822859841944414e-05,7.274454575623146e-05,0.2481793879972638,-9.126503509326866e-05,-0.1012487687593977
259,0.2492,-0.188714,817.947,-0.355076,0.114891,0.01386,-0.119568,-0.113784,0.222487,-0.10714,3.07436e-05,7.14091e-05,-9.42362e-05,0.226743,-0.10754929558302873,3.07440725892949e-05,7.14116496904893e-05,0.24917958021055409,-9.423175990874721e-05,-0.10160011179877237
260,0.2502,0.258061,819.122,0.450662,-0.0722345,0.134818,0.0925095,-0.114195,0.223287,-0.107525,2.8123e-05,7.34431e-05,-9.1096e-05,0.227569,-0.10791601745603696,2.812339545532616e-05,7.344579701040743e-05,0.25017932371880613,-9.109185088540528e-05,-0.10194592918161216
261,0.2512,-0.230786,818.995,-0.431382,0.132657,0.00225596,-0.139503,-0.114606,0.224087,-0.107916,3.11298e-05,7.17887e-05,-9.46473e-05,0.228397,-0.10828258863732465,3.1130284537272956e-05,7.179127687040321e-05,0.25117986734186815,-9.464282108562205e-05,-0.10229699968454609
262,0.2522,0.304019,820.289,0.533905,-0.0915949,0.147181,0.11471,-0.115016,0.224886,-0.1083,2.79755e-05,7.41688e-05,-9.08713e-05,0.229222,-0.10864811783737682,2.7975891317977286e-05,7.417155057343194e-05,0.25217995953950223,-9.08671713284459e-05,-0.10264165145929138
263,0.2532,-0.279961,820.024,-0.52069,0.15345,-0.0112725,-0.162917,-0.115426,0.225684,-0.108692,3.15592e-05,7.21379e-05,-9.51086e-05,0.230048,-0.10901349720117559,3.155969799673031e-05,7.21405020007726e-05,0.25317959794989275,-9.510407732049586e-05,-0.10299334699509077
264,0.2542,0.357831,821.459,0.6314,-0.114286,0.161716,0.140663,-0.115835,0.226482,-0.109074,2.77797e-05,7.49234e-05,-9.05881e-05,0.230871,-0.10937783616842267,2.7780085859463455e-05,7.492620682802986e-05,0.25418003439010617,-9.058399702199793e-05,-0.1033359380974721
265,0.2552,-0.337191,821.035,-0.624778,0.177686,-0.026981,-0.190293,-0.116245,0.227279,-0.109466,3.20376e-05,7.24533e-05,-9.56276e-05,0.231697,-0.10974291640903011,3.203811320928729e-05,7.24559248037604e-05,0.25518001431658277,-9.562302782684107e-05,-0.1036873615262458
266,0.2562,-0.163055,821.825,-0.300121,0.10206,0.0186653,-0.103567,-0.116654,0.228075,-0.109851,3.13243e-05,7.30869e-05,-9.49032e-05,0.23252,-0.11010695710482177,3.1324790610964826e-05,7.30895709124546e-05,0.25617953536457994,-9.489869683376728e-05,-0.1040323754726118
267,0.2572,0.0315076,822.633,0.0442877,0.0215362,0.0709675,-0.0142821,-0.117062,0.228871,-0.110236,3.0333e-05,7.40088e-05,-9.37839e-05,0.233343,-0.11046995940881743,3.03334600499916e-05,7.401153871877675e-05,0.2571798523480715,-9.377950242750455e-05,-0.10437725661417507
268,0.2582,-0.0493624,823.059,-0.1007,0.0558003,0.0497766,-0.0514956,-0.11747,0.229666,-0.110622,3.09222e-05,7.39305e-05,-9.44541e-05,0.234165,-0.11083281363808228,3.092267809612359e-05,7.393323292670395e-05,0.25817970772053767,-9.44496393519012e-05,-0.10472290027960296
269,0.2592,0.0805561,823.775,0.131342,0.00185077,0.0856921,0.0103312,-0.117878,0.230461,-0.111007,3.0223e-05,7.47048e-05,-9.35907e-05,0.234986,-0.11119551985301868,3.022345671954696e-05,7.470759047301101e-05,0.25918035829407526,-9.35863205270282e-05,-0.1050675156202856
270,0.2602,-0.0459852,824.134,-0.096656,0.0550401,0.0512912,-0.0494392,-0.118286,0.231254,-0.111393,3.10559e-05,7.44671e-05,-9.45448e-05,0.235807,-0.11155807811400398,3.1056382239436076e-05,7.446987274328798e-05,0.2601792843400319,-9.454033078126756e-05,-0.10541289289715339
271,0.2612,0.0956297,824.863,0.158667,-0.00442499,0.0897698,0.0180273,-0.118693,0.232048,-0.111777,3.02679e-05,7.52883e-05,-9.3577e-05,0.236627,-0.11191960040143556,3.0268358077512048e-05,7.529113423521139e-05,0.2611802640281464,-9.357262180909043e-05,-0.10575634839860415
272,0.2622,-0.0560817,825.183,-0.115537,0.0594373,0.0483662,-0.0542243,-0.1191,0.23284,-0.112163,3.12511e-05,7.49514e-05,-9.47121e-05,0.237447,-0.11228097557923511,3.125158832073538e-05,7.495420892644766e-05,0.2621795144481902,-9.470761495067315e-05,-0.10610145983732966
273,0.2632,0.108441,825.941,0.182214,-0.00988054,0.0930804,0.0245364,-0.119507,0.233632,-0.112546,3.03203e-05,7.58623e-05,-9.35714e-05,0.238265,-0.11264220370726385,3.0320759665025676e-05,7.58651776171515e-05,0.26317955658804637,-9.356702233309644e-05,-0.10644375742403978
274,0.2642,-0.0692973,826.22,-0.139747,0.0650903,0.0445754,-0.0604019,-0.119913,0.234424,-0.112931,3.14629e-05,7.54215e-05,-9.48959e-05,0.239084,-0.11300239784820032,3.1463394962294444e-05,7.542434427287859e-05,0.26418039107500535,-9.489139752649756e-05,-0.10678771036224244
275,0.2652,0.122649,827.013,0.20828,-0.0159327,0.096782,0.0317206,-0.120319,0.235214,-0.113313,3.03634e-05,7.64392e-05,-9.35527e-05,0.239901,-0.1133624457799981,3.036386097265975e-05,7.644212155000218e-05,0.26517948817534776,-9.354832408259295e-05,-0.10712885229462654
276,0.2662,-0.0845615,827.247,-0.167613,0.0716025,0.0402169,-0.0675544,-0.120725,0.236004,-0.113698,3.16867e-05,7.58805e-05,-9.5092e-05,0.240719,-0.11372234756200594,3.1687202028729544e-05,7.588337899799846e-05,0.26617937487425003,-9.508747889908076e-05,-0.10747254152207153
277,0.2672,0.138819,828.081,0.237895,-0.0228203,0.101027,0.0398415,-0.12113,0.236794,-0.11408,3.03943e-05,7.70208e-05,-9.35177e-05,0.241534,-0.11408121733520893,3.0394761911356483e-05,7.702376617801932e-05,0.267180051795741,-9.351332735618723e-05,-0.10781342189891296
278,0.2682,-0.101911,828.264,-0.199275,0.0790041,0.0352855,-0.0757237,-0.121536,0.237583,-0.114464,3.19232e-05,7.63283e-05,-9.53013e-05,0.242351,-0.11444082735519712,3.192370955074075e-05,7.633121307870638e-05,0.26818025138345813,-9.52967589753495e-05,-0.10815595577419068
279,0.2692,0.157182,829.144,0.271504,-0.030645,0.105881,0.0490218,-0.12194,0.238371,-0.114845,3.04115e-05,7.76082e-05,-9.34646e-05,0.243165,-0.11479852100196386,3.0411962434362394e-05,7.76112115943306e-05,0.2691799712594487,-9.346023232037481e-05,-0.10849568363277406
280,0.2702,-0.121516,829.271,-0.235077,0.0873747,0.0297354,-0.0850045,-0.122345,0.239159,-0.115229,3.21735e-05,7.67641e-05,-9.55253e-05,0.24398,-0.11515695501317136,3.217401757260596e-05,7.67670464389969e-05,0.27018047922516786,-9.552073760377144e-05,-0.10883795556984133
281,0.2712,0.177941,830.204,0.309499,-0.0394986,0.111402,0.0593681,-0.122748,0.239945,-0.115609,3.04137e-05,7.82022e-05,-9.33919e-05,0.244793,-0.11551347491671538,3.0414162501157804e-05,7.820525787183286e-05,0.27117923354086604,-9.338753911225517e-05,-0.10917653281297435
282,0.2722,-0.143571,830.267,-0.275395,0.0968016,0.0235136,-0.0955001,-0.123153,0.240732,-0.115993,3.24388e-05,7.71875e-05,-9.57655e-05,0.245607,-0.11587161943021473,3.2439326143496316e-05,7.719047903176346e-05,0.2721800453654597,-9.576091463092684e-05,-0.10951854335414757
283,0.2732,0.201309,831.26,0.35228,-0.0494744,0.117649,0.0709872,-0.123556,0.241518,-0.116372,3.03995e-05,7.88038e-05,-9.3298e-05,0.246419,-0.11622785138202474,3.0399962069438402e-05,7.880690510098098e-05,0.27318037195796796,-9.329364787691308e-05,-0.10985597187947183
284,0.2742,-0.168277,831.252,-0.32061,0.107374,0.016565,-0.107316,-0.123959,0.242303,-0.116755,3.27205e-05,7.75976e-05,-9.60236e-05,0.247232,-0.11658393980128201,3.2721035321481295e-05,7.760061077166647e-05,0.2741802109354099,-9.601898988165214e-05,-0.11019683176340744
285,0.2752,0.227503,832.313,0.400252,-0.0606679,0.124684,0.083988,-0.124362,0.243087,-0.117133,3.03674e-05,7.94139e-05,-9.31813e-05,0.248042,-0.1169398847458184,3.0367861094227067e-05,7.941705336733662e-05,0.27517955991439513,-9.317695875754595e-05,-0.110533113799692
286,0.2762,-0.195835,832.226,-0.371111,0.119184,0.00883405,-0.120559,-0.124765,0.243871,-0.117516,3.30197e-05,7.79938e-05,-9.63013e-05,0.248854,-0.11729568627344256,3.3020245156389905e-05,7.799684159559561e-05,0.27617969269018783,-9.629666317867436e-05,-0.11087371438793048
287,0.2772,0.256743,833.364,0.453825,-0.0731761,0.132571,0.0984799,-0.125166,0.244654,-0.117893,3.0316e-05,8.00335e-05,-9.30402e-05,0.249663,-0.11764957974286405,3.0316459534551754e-05,8.00367027660176e-05,0.2771793326975549,-9.303587189479767e-05,-0.11120885182023088
288,0.2782,-0.226446,833.19,-0.427279,0.132319,0.000265801,-0.135335,-0.125569,0.245437,-0.118277,3.33378e-05,7.83755e-05,-9.66002e-05,0.250473,-0.1180050953210271,3.3338355710732515e-05,7.837857143977445e-05,0.2781797557295618,-9.659553435092949e-05,-0.11155008210072503
289,0.2792,0.289248,834.413,0.513409,-0.0870955,0.141371,0.114572,-0.12597,0.246219,-0.118653,3.02439e-05,8.06637e-05,-9.28731e-05,0.251281,-0.11835870437444984,3.0244357351438822e-05,8.066695340369634e-05,0.2791796832192339,-9.286878742720273e-05,-0.11188407647497789
290,0.2802,-0.260305,834.141,-0.48949,0.14687,-0.00919316,-0.151749,-0.126372,0.247001,-0.119036,3.3676e-05,7.8742e-05,-9.69219e-05,0.25209,-0.11871305294645629,3.36765670427841e-05,7.874510023264669e-05,0.2801803929580229,-9.691720322435593e-05,-0.1122241597435848
291,0.2812,0.325234,835.459,0.579405,-0.102522,0.151149,0.132372,-0.126772,0.247781,-0.119411,3.01496e-05,8.13056e-05,-9.26785e-05,0.252896,-0.11906549723172144,3.0150054503685908e-05,8.130890538993185e-05,0.2811793231966775,-9.267420548053629e-05,-0.11255701326974421
292,0.2822,-0.297599,835.082,-0.558103,0.162919,-0.0195936,-0.169903,-0.127173,0.248562,-0.119794,3.40354e-05,7.90928e-05,-9.72681e-05,0.253705,-0.11941868114922338,3.403597921081136e-05,7.909592791799369e-05,0.28218031508454566,-9.726336961168869e-05,-0.11289683885290869
293,0.2832,0.364912,836.504,0.652203,-0.119547,0.161965,0.151983,-0.127573,0.249341,-0.120167,3.00317e-05,8.19601e-05,-9.24548e-05,0.254509,-0.11977084323965004,3.0032150956094128e-05,8.196345882072187e-05,0.28317952269082913,-9.245052618667149e-05,-0.11322766662880068
294,0.2842,-0.338499,836.01,-0.633456,0.180546,-0.0309824,-0.189892,-0.127973,0.25012,-0.12055,3.44172e-05,7.94275e-05,-9.76402e-05,0.255317,-0.12012286449340981,3.441779227864039e-05,7.943065444737663e-05,0.28417950898309674,-9.763543335084002e-05,-0.11356723540091107
295,0.2852,-0.152753,836.766,-0.284325,0.0989135,0.0184038,-0.0958827,-0.128373,0.250899,-0.120927,3.36004e-05,8.01048e-05,-9.67673e-05,0.256121,-0.12047474496682598,3.360096449966932e-05,8.010800847513266e-05,0.2851802745681813,-9.676261819580034e-05,-0.11390135756717923
296,0.2862,0.0208213,837.495,0.0259812,0.0260415,0.0655568,-0.01471,-0.128772,0.251676,-0.121303,3.271e-05,8.09314e-05,-9.57444e-05,0.256925,-0.12082560554224475,3.271053497777565e-05,8.093467503411667e-05,0.2861792476923204,-9.573981665123021e-05,-0.11423446802804282
297,0.2872,-0.0380381,837.901,-0.0804803,0.051411,0.0501395,-0.0420849,-0.129171,0.252454,-0.121681,3.31698e-05,8.09193e-05,-9.62455e-05,0.257729,-0.12117632615221874,3.317035012395664e-05,8.092257405478698e-05,0.28718028449985056,-9.624086855042346e-05,-0.11456922412623971
298,0.2882,0.0643048,838.529,0.103939,0.00835093,0.0787888,0.00756644,-0.129569,0.25323,-0.122057,3.26233e-05,8.15641e-05,-9.5547e-05,0.258532,-0.1215260283790508,3.262383214552855e-05,8.156742644160886e-05,0.2881795240554268,-9.554243553078212e-05,-0.11490208351648135
299,0.2892,-0.0302859,838.881,-0.0682344,0.0487035,0.0528121,-0.0379292,-0.129968,0.254006,-0.122435,3.32722e-05,8.14298e-05,-9.62684e-05,0.259335,-0.12187646957605958,3.3272753525714904e-05,8.14331154961323e-05,0.28917953932183504,-9.626376634630507e-05,-0.11523658730371344
300,0.2902,0.0738083,839.509,0.121349,0.00435434,0.0813727,0.0126305,-0.130366,0.254782,-0.12281,3.26982e-05,8.20824e-05,-9.55381e-05,0.260136,-0.12222589320125443,3.2698734591996015e-05,8.208576885238017e-05,0.2901803309012605,-9.553353638103168e-05,-0.11556831138132251
301,0.2912,-0.0345243,839.839,-0.0765149,0.0506347,0.0514886,-0.0399501,-0.130764,0.255556,-0.123187,3.34296e-05,8.18939e-05,-9.636e-05,0.260938,-0.12257517778351767,3.343015877521616e-05,8.1897253396912e-05,0.29117931703513955,-9.635535752428037e-05,-0.11590167928413364
302,0.2922,0.0800392,840.479,0.133043,0.00164212,0.082921,0.0160034,-0.131161,0.256331,-0.123562,3.27875e-05,8.25873e-05,-9.55457e-05,0.261738,-0.12292344630206253,3.2788037515940616e-05,8.25907104249346e-05,0.29218036886332044,-9.554113565501954e-05,-0.11623315399900858
303,0.2932,-0.0405704,840.788,-0.0877797,0.0532774,0.0496538,-0.0427464,-0.131559,0.257104,-0.123938,3.35959e-05,8.23493e-05,-9.64592e-05,0.262539,-0.12327245331343206,3.35964643485287e-05,8.235269079670537e-05,0.29317961044556706,-9.645454796092245e-05,-0.11656538786922321
304,0.2942,0.0863458,841.442,0.144848,-0.00110366,0.0844957,0.0194109,-0.131955,0.257877,-0.124313,3.28757e-05,8.30902e-05,-9.55503e-05,0.263338,-0.12361956868853952,3.287624041181658e-05,8.309365208636343e-05,0.29417962474017156,-9.554573521552978e-05,-0.11689661374004001
305,0.2952,-0.0472377,841.73,-0.100104,0.0561739,0.0476407,-0.0458269,-0.132352,0.25865,-0.124688,3.37655e-05,8.27996e-05,-9.65607e-05,0.264137,-0.12396742266618688,3.376607006089216e-05,8.280302798158168e-05,0.2951804123446715,-9.65560381656072e-05,-0.11722771542444155
306,0.2962,0.0930863,842.401,0.157421,-0.00403493,0.0861931,0.0230191,-0.132748,0.259421,-0.125062,3.2961e-05,8.35922e-05,-9.555e-05,0.264935,-0.1243142628879147,3.296154321974498e-05,8.359569392535349e-05,0.2961793814957112,-9.554543524414871e-05,-0.1175578105272409
307,0.2972,-0.0543848,842.665,-0.113291,0.0592754,0.0454928,-0.0491415,-0.133144,0.260193,-0.125437,3.3938e-05,8.32452e-05,-9.66639e-05,0.265733,-0.12466096578810615,3.3938575900505086e-05,8.324866497777528e-05,0.29718041832872677,-9.665922819579453e-05,-0.11788866430933176
308,0.2982,0.100288,843.353,0.170834,-0.00716608,0.0880221,0.0268514,-0.13354,0.260963,-0.12581,3.30432e-05,8.40934e-05,-9.55446e-05,0.26653,-0.12500753142112975,3.304374593260384e-05,8.409693594901846e-05,0.2981796318986949,-9.554003576006664e-05,-0.11821763048153922
309,0.2992,-0.0619862,843.594,-0.127316,0.0625755,0.0432182,-0.0526851,-0.133935,0.261733,-0.126185,3.41131e-05,8.36864e-05,-9.67687e-05,0.267326,-0.12535308519485522,3.4113681858460865e-05,8.368990180440683e-05,0.2991796151594046,-9.676401806035795e-05,-0.11854823687753513
310,0.3002,0.107943,844.301,0.185087,-0.0104967,0.0899809,0.0309095,-0.13433,0.262503,-0.126558,3.31223e-05,8.45937e-05,-9.55339e-05,0.268122,-0.12569850250179393,3.312284854950498e-05,8.45972781480242e-05,0.3001803687037463,-9.552933678225184e-05,-0.11887695707505175
311,0.3012,-0.070028,844.516,-0.142165,0.0660702,0.040821,-0.0564548,-0.134725,0.263271,-0.126932,3.4291e-05,8.41231e-05,-9.68753e-05,0.268917,-0.12604378339583977,3.42915879429917e-05,8.412663844725721e-05,0.30117929076388283,-9.687060773966305e-05,-0.11920643547680398
312,0.3022,0.116041,845.243,0.200167,-0.0140229,0.092066,0.0351899,-0.135119,0.26404,-0.127304,3.31984e-05,8.50932e-05,-9.55182e-05,0.269712,-0.1263880543193563,3.319895107289916e-05,8.509682052904033e-05,0.3021802824704627,-9.551363828197434e-05,-0.11953402974649474
313,0.3032,-0.078495,845.432,-0.157816,0.0697542,0.0383052,-0.0604455,-0.135514,0.264807,-0.127678,3.44714e-05,8.45556e-05,-9.69835e-05,0.270506,-0.12673306289422082,3.4471994145635065e-05,8.455917492544707e-05,0.30317943787423207,-9.697879725234504e-05,-0.11986326244901646
314,0.3042,0.124564,846.18,0.216045,-0.0177386,0.0942731,0.0396862,-0.135907,0.265574,-0.128049,3.32716e-05,8.55917e-05,-9.54974e-05,0.271299,-0.12707618937173426,3.327215350590329e-05,8.559536307406468e-05,0.30417935992416756,-9.549284026844074e-05,-0.12018973261468757
315,0.3052,-0.0873675,846.342,-0.174237,0.0736199,0.0356762,-0.064649,-0.136301,0.266341,-0.128422,3.46543e-05,8.49839e-05,-9.70932e-05,0.272092,-0.12742005360741904,3.465490046727915e-05,8.498751123386938e-05,0.30518004920851216,-9.708848660783254e-05,-0.12051784064846982
316,0.3062,0.133491,847.112,0.232687,-0.0216352,0.0965965,0.044389,-0.136694,0.267107,-0.128793,3.3342e-05,8.60894e-05,-9.54719e-05,0.272884,-0.1277629101506278,3.334255585074608e-05,8.609310579865692e-05,0.30618020013510683,-9.546734270315937e-05,-0.12084406801067171
317,0.3072,-0.0966208,847.245,-0.191384,0.0776573,0.0329406,-0.0690544,-0.137087,0.267872,-0.129166,3.48395e-05,8.54081e-05,-9.72043e-05,0.273676,-0.12810563197768843,3.484010690235628e-05,8.541174737564106e-05,0.3071798102903449,-9.719957581511007e-05,-0.12117193202286414
318,0.3082,0.142795,848.039,0.250044,-0.0257017,0.0990289,0.0492859,-0.137479,0.268637,-0.129535,3.34097e-05,8.6586e-05,-9.54417e-05,0.274466,-0.12844734758931753,3.341025811032239e-05,8.658974867592484e-05,0.30818018543992465,-9.543714558579719e-05,-0.12149615975625205
319,0.3092,-0.106225,848.142,-0.209205,0.0818539,0.0301068,-0.0736475,-0.137872,0.269401,-0.129908,3.50269e-05,8.58285e-05,-9.73165e-05,0.275257,-0.1287898004853132,3.502751344908184e-05,8.583218337099296e-05,0.3091800169886194,-9.731176490301863e-05,-0.12182378058358012
320,0.3102,0.152444,848.96,0.268059,-0.0299246,0.101562,0.0543615,-0.138264,0.270164,-0.130277,3.34748e-05,8.70816e-05,-9.54072e-05,0.276046,-0.1291312479554465,3.347536028730502e-05,8.708539171253804e-05,0.3101793025205326,-9.540264887786254e-05,-0.12214776782922177
321,0.3112,-0.116144,849.033,-0.227634,0.0861948,0.0271843,-0.0784114,-0.138656,0.270927,-0.130649,3.52162e-05,8.62451e-05,-9.74297e-05,0.276836,-0.12947256160440213,3.521682009766103e-05,8.624881921548422e-05,0.3111793507982572,-9.74249538808758e-05,-0.12247426812676876
322,0.3122,0.1624,849.877,0.286662,-0.0342877,0.104184,0.0595976,-0.139047,0.27169,-0.131017,3.35378e-05,8.75759e-05,-9.53686e-05,0.277624,-0.12981287129793417,3.35383623983887e-05,8.757973488116022e-05,0.3121801624039906,-9.536405255961e-05,-0.12279713818436377
323,0.3132,-0.126337,849.918,-0.246596,0.0906624,0.0241847,-0.0833261,-0.139438,0.272452,-0.131389,3.54072e-05,8.66582e-05,-9.75436e-05,0.278413,-0.13015304795638605,3.5407826842304146e-05,8.666195493023388e-05,0.3131804247392924,-9.75388427777446e-05,-0.12312339696106434
324,0.3142,0.172618,850.789,0.305773,-0.0387723,0.106884,0.0649729,-0.139829,0.273213,-0.131757,3.35987e-05,8.80689e-05,-9.53262e-05,0.2792,-0.13049309163176437,3.359926444268524e-05,8.807277817934889e-05,0.31418013538417333,-9.53216566021986e-05,-0.12344602818319683
325,0.3152,-0.136756,850.798,-0.266007,0.0952366,0.0211207,-0.088369,-0.140219,0.273973,-0.132128,3.55995e-05,8.7068e-05,-9.76578e-05,0.279987,-0.1308321332086232,3.560013366965542e-05,8.707179052835912e-05,0.3151792919184555,-9.765303163222772e-05,-0.12377116938931776
326,0.3162,0.18305,851.695,0.325301,-0.0433573,0.109649,0.0704632,-0.140609,0.274733,-0.132495,3.36579e-05,8.85603e-05,-9.52805e-05,0.280773,-0.13117104258504775,3.3658466433550416e-05,8.85642215791016e-05,0.3161792081003334,-9.5275960957375e-05,-0.1240926863681775
327,0.3172,-0.147349,851.672,-0.285769,0.099895,0.0180068,-0.0935142,-0.140999,0.275493,-0.132866,3.57929e-05,8.74747e-05,-9.7772e-05,0.281559,-0.13150981981258614,3.579354057348105e-05,8.747852602319917e-05,0.31717988450735835,-9.776722047383224e-05,-0.12441758770860956
328,0.3182,0.19364,852.596,0.345145,-0.048019,0.112463,0.0760417,-0.141389,0.276252,-0.133232,3.37158e-05,8.90501e-05,-9.52318e-05,0.282343,-0.13184846494276659,3.371636838389591e-05,8.905406507775382e-05,0.3181800035368587,-9.52272655960762e-05,-0.12473799223390347
329,0.3192,-0.15806,852.54,-0.305777,0.104613,0.0148587,-0.0987337,-0.141778,0.27701,-0.133603,3.5987e-05,8.78787e-05,-9.78858e-05,0.283129,-0.1321861102136409,3.598764753975914e-05,8.788256144609541e-05,0.31917956276462767,-9.788100934138289e-05,-0.1250626542102642
330,0.3202,0.204329,853.493,0.365196,-0.0527316,0.115309,0.0816788,-0.142167,0.277768,-0.133968,3.37727e-05,8.95379e-05,-9.51807e-05,0.283911,-0.1325236241660479,3.37732703039606e-05,8.954190863730283e-05,0.32017987994551933,-9.517617046084226e-05,-0.1253819480668038
331,0.3212,-0.168826,853.403,-0.325918,0.109364,0.0116934,-0.103997,-0.142556,0.278525,-0.134338,3.61814e-05,8.82801e-05,-9.79987e-05,0.284696,-0.13286100685106073,3.618205455468981e-05,8.828399680260723e-05,0.3211796344739848,-9.799389828424321e-05,-0.12570549688579635
332,0.3222,0.215051,854.384,0.385335,-0.0574674,0.118169,0.0873428,-0.142944,0.279282,-0.134703,3.38289e-05,9.00237e-05,-9.51276e-05,0.285477,-0.13319739151755716,3.382947220376131e-05,9.002775225486204e-05,0.3221801461031548,-9.512307551329258e-05,-0.12602455614757557
333,0.3232,-0.179582,854.261,-0.34607,0.114119,0.00852919,-0.10927,-0.143333,0.280038,-0.135073,3.63757e-05,8.86793e-05,-9.81102e-05,0.286261,-0.13353451215804113,3.6376361603807084e-05,8.86832321254083e-05,0.3231800922256176,-9.810538735166574e-05,-0.12634786724555935
334,0.3242,0.225741,855.27,0.405435,-0.0621966,0.121026,0.093,-0.14372,0.280793,-0.135437,3.3885e-05,9.0507e-05,-9.5073e-05,0.287041,-0.13386976942537043,3.388557410310966e-05,9.051109588198436e-05,0.3241794704130412,-9.506848070550689e-05,-0.12666581875119742
335,0.3252,-0.190258,855.114,-0.366105,0.118849,0.00538507,-0.11452,-0.144108,0.281548,-0.135806,3.65694e-05,8.90765e-05,-9.82199e-05,0.287823,-0.13420576276790985,3.657006866863988e-05,8.908046742917008e-05,0.32517960341590313,-9.821507658358541e-05,-0.126988019614363
336,0.3262,0.236325,856.15,0.425364,-0.0668882,0.123858,0.0986146,-0.144495,0.282303,-0.136169,3.39414e-05,9.09877e-05,-9.50175e-05,0.288602,-0.13454076031151296,3.394197601580551e-05,9.099183950622702e-05,0.32618049180430453,-9.501298598035834e-05,-0.12730486545224418
337,0.3272,-0.200785,855.962,-0.385888,0.123521,0.0022809,-0.11971,-0.144882,0.283056,-0.136538,3.67621e-05,8.94721e-05,-9.83272e-05,0.289383,-0.13487562823614951,3.676277573427811e-05,8.947610274767648e-05,0.3271794817871587,-9.832236603934952e-05,-0.12762683055067836
338,0.3282,0.246729,857.026,0.444985,-0.0715098,0.126645,0.10415,-0.145268,0.283809,-0.136901,3.39984e-05,9.14656e-05,-9.49617e-05,0.290161,-0.13520950180190672,3.399897795208773e-05,9.146978310559106e-05,0.32817922429275903,-9.495719128049807e-05,-0.12794344454227236
339,0.3292,-0.211087,856.805,-0.405284,0.128104,-0.000762959,-0.124802,-0.145655,0.284562,-0.13727,3.69534e-05,8.98665e-05,-9.84315e-05,0.290941,-0.13554411097365848,3.6954082785367603e-05,8.98705381149334e-05,0.3291797198879691,-9.842665577886045e-05,-0.1282651740484918
340,0.3302,0.25688,857.896,0.464157,-0.0760284,0.129365,0.109568,-0.146041,0.285314,-0.137632,3.40567e-05,9.19403e-05,-9.49061e-05,0.291718,-0.13587772655487318,3.4057279935995055e-05,9.194452663896513e-05,0.3301796389597742,-9.49015965585609e-05,-0.12858068494456854
341,0.3312,-0.221092,857.644,-0.424153,0.132565,-0.00372585,-0.129759,-0.146427,0.286066,-0.138,3.71426e-05,9.02598e-05,-9.85324e-05,0.292496,-0.13621121338532405,3.714328979498305e-05,9.026387353827658e-05,0.33118031025352157,-9.852754584249723e-05,-0.12890130825420165
342,0.3322,0.2667,858.76,0.482739,-0.0804104,0.131998,0.11483,-0.146812,0.286817,-0.138361,3.41167e-05,9.24115e-05,-9.48514e-05,0.293272,-0.1365437080588391,3.411728198132735e-05,9.241577007412793e-05,0.3321804021540262,-9.484690174821342e-05,-0.1292157181275252
343,0.3332,-0.230724,858.478,-0.442354,0.136872,-0.0065871,-0.134543,-0.147198,0.287567,-0.138729,3.73295e-05,9.06525e-05,-9.86292e-05,0.294049,-0.1368769378700373,3.733019675444815e-05,9.065660906193429e-05,0.33317991222506627,-9.862433630036804e-05,-0.1295361077879411
344,0.3342,0.276113,859.62,0.500587,-0.0846222,0.134522,0.119898,-0.147582,0.288317,-0.139089,3.41788e-05,9.28791e-05,-9.47981e-05,0.294824,-0.13720831349770268,3.417938410188448e-05,9.288341339708239e-05,0.3341801722098421,-9.479360680209048e-05,-0.12984941838984532
345,0.3352,-0.239911,859.308,-0.459751,0.14099,-0.00932622,-0.139114,-0.147967,0.289066,-0.139457,3.75134e-05,9.10448e-05,-9.87214e-05,0.2956,-0.13754042436156255,3.7514103636393514e-05,9.104894470368663e-05,0.335179847490485,-9.871652720294666e-05,-0.13016957489146852
346,0.3362,0.285045,860.473,0.517561,-0.0886308,0.136915,0.124734,-0.148351,0.289815,-0.139817,3.42436e-05,9.33426e-05,-9.47468e-05,0.296373,-0.13787154525932654,3.424418631881032e-05,9.334695655605074e-05,0.3361802718083926,-9.474231166373137e-05,-0.1304826574862592
347,0.3372,-0.248581,860.135,-0.476206,0.144889,-0.0119232,-0.143438,-0.148736,0.290563,-0.140184,3.76939e-05,9.14371e-05,-9.88084e-05,0.297149,-0.13820340082810556,3.7694610423910646e-05,9.144128049909384e-05,0.3371801085440267,-9.880351861080161e-05,-0.13080171180091393
348,0.3382,0.293423,861.322,0.533526,-0.0924038,0.139156,0.129302,-0.149119,0.29131,-0.140543,3.43116e-05,9.38018e-05,-9.46981e-05,0.297921,-0.13853340572561657,3.431218864968777e-05,9.380619952636948e-05,0.3381793552572907,-9.469361627645334e-05,-0.13111369798150718
349,0.3392,-0.256665,860.957,-0.49159,0.148538,-0.0143589,-0.147476,-0.149503,0.292057,-0.14091,3.78706e-05,9.18296e-05,-9.88897e-05,0.298695,-0.13886414539173786,3.7871317100313107e-05,9.18338164668242e-05,0.3391793486867134,-9.888481057473975e-05,-0.13143252074679213
350,0.3402,0.301178,862.164,0.548349,-0.0959102,0.141227,0.133564,-0.149886,0.292804,-0.141268,3.43831e-05,9.42565e-05,-9.46525e-05,0.299466,-0.13919389727253673,3.4383691105643877e-05,9.426094228337512e-05,0.3401800893903,-9.464802059344635e-05,-0.13174341225146502
351,0.3412,-0.264099,861.775,-0.505778,0.151907,-0.016615,-0.151196,-0.150269,0.29355,-0.141634,3.8043e-05,9.22226e-05,-9.89647e-05,0.300239,-0.13952352288254766,3.80437236440212e-05,9.222685263465813e-05,0.3411802367455654,-9.895980315566266e-05,-0.13206113601558533
352,0.3422,0.308244,863.001,0.561908,-0.0991207,0.143108,0.137489,-0.150651,0.294295,-0.141992,3.44586e-05,9.47064e-05,-9.46106e-05,0.301008,-0.13985216212271534,3.445919370448358e-05,9.47108847926259e-05,0.3421797883086668,-9.46061245583607e-05,-0.13237180251627012
353,0.3432,-0.270822,862.59,-0.518656,0.154969,-0.0186744,-0.154564,-0.151034,0.29504,-0.142358,3.82108e-05,9.26163e-05,-9.90331e-05,0.301781,-0.14018153566556257,3.821153004190947e-05,9.262058902193004e-05,0.3431800848151396,-9.902819638440974e-05,-0.13268929633163684
354,0.3442,0.314561,863.833,0.574087,-0.102008,0.144782,0.141044,-0.151415,0.295784,-0.142715,3.45386e-05,9.51513e-05,-9.45728e-05,0.302549,-0.14050906410234476,3.453919646423387e-05,9.515582702857017e-05,0.3441797826397188,-9.456832813370397e-05,-0.1329988709904819
355,0.3452,-0.276779,863.401,-0.530115,0.157699,-0.0205217,-0.157552,-0.151798,0.296528,-0.143081,3.83735e-05,9.3011e-05,-9.90944e-05,0.30332,-0.14083818609990784,3.8374236272176176e-05,9.301532565708648e-05,0.3451802245162323,-9.908949031212089e-05,-0.13331613534078168
356,0.3462,0.320075,864.658,0.584783,-0.104548,0.146234,0.144201,-0.152179,0.297271,-0.143437,3.46233e-05,9.55909e-05,-9.45396e-05,0.304087,-0.14116546440052846,3.462389939334898e-05,9.559546895565596e-05,0.3461800648177231,-9.453513127288815e-05,-0.13362461988309382
357,0.3472,-0.281922,864.209,-0.540063,0.160074,-0.022143,-0.160133,-0.15256,0.298013,-0.143802,3.85309e-05,9.34069e-05,-9.91481e-05,0.304857,-0.14149261803186763,3.853164232459072e-05,9.341126256035004e-05,0.3471793010966322,-9.914318498960295e-05,-0.13394078919242736
358,0.3482,0.324737,865.478,0.593905,-0.106718,0.147448,0.146935,-0.152941,0.298755,-0.144158,3.47132e-05,9.60251e-05,-9.45114e-05,0.305623,-0.14181964704141514,3.471380251007794e-05,9.602971055744369e-05,0.3481792790839999,-9.450693393830978e-05,-0.13424905139754673
359,0.3492,-0.286209,865.014,-0.548417,0.162075,-0.0235264,-0.162284,-0.153322,0.299497,-0.144523,3.86826e-05,9.38042e-05,-9.91939e-05,0.306392,-0.142146551476643,3.8683348181356436e-05,9.380859975149924e-05,0.34917999933037813,-9.918898044780633e-05,-0.13456499283096734
360,0.3502,0.328509,866.293,0.601374,-0.1085,0.148414,0.149224,-0.153702,0.300238,-0.144878,3.48084e-05,9.64537e-05,-9.44885e-05,0.307157,-0.1424724738579075,3.480900581931401e-05,9.645835180771556e-05,0.3501801122059405,-9.44840361022381e-05,-0.1348721677317415
361,0.3512,-0.289604,865.815,-0.555109,0.163686,-0.0246618,-0.163985,-0.154082,0.300978,-0.145242,3.88285e-05,9.42029e-05,-9.92316e-05,0.307924,-0.14279827241219578,3.882925383602576e-05,9.42073372325325e-05,0.35117961525949215,-9.922667670758667e-05,-0.13518701695665192
362,0.3522,0.331357,867.101,0.607126,-0.109878,0.149122,0.15105,-0.154461,0.301718,-0.145597,3.49093e-05,9.68766e-05,-9.44712e-05,0.308688,-0.14312309031007175,3.4909909336633405e-05,9.688129268936585e-05,0.35217985821903475,-9.446673773672032e-05,-0.13549397107805206
363,0.3532,-0.292082,866.614,-0.560085,0.164893,-0.0255416,-0.165222,-0.154842,0.302457,-0.14596,3.89684e-05,9.46032e-05,-9.92609e-05,0.309455,-0.1434494982280068,3.896915927792399e-05,9.460767502389444e-05,0.3531794884521364,-9.925597379989437e-05,-0.1358077298158945
364,0.3542,0.333257,867.904,0.611114,-0.110841,0.149564,0.152401,-0.15522,0.303196,-0.146315,3.5016e-05,9.72937e-05,-9.44597e-05,0.310217,-0.14377321313170532,3.501661306737347e-05,9.72984331855109e-05,0.35417985768500726,-9.445523882301021e-05,-0.13611446362333768
365,0.3552,-0.293624,867.409,-0.563307,0.165688,-0.0261602,-0.165982,-0.1556,0.303934,-0.146678,3.9102e-05,9.50051e-05,-9.92816e-05,0.310983,-0.14409851749897096,3.9102764493259556e-05,9.500961312736145e-05,0.3551796112836809,-9.927667174502997e-05,-0.13642799716326204
366,0.3562,0.334195,868.701,0.613306,-0.111381,0.149737,0.153266,-0.155978,0.304672,-0.147031,3.51287e-05,9.77048e-05,-9.44542e-05,0.311744,-0.14442198711974652,3.512931701998845e-05,9.770957326948881e-05,0.3561801029728322,-9.444973934247258e-05,-0.13673278428217206
367,0.3572,-0.294221,868.201,-0.564753,0.166065,-0.0265145,-0.16626,-0.156357,0.305409,-0.147394,3.92294e-05,9.54088e-05,-9.92937e-05,0.312509,-0.14474618974634967,3.92301694829289e-05,9.541335156426634e-05,0.35717997611671826,-9.928877054377061e-05,-0.13704609341243013
368,0.3582,0.334163,869.493,0.613686,-0.111494,0.149637,0.153642,-0.156734,0.306145,-0.147747,3.52474e-05,9.811e-05,-9.44547e-05,0.313269,-0.14506855966226795,3.524802119692083e-05,9.81148129435283e-05,0.358179228258821,-9.445023929521845e-05,-0.13735066238186966
369,0.3592,-0.29387,868.991,-0.564416,0.166022,-0.0266036,-0.166052,-0.157113,0.306881,-0.148109,3.93505e-05,9.58141e-05,-9.92971e-05,0.314032,-0.1453925172843088,3.935127424115059e-05,9.581869031749513e-05,0.35917921612121195,-9.929217020610004e-05,-0.13766288492639733
370,0.3602,0.333164,870.278,0.612256,-0.111181,0.149264,0.153526,-0.157489,0.307617,-0.148462,3.53721e-05,9.85093e-05,-9.44613e-05,0.314791,-0.14571378929488688,3.537272560016902e-05,9.851415220052395e-05,0.360179940245581,-9.445683867193022e-05,-0.1379672362068569
371,0.3612,-0.292579,869.777,-0.562307,0.165561,-0.0264291,-0.165361,-0.157867,0.308352,-0.148823,3.94654e-05,9.62211e-05,-9.92919e-05,0.315553,-0.14603664845830722,3.9466178769043125e-05,9.622572939860241e-05,0.3611800399932956,-9.928697072247861e-05,-0.13827837387085895
372,0.3622,0.33121,871.059,0.609034,-0.110445,0.148622,0.152925,-0.158243,0.309086,-0.149175,3.55028e-05,9.89027e-05,-9.44739e-05,0.316312,-0.1463576783210906,3.550343023195346e-05,9.890759103337032e-05,0.36217951290433636,-9.446943748159242e-05,-0.1385816465041415
373,0.3632,-0.290363,870.561,-0.55845,0.164689,-0.0259949,-0.164193,-0.158621,0.30982,-0.149536,3.9574e-05,9.66297e-05,-9.92781e-05,0.317073,-0.14668029414045392,3.9574783061047114e-05,9.663436879980836e-05,0.3631797196977957,-9.927317209246223e-05,-0.13889256240605663
374,0.3642,0.328321,871.834,0.604055,-0.109293,0.147717,0.151845,-0.158997,0.310553,-0.149888,3.56394e-05,9.92903e-05,-9.44924e-05,0.31783,-0.14700108203795315,3.564003509093361e-05,9.929522944496227e-05,0.36417929673256233,-9.44879357337447e-05,-0.13919561888302057
375,0.3652,-0.287246,871.342,-0.552888,0.163414,-0.0253073,-0.162559,-0.159373,0.311286,-0.150248,3.96767e-05,9.70397e-05,-9.92559e-05,0.31859,-0.1473217493418758,3.9677487130740374e-05,9.704440850399898e-05,0.3651796067258919,-9.925097429608343e-05,-0.13950545268679182
376,0.3662,0.324525,872.603,0.597367,-0.107739,0.146554,0.150301,-0.159749,0.312018,-0.1506,3.57818e-05,9.96722e-05,-9.45167e-05,0.319345,-0.14764229609755675,3.5782440176213015e-05,9.967716743886079e-05,0.3661792840352729,-9.45122334374826e-05,-0.13980829346434231
377,0.3672,-0.28326,872.12,-0.545676,0.161749,-0.0243744,-0.160473,-0.160125,0.31275,-0.150959,3.97735e-05,9.74511e-05,-9.92256e-05,0.320104,-0.1479627223503135,3.9774290976124504e-05,9.74558485127286e-05,0.36717969337633516,-9.922067730294692e-05,-0.14011704686243764
378,0.3682,0.319859,873.367,0.589036,-0.105796,0.145145,0.148308,-0.160499,0.313481,-0.15131,3.59297e-05,0.000100049,-9.45464e-05,0.320859,-0.1482813247097995,3.593034547932916e-05,0.00010005400506818418,0.3681794671049712,-9.454193062996552e-05,-0.1404188128159659
379,0.3692,-0.278442,872.896,-0.536883,0.159711,-0.0232067,-0.157955,-0.160875,0.314212,-0.151669,3.98648e-05,9.78638e-05,-9.91873e-05,0.321617,-0.14860151073296402,3.98655946116655e-05,9.786858881799532e-05,0.36917997193538765,-9.918238110240285e-05,-0.14072734707695145
380,0.3702,0.314365,874.126,0.57914,-0.103482,0.143501,0.145887,-0.161249,0.314942,-0.15202,3.60829e-05,0.000100419,-9.45813e-05,0.322371,-0.14891987423026498,3.6083550995602565e-05,0.00010042404215648837,0.37017983822169276,-9.457682732982864e-05,-0.14102889885269487
381,0.3712,-0.272837,873.668,-0.526593,0.157319,-0.0218164,-0.155025,-0.161624,0.315672,-0.152378,3.99507e-05,9.82775e-05,-9.91416e-05,0.323127,-0.1492389694433367,3.9951498039814126e-05,9.828232939179671e-05,0.3711804346768659,-9.913668563399369e-05,-0.14133635546888756
382,0.3722,0.308095,874.88,0.56777,-0.10082,0.141637,0.143063,-0.161998,0.316401,-0.152728,3.62411e-05,0.000100785,-9.46211e-05,0.32388,-0.14955709457565702,3.6241756716570706e-05,0.0001007900789786742,0.37218038965304934,-9.461662356491374e-05,-0.1416368351574605
383,0.3732,-0.266498,874.437,-0.514899,0.154594,-0.0202173,-0.151709,-0.162372,0.317129,-0.153086,4.00316e-05,9.8692e-05,-9.90887e-05,0.324635,-0.14987510075142407,4.003240127525842e-05,9.869687021568652e-05,0.3731797006817963,-9.908379087686381e-05,-0.1419440741714092
384,0.3742,0.301104,875.628,0.555028,-0.0978327,0.139567,0.139861,-0.162745,0.317857,-0.153436,3.64039e-05,0.000101146,-9.46653e-05,0.325387,-0.1501921382076824,3.6404562629988035e-05,0.00010115111542918775,0.374179739473846,-9.466081938191984e-05,-0.14224434119565477
385,0.3752,-0.259479,875.204,-0.501905,0.151562,-0.0184249,-0.148037,-0.163119,0.318585,-0.153793,4.0108e-05,9.91071e-05,-9.90291e-05,0.326141,-0.15050990692153932,4.0108804336691506e-05,9.91120112707744e-05,0.3751805065592029,-9.902419678053942e-05,-0.1425505053123014
386,0.3762,0.293453,876.372,0.541027,-0.0945466,0.137309,0.136313,-0.163492,0.319311,-0.154142,3.65711e-05,0.000101502,-9.47135e-05,0.326892,-0.15082670763925066,3.657176873073098e-05,0.00010150715150225587,0.3761792501070047,-9.470901481811733e-05,-0.14284970297291877
387,0.3772,-0.251843,875.968,-0.487724,0.148248,-0.0164558,-0.144037,-0.163865,0.320038,-0.154499,4.018e-05,9.95227e-05,-9.89633e-05,0.327645,-0.1511433902123297,4.018080722700823e-05,9.952765254817031e-05,0.3771800961853007,-9.895840329421368e-05,-0.14315565101398264
388,0.3782,0.285206,877.112,0.525885,-0.0909898,0.134881,0.132449,-0.164237,0.320764,-0.154848,3.67421e-05,0.000101853,-9.47653e-05,0.328394,-0.15145910614436653,3.674277499920997e-05,0.00010185818719299355,0.37818029196226655,-9.476080991077662e-05,-0.14345463751559961
389,0.3792,-0.243652,876.728,-0.472476,0.144681,-0.0143277,-0.139742,-0.16461,0.321489,-0.155204,4.02482e-05,9.99383e-05,-9.88917e-05,0.329147,-0.15177555287679012,4.0249009969572924e-05,9.994329399831692e-05,0.3791798349644955,-9.888681037706348e-05,-0.1437595133935179
390,0.3802,0.276432,877.846,0.509728,-0.0871918,0.132302,0.128304,-0.164982,0.322214,-0.155552,3.69166e-05,0.000102201,-9.48202e-05,0.329895,-0.152091033688051,3.691728142607431e-05,0.00010220622270007418,0.38018010289815685,-9.481570470692979e-05,-0.14405743324179665
391,0.3812,-0.234973,877.486,-0.456285,0.140889,-0.0120591,-0.135187,-0.165354,0.322938,-0.155908,4.03131e-05,0.000100354,-9.8815e-05,0.330646,-0.1524063971622761,4.031391258396688e-05,0.00010035903563121451,0.38117971510861093,-9.881011795864758e-05,-0.14436209456262983
392,0.3822,0.267201,878.576,0.492688,-0.0831835,0.129592,0.123912,-0.165725,0.323662,-0.156256,3.70942e-05,0.000102544,-9.48776e-05,0.331393,-0.15272079606432631,3.709488799841232e-05,0.00010254925781572055,0.38218005130035504,-9.487309926281551e-05,-0.14465980474914508
393,0.3832,-0.225876,878.24,-0.439281,0.136904,-0.00966919,-0.130407,-0.166097,0.324385,-0.15661,4.03749e-05,0.000100769,-9.87335e-05,0.332143,-0.15303592531051657,4.037571507731208e-05,0.0001007740773661947,0.3831797288173209,-9.872862600834864e-05,-0.14496254159068145
394,0.3842,0.257585,879.302,0.474897,-0.0789962,0.126771,0.11931,-0.166467,0.325108,-0.156958,3.72743e-05,0.000102884,-9.4937e-05,0.33289,-0.15334924405061034,3.7274994695302155e-05,0.00010288929274016034,0.3841801293624747,-9.493249362557687e-05,-0.145260042857985
395,0.3852,-0.216431,878.991,-0.421595,0.132756,-0.00717721,-0.125437,-0.166838,0.32583,-0.157312,4.04342e-05,0.000101184,-9.8648e-05,0.333638,-0.1536632932213442,4.043501747319489e-05,0.00010118911927348151,0.38517986827819395,-9.864313444607475e-05,-0.14556256725283612
396,0.3862,0.247656,880.024,0.45649,-0.0746617,0.123859,0.114533,-0.167208,0.326552,-0.157659,3.74565e-05,0.000103221,-9.49979e-05,0.334384,-0.15397637987824897,3.745720150338805e-05,0.00010322632747072902,0.38618032926604706,-9.4993387842357e-05,-0.14585900560697052
397,0.3872,-0.206706,879.739,-0.403358,0.128476,-0.00460268,-0.120313,-0.167579,0.327273,-0.158013,4.04915e-05,0.000101597,-9.85589e-05,0.335131,-0.15429019642474529,4.049231979186274e-05,0.00010160216114996068,0.3871801256667391,-9.855404323122485e-05,-0.14616131800653387
398,0.3882,0.237485,880.742,0.437601,-0.0702115,0.120877,0.109618,-0.167948,0.327993,-0.15836,3.76404e-05,0.000103554,-9.50598e-05,0.335876,-0.15460220577299943,3.7641108408648094e-05,0.00010355936190054038,0.3881792550006169,-9.505528196041002e-05,-0.1464575486302
399,0.3892,-0.196771,880.483,-0.384701,0.124095,-0.00196494,-0.115072,-0.168318,0.328714,-0.158713,4.05472e-05,0.00010201,-9.84669e-05,0.336622,-0.15491494509652082,4.054802204889185e-05,0.0001020152031969701,0.3891804931464502,-9.84620522939128e-05,-0.14675879594225472
400,0.3902,0.227143,881.455,0.418363,-0.0656768,0.117844,0.104601,-0.168687,0.329433,-0.159059,3.78254e-05,0.000103885,-9.51221e-05,0.337366,-0.1552267239550431,3.782611538949432e-05,0.00010389039623337482,0.39017967308316504,-9.51175760365297e-05,-0.14705396633143675
401,0.3912,-0.186694,881.224,-0.365752,0.119642,0.000717051,-0.109747,-0.169057,0.330152,-0.159412,4.06016e-05,0.000102421,-9.83723e-05,0.338111,-0.15553923224958,4.060242425607541e-05,0.00010242624520961918,0.39117957168858464,-9.836746160396537e-05,-0.14735500314519812
402,0.3922,0.216697,882.165,0.398903,-0.0610881,0.114781,0.0995158,-0.169425,0.330871,-0.159758,3.80113e-05,0.000104214,-9.51843e-05,0.338853,-0.15584993663899815,3.8012022438582704e-05,0.00010421943046745596,0.39218018947961797,-9.517977011819223e-05,-0.14764996728237145
403,0.3932,-0.17654,881.961,-0.346635,0.115148,0.00342485,-0.104374,-0.169794,0.331589,-0.16011,4.06553e-05,0.00010283,-9.82759e-05,0.339597,-0.15616137054928814,4.065612643788796e-05,0.00010283528718568746,0.39318013379271477,-9.827107108195676e-05,-0.14794994169529407
404,0.3942,0.206215,882.871,0.379346,-0.0564745,0.111704,0.0943972,-0.170162,0.332306,-0.160455,3.81974e-05,0.00010454,-9.52459e-05,0.340339,-0.15647184603393305,3.819812952987611e-05,0.00010454546449611968,0.3941794021435385,-9.524136425331786e-05,-0.14824384826361092
405,0.3952,-0.166372,882.695,-0.327469,0.110641,0.00614078,-0.0989853,-0.17053,0.333023,-0.160806,4.07087e-05,0.000103238,-9.81781e-05,0.341082,-0.1567822072846199,4.070952861034982e-05,0.00010324332922562185,0.3951793872266878,-9.817328068806308e-05,-0.14854276221040386
406,0.3962,0.195757,883.574,0.359809,-0.0518641,0.108633,0.0892771,-0.170897,0.33374,-0.161152,3.83835e-05,0.000104865,-9.53065e-05,0.341822,-0.15709161143541195,3.8384236656030524e-05,0.00010487049852625496,0.3961800895562435,-9.530195847984313e-05,-0.14883731545402934
407,0.3972,-0.15625,883.426,-0.308368,0.106147,0.00884805,-0.0936115,-0.171265,0.334456,-0.161502,4.07621e-05,0.000103643,-9.80793e-05,0.342564,-0.1574017446543915,4.076293078569826e-05,0.00010364837112120107,0.39718011246584517,-9.807449038268246e-05,-0.14913517026598777
408,0.3982,0.185383,884.274,0.340404,-0.0472829,0.105584,0.0841856,-0.171632,0.335171,-0.161847,3.85691e-05,0.000105188,-9.53656e-05,0.343304,-0.1577109214766862,3.85698437972426e-05,0.00010519353245164176,0.39817945346809247,-9.53610528456883e-05,-0.14942866800097554
409,0.3992,-0.146228,884.152,-0.289437,0.101691,0.0115309,-0.0882819,-0.171999,0.335886,-0.162197,4.08159e-05,0.000104046,-9.79801e-05,0.344044,-0.15801998485190594,4.081673298017563e-05,0.00010405141297287201,0.3991795092546615,-9.797530010680067e-05,-0.1497263158757587
410,0.4002,0.175146,884.97,0.321233,-0.0427554,0.102572,0.0791511,-0.172366,0.336601,-0.162542,3.87538e-05,0.000105509,-9.54228e-05,0.344783,-0.1583289348216781,3.875455093815816e-05,0.00010551456627028166,0.4001802803368055,-9.541824738945603e-05,-0.15001960970068762
411,0.4012,-0.136359,884.875,-0.270775,0.0972974,0.0141748,-0.0830236,-0.172732,0.337315,-0.162891,4.08705e-05,0.000104447,-9.78808e-05,0.345523,-0.1586369300649657,4.087133521024633e-05,0.00010445245477774812,0.401180366045077,-9.787600983079958e-05,-0.1503162010986927
412,0.4022,0.165096,885.662,0.302391,-0.0383042,0.0996113,0.0741998,-0.173098,0.338028,-0.163235,3.89374e-05,0.00010583,-9.54777e-05,0.34626,-0.15894481260262072,3.893815807032297e-05,0.00010583560019195026,0.40217976388906007,-9.547314214941593e-05,-0.15060844205718804
413,0.4032,-0.126689,885.595,-0.252471,0.0929863,0.0167662,-0.0778613,-0.173464,0.338741,-0.163584,4.09261e-05,0.000104845,-9.7782e-05,0.346999,-0.1592525824758857,4.09269374843646e-05,0.00010485049642916522,0.4031798745577977,-9.777721949610907e-05,-0.15090482798855664
414,0.4042,0.155278,886.352,0.283964,-0.0339493,0.0967149,0.069355,-0.17383,0.339453,-0.163928,3.91195e-05,0.000106149,-9.55299e-05,0.347735,-0.15956023972598843,3.912026517771672e-05,0.00010615463400442948,0.40417929437971867,-9.552533716439271e-05,-0.1511968664942257
415,0.4052,-0.11726,886.31,-0.234606,0.0887773,0.0192933,-0.0728174,-0.174195,0.340165,-0.164276,4.09831e-05,0.00010524,-9.76838e-05,0.348473,-0.1598669442615056,4.0983939818772797e-05,0.00010524553792312652,0.4051794260419377,-9.767902909296744e-05,-0.15149219859391994
416,0.4062,0.145731,887.039,0.266027,-0.0297091,0.0938939,0.0646381,-0.17456,0.340877,-0.164619,3.92999e-05,0.000106468,-9.55792e-05,0.349208,-0.16017353687029523,3.9300672251219027e-05,0.00010647366791860513,0.40618027005146606,-9.557463245379871e-05,-0.15178318686246128
417,0.4072,-0.108109,887.022,-0.217252,0.0846873,0.0217454,-0.0679116,-0.174925,0.341588,-0.164967,4.10416e-05,0.000105633,-9.75866e-05,0.349944,-0.16048001759320307,4.104244221792008e-05,0.00010563857936185528,0.4071804197345519,-9.758183858266101e-05,-0.15207831495816604
418,0.4082,0.136489,887.723,0.248647,-0.0255992,0.0911583,0.0600674,-0.17529,0.342298,-0.16531,3.94782e-05,0.000106786,-9.56253e-05,0.350679,-0.16078638647106003,3.94789792743655e-05,0.00010679170182781306,0.4081798725963439,-9.562072804669697e-05,-0.1523691022232686
419,0.4092,-0.0992681,887.73,-0.20047,0.0807312,0.0241131,-0.0631611,-0.175654,0.343008,-0.165657,4.1102e-05,0.000106022,-9.74908e-05,0.351414,-0.1610918046369061,4.1102844698714947e-05,0.00010602762053091297,0.4091800353216397,-9.748604792636506e-05,-0.15266317911950478
420,0.4102,0.127582,888.404,0.231883,-0.0216334,0.0885166,0.055659,-0.176018,0.343717,-0.166,3.96544e-05,0.000107104,-9.56679e-05,0.352148,-0.16139711165077075,3.9655186246045915e-05,0.00010710973583827332,0.4101794982344178,-9.566332397237254e-05,-0.15295376581060038
421,0.4112,-0.0907647,888.435,-0.184314,0.0769215,0.0263887,-0.0585806,-0.176382,0.344426,-0.166346,4.11643e-05,0.000106409,-9.73965e-05,0.352882,-0.16170230755310588,4.116514726137943e-05,0.00010641466163852087,0.411179670017666,-9.739175711487302e-05,-0.15324679311098355
422,0.4122,0.119034,889.082,0.215779,-0.0178228,0.0859756,0.0514262,-0.176745,0.345134,-0.166688,3.98282e-05,0.000107422,-9.57069e-05,0.353614,-0.16200655439132217,3.982899315335686e-05,0.00010742776994954184,0.41217913899430636,-9.570232024069814e-05,-0.1535363331935633
423,0.4132,-0.0826209,889.135,-0.168827,0.0732686,0.0285655,-0.0541821,-0.177109,0.345842,-0.167034,4.12288e-05,0.000106792,-9.73039e-05,0.354348,-0.16231152849686914,4.12296499185949e-05,0.00010679770246868614,0.41317931584554013,-9.729916612910561e-05,-0.1538291589604993
424,0.4142,0.110865,889.757,0.200376,-0.0141767,0.0835411,0.0473798,-0.177472,0.34655,-0.167376,3.99995e-05,0.000107739,-9.57421e-05,0.355079,-0.1626155542280161,4.000029999073895e-05,0.00010774480405451037,0.41418020107272024,-9.573751687141918e-05,-0.15411849990801263
425,0.4152,-0.0748539,889.832,-0.154043,0.0697808,0.0306385,-0.0499754,-0.177835,0.347257,-0.167721,4.12955e-05,0.000107172,-9.72132e-05,0.355811,-0.16291946961785087,4.129635267080545e-05,0.00010717774312385409,0.4151803799964666,-9.720847494998353e-05,-0.15441027869081025
426,0.4162,0.103088,890.43,0.185702,-0.010702,0.0812172,0.0435282,-0.178197,0.347963,-0.168063,4.01682e-05,0.000108056,-9.57734e-05,0.356542,-0.16322243792927638,4.016900675285484e-05,0.00010806183825984306,0.4161798501161822,-9.576881387429736e-05,-0.15469942092935696
427,0.4172,-0.0674766,890.525,-0.139987,0.0664643,0.0326039,-0.0459676,-0.178559,0.348669,-0.168407,4.13646e-05,0.000107548,-9.71246e-05,0.357273,-0.16352529658602177,4.13654555269094e-05,0.0001075537834935858,0.4171800261109466,-9.711988355876056e-05,-0.1549901543195471
428,0.4182,0.0957147,891.1,0.171778,-0.00740381,0.0790071,0.0398775,-0.178921,0.349374,-0.168748,4.03342e-05,0.000108373,-9.58007e-05,0.358002,-0.16382804562777498,4.033501343481127e-05,0.00010837887256576195,0.41817949029908474,-9.579611125942744e-05,-0.15527825355321312
429,0.4192,-0.0604975,891.214,-0.126678,0.0633233,0.0344589,-0.0421637,-0.179283,0.350079,-0.169092,4.14361e-05,0.000107922,-9.70381e-05,0.358732,-0.16413068509420936,4.1436958487128805e-05,0.00010792782378854504,0.4191796593579129,-9.703339195588079e-05,-0.15556878785922512
430,0.4202,0.0887496,891.768,0.158617,-0.00428514,0.0769123,0.0364315,-0.179644,0.350784,-0.169433,4.04975e-05,0.00010869,-9.58239e-05,0.359461,-0.16443237945778133,4.049832003483189e-05,0.00010869590697204501,0.4201805337845408,-9.581930903668212e-05,-0.15585668981249223
431,0.4212,-0.0539211,891.899,-0.114125,0.0603602,0.036202,-0.0385666,-0.180006,0.351487,-0.169776,4.151e-05,0.000108292,-9.69537e-05,0.36019,-0.16473480019496156,4.151086155190775e-05,0.00010829786379029649,0.42117927171504177,-9.694900014189933e-05,-0.15614618131725533
432,0.4222,0.082195,892.433,0.146223,-0.00134733,0.0749336,0.033192,-0.180367,0.352191,-0.170117,4.0658e-05,0.000109007,-9.58431e-05,0.360917,-0.16503627651234187,4.065882654757935e-05,0.00010901294147891427,0.42218013418458145,-9.583850719685483e-05,-0.15643388641291944
433,0.4232,-0.047748,892.581,-0.10233,0.0575758,0.037833,-0.0351772,-0.180728,0.352894,-0.17046,4.15864e-05,0.000108659,-9.68716e-05,0.361645,-0.1653376440164136,4.158726472636154e-05,0.0001086649036030618,0.4231802783283898,-9.686690809806997e-05,-0.15672317997319796
434,0.4242,0.0760492,893.095,0.134595,0.00140991,0.0730707,0.0301589,-0.181088,0.353596,-0.1708,4.08157e-05,0.000109324,-9.58582e-05,0.362372,-0.16563806838493678,4.081653297194343e-05,0.00010932997608636974,0.4241797016403155,-9.585360574959623e-05,-0.1570098453561305
435,0.4252,-0.0419754,893.259,-0.0912898,0.0549692,0.0393523,-0.0319945,-0.181448,0.354298,-0.171142,4.16652e-05,0.000109023,-9.67916e-05,0.363098,-0.16593838462015242,4.166606800648509e-05,0.00010902894322328827,0.4251798267937237,-9.678691584424914e-05,-0.1572980986948881
436,0.4262,0.0703072,893.755,0.123725,0.00398836,0.0713223,0.0273304,-0.181808,0.354999,-0.171482,4.09707e-05,0.000109641,-9.58693e-05,0.363824,-0.16623859276098152,4.097153931059694e-05,0.00010964701079418937,0.42617922810153885,-9.58647046854777e-05,-0.15758456863868175
437,0.4272,-0.0365977,893.934,-0.0809942,0.0525381,0.0407614,-0.0290162,-0.182168,0.3557,-0.171823,4.17464e-05,0.000109383,-9.67139e-05,0.36455,-0.16653869284633116,4.1747271393166585e-05,0.00010938898253853857,0.42717933023528176,-9.670922336157961e-05,-0.15787178332788832
438,0.4282,0.0649614,894.413,0.1136,0.00639107,0.0696862,0.0247032,-0.182527,0.356401,-0.172163,4.11229e-05,0.000109958,-9.58764e-05,0.365274,-0.16683785175336252,4.1123745557980484e-05,0.00010996404560237316,0.4281801336864033,-9.58718040048323e-05,-0.15815805825206197
439,0.4292,-0.0316062,894.604,-0.0714282,0.0502792,0.0420625,-0.0262381,-0.182887,0.357101,-0.172504,4.18301e-05,0.000109741,-9.66382e-05,0.365999,-0.16713773614430216,4.183097489085519e-05,0.00010974702176391737,0.4291802097657751,-9.663353067956848e-05,-0.15844507741464953
440,0.4302,0.0600015,895.068,0.104202,0.00862226,0.0681597,0.0222726,-0.183245,0.3578,-0.172843,4.12725e-05,0.000110275,-9.58797e-05,0.366723,-0.16743584746965134,4.127335172143809e-05,0.0001102810805113652,0.43017955596320734,-9.587510368846974e-05,-0.15873031618270317
441,0.4312,-0.0269903,895.272,-0.0625723,0.048188,0.0432584,-0.0236551,-0.183604,0.358499,-0.173183,4.1916e-05,0.000110095,-9.65646e-05,0.367446,-0.16773468435597916,4.1916878487757714e-05,0.00011010106067699255,0.43117960094782903,-9.65599377891202e-05,-0.15901629925532368
442,0.4322,0.0554151,895.72,0.0955083,0.0106871,0.0667394,0.0200328,-0.183963,0.359198,-0.173522,4.14195e-05,0.000110592,-9.58791e-05,0.368169,-0.16803341397911964,4.142035779941544e-05,0.00011059811552072141,0.43218034520826354,-9.587450374604067e-05,-0.15930134441199229
443,0.4332,-0.0227371,895.935,-0.0544031,0.0462588,0.0443528,-0.021261,-0.184321,0.359896,-0.173862,4.20041e-05,0.000110446,-9.6493e-05,0.368892,-0.16833120470919394,4.2004982184540296e-05,0.00011045209938398415,0.4331803560524028,-9.64883447002185e-05,-0.15958713336801655
444,0.4342,0.051188,896.37,0.0874932,0.0125917,0.0654214,0.0179771,-0.184679,0.360593,-0.1742,4.15641e-05,0.000110908,-9.58749e-05,0.369613,-0.16862888884926752,4.156496379925656e-05,0.00011091415051955877,0.4341796309674244,-9.587030414870412e-05,-0.15987114491628263
445,0.4352,-0.0188321,896.596,-0.046894,0.0444856,0.0453494,-0.0190485,-0.185036,0.36129,-0.174539,4.20944e-05,0.000110795,-9.64233e-05,0.370335,-0.16892563536354388,4.2095285981647024e-05,0.00011080113799266655,0.4351796026198467,-9.641865142306916e-05,-0.16015590032938642
446,0.4362,0.0473049,897.018,0.0801283,0.0143426,0.0642013,0.0160978,-0.185394,0.361987,-0.174877,4.17062e-05,0.000111225,-9.58672e-05,0.371056,-0.1692231067355311,4.17070697156241e-05,0.0001112311857296433,0.4361802714954648,-9.586260488680942e-05,-0.16043971966690507
447,0.4372,-0.0152597,897.252,-0.0400159,0.0428615,0.0462526,-0.0170099,-0.185751,0.362683,-0.175216,4.21866e-05,0.00011114,-9.63553e-05,0.371776,-0.16951964115188378,4.2187489867062666e-05,0.00011114617627860923,0.43718020089949294,-9.635065797719555e-05,-0.16072428236583536
448,0.4382,0.0437489,897.663,0.0733828,0.015947,0.0630745,0.0143868,-0.186108,0.363378,-0.175554,4.1846e-05,0.000111541,-9.5856e-05,0.372496,-0.16981606972434404,4.184687555608413e-05,0.00011154722092854286,0.43817938831652614,-9.58514059604676e-05,-0.16100790962268896
449,0.4392,-0.0120032,897.906,-0.0337376,0.0413793,0.0470672,-0.0151366,-0.186465,0.364073,-0.175892,4.22809e-05,0.000111483,-9.6289e-05,0.373216,-0.17011239249069154,4.22817938499076e-05,0.00011148921446046955,0.43917927041018623,-9.628436436304177e-05,-0.16129144102972948
450,0.4402,0.0405028,898.305,0.0672245,0.0174127,0.0620361,0.0128353,-0.186821,0.364768,-0.176229,4.19837e-05,0.000111857,-9.58415e-05,0.373934,-0.17040777989688682,4.198458132775862e-05,0.00011186325622758453,0.44017984766344154,-9.583690735015526e-05,-0.16157403819380578
451,0.4412,-0.0090451,898.556,-0.0280266,0.0400313,0.0477977,-0.0134199,-0.187177,0.365462,-0.176567,4.23769e-05,0.000111823,-9.62242e-05,0.374653,-0.17070306216388142,4.2377797913495385e-05,0.00011182925242469999,0.4411796793791958,-9.62195706001312e-05,-0.16185737828172386
452,0.4422,0.0375484,898.945,0.0616199,0.0187474,0.061081,0.0114344,-0.187533,0.366156,-0.176903,4.21193e-05,0.000112173,-9.58239e-05,0.375371,-0.1709982393290982,4.212018703020348e-05,0.00011217929162610218,0.44218020521899404,-9.581930903668212e-05,-0.16213894689644492
453,0.4432,-0.00636758,899.203,-0.0228496,0.0388096,0.0484494,-0.0118508,-0.187889,0.366849,-0.177241,4.24747e-05,0.00011216,-9.61609e-05,0.376088,-0.17129331142994675,4.247560206294132e-05,0.00011216629016796986,0.44317998248402124,-9.61562766887969e-05,-0.1624220960774867
454,0.4442,0.0348678,899.583,0.0565351,0.0199591,0.0602042,0.0101749,-0.188244,0.367542,-0.177577,4.22529e-05,0.000112488,-9.58033e-05,0.376805,-0.17158745009168763,4.225379266631357e-05,0.00011249432701232465,0.44418045283481966,-9.57987110103975e-05,-0.16270347497890203
455,0.4452,-0.00395262,899.846,-0.0181728,0.0377062,0.0490271,-0.0104198,-0.1886,0.368234,-0.177914,4.2574e-05,0.000112495,-9.60987e-05,0.377522,-0.1718823124708373,4.257490628556404e-05,0.00011250132779982991,0.44518017157097,-9.609408266786357e-05,-0.16298559636771004
456,0.4462,0.0324424,900.218,0.0519357,0.021056,0.0594005,0.00904748,-0.188954,0.368926,-0.178249,4.23847e-05,0.000112803,-9.57799e-05,0.378237,-0.17217541425014682,4.238559824409904e-05,0.000112809362497579,0.4461805823519054,-9.577531325177802e-05,-0.1632659492312004
457,0.4472,-0.00178222,900.487,-0.0139622,0.0367133,0.049536,-0.009118,-0.189309,0.369617,-0.178586,4.26748e-05,0.000112828,-9.60378e-05,0.378953,-0.1724692398209634,4.2675710582251725e-05,0.00011283436531828173,0.4471802384757251,-9.603318851814091e-05,-0.16354788109812168
458,0.4482,0.0302543,900.851,0.0477878,0.022046,0.0586648,0.00804301,-0.189664,0.370308,-0.178921,4.25147e-05,0.000113117,-9.57538e-05,0.379668,-0.1727629611022149,4.2515603762671716e-05,0.00011312339796898385,0.44818058560063956,-9.574921575117301e-05,-0.16382804562777498
459,0.4492,0.000161397,901.124,-0.0101844,0.0358229,0.049981,-0.00793607,-0.190018,0.370998,-0.179257,4.2777e-05,0.000113158,-9.59778e-05,0.380382,-0.17305575118708205,4.2777914948999296e-05,0.00011316440260800142,0.44918017502339613,-9.597319427834261e-05,-0.1641089522094955
460,0.4502,0.0282857,901.481,0.0440581,0.022937,0.0579921,0.00715237,-0.190372,0.371688,-0.179592,4.26432e-05,0.000113431,-9.57251e-05,0.381096,-0.17334843764260277,4.264410923426887e-05,0.00011343743353919855,0.4501804544008614,-9.57205184988208e-05,-0.1643889288118061
461,0.4512,0.00189563,901.758,-0.00680647,0.0350273,0.050367,-0.00686509,-0.190726,0.372377,-0.179927,4.28804e-05,0.000113486,-9.59187e-05,0.38181,-0.17364102050545505,4.2881319377574556e-05,0.00011349243977964996,0.45117997302856994,-9.591409994857969e-05,-0.16466881163766334
462,0.4522,0.0265194,902.109,0.0407138,0.0237368,0.0573775,0.00636671,-0.191079,0.373066,-0.180262,4.27701e-05,0.000113744,-9.56941e-05,0.382523,-0.17393267374539123,4.27710146537752e-05,0.00011375046909400943,0.45218018056191345,-9.568952146565834e-05,-0.16494860071847706
463,0.4532,0.00343735,902.389,-0.00379658,0.0343188,0.0506987,-0.00589633,-0.191432,0.373754,-0.180596,4.29849e-05,0.000113811,-9.58604e-05,0.383235,-0.1742242240499029,4.298582386397243e-05,0.00011381747671745934,0.45317962429536096,-9.585580553861384e-05,-0.16522746131352528
464,0.4542,0.0249385,902.734,0.0377235,0.0244527,0.0568163,0.00567742,-0.191785,0.374442,-0.18093,4.28957e-05,0.000114056,-9.56607e-05,0.383947,-0.17451567145531977,4.2896620033650024e-05,0.0001140625046329724,0.45417975588269166,-9.565612466111428e-05,-0.16550622878468746
465,0.4552,0.00480281,903.017,-0.00112395,0.0336904,0.0509808,-0.00502137,-0.192138,0.37513,-0.181265,4.30905e-05,0.000114135,-9.58028e-05,0.384659,-0.1748070159979589,4.3091428408859045e-05,0.00011414151364697034,0.45518057579731197,-9.579821105831776e-05,-0.16578573737774127
466,0.4562,0.0235271,903.357,0.0350569,0.0250919,0.0563039,0.00507627,-0.192491,0.375816,-0.181598,4.302e-05,0.000114368,-9.56253e-05,0.38537,-0.17509825771412446,4.302092537344926e-05,0.00011437454026896887,0.45617917215169723,-9.562072804669697e-05,-0.1660634844797354
467,0.4572,0.00600753,903.643,0.00124087,0.033135,0.0512176,-0.00423215,-0.192843,0.376503,-0.181932,4.3197e-05,0.000114456,-9.57456e-05,0.38608,-0.17538857202909208,4.3197933003780165e-05,0.00011446255033797925,0.4571799109573853,-9.57410165363104e-05,-0.16634197276578644
468,0.4582,0.0222701,903.977,0.0326853,0.0256613,0.0558361,0.00455536,-0.193195,0.377189,-0.182265,4.31431e-05,0.000114679,-9.55878e-05,0.38679,-0.17567878417140426,4.3144030676955936e-05,0.00011468557588778516,0.4581798793262375,-9.558323163183502e-05,-0.16661953467223312
469,0.4592,0.00706625,904.265,0.00332585,0.0326459,0.0514133,-0.003521,-0.193547,0.377875,-0.182599,4.33043e-05,0.000114775,-9.56889e-05,0.3875,-0.17596889417701944,4.330523764473071e-05,0.00011478158690225726,0.45918053390873514,-9.568432196327414e-05,-0.1668978372685318
470,0.4602,0.021153,904.595,0.0305812,0.0261673,0.0554086,0.00410724,-0.193898,0.37856,-0.182932,4.32651e-05,0.000114989,-9.55485e-05,0.388209,-0.17625807834037366,4.3266035947953085e-05,0.0001149956114885331,0.46018041499463713,-9.554393538746542e-05,-0.16717521410291536
471,0.4612,0.00799287,904.884,0.00515741,0.0322171,0.0515719,-0.00288067,-0.194249,0.379244,-0.183264,4.34124e-05,0.000115093,-9.56325e-05,0.388918,-0.17654716101789836,4.3413342331932725e-05,0.0001150996234533519,0.4611795200534705,-9.562792735828829e-05,-0.16745166603827255
472,0.4622,0.0201623,905.21,0.0287191,0.0266159,0.0550178,0.00372488,-0.1946,0.379928,-0.183597,4.33861e-05,0.000115298,-9.55074e-05,0.389626,-0.17683614224520883,4.3387041190445785e-05,0.00011530464706988042,0.46217930873393587,-9.550283931347714e-05,-0.16772885847837904
473,0.4632,0.00880042,905.501,0.00676034,0.0318425,0.0516969,-0.00230435,-0.194951,0.380612,-0.183929,4.35211e-05,0.000115408,-9.55763e-05,0.390334,-0.1771250220579077,4.352204705670992e-05,0.00011541465975950516,0.4631797815037908,-9.557173273089248e-05,-0.16800512663431277
474,0.4642,0.0192853,905.823,0.0270749,0.0270129,0.05466,0.00340169,-0.195302,0.381295,-0.184261,4.35062e-05,0.000115606,-9.54646e-05,0.391041,-0.1774138004915855,4.350714640843911e-05,0.00011561268263116098,0.4641794746509056,-9.54600434001085e-05,-0.16828130308444267
475,0.4652,0.00950103,906.115,0.00815777,0.0315167,0.0517919,-0.00178568,-0.195652,0.381978,-0.184593,4.36304e-05,0.000115722,-9.55202e-05,0.391748,-0.17770165528388626,4.363135181972844e-05,0.00011572869604892233,0.4651798508216656,-9.551563809095942e-05,-0.16855738785921015
476,0.4662,0.0185104,906.433,0.0256262,0.0273636,0.0543319,0.00313154,-0.196002,0.38266,-0.184925,4.36255e-05,0.000115913,-9.54203e-05,0.392454,-0.1779894093446388,4.3626451605938144e-05,0.00011591971817126456,0.4661794443025584,-9.541574762794713e-05,-0.1688333809890462
477,0.4672,0.010106,906.726,0.00937119,0.0312347,0.05186,-0.00131876,-0.196352,0.383342,-0.185256,4.37402e-05,0.000116034,-9.54642e-05,0.393159,-0.17827706270909294,4.37411566165391e-05,0.00011604073220494726,0.4671797197387255,-9.545964343826707e-05,-0.16910845161323906
478,0.4682,0.0178267,907.041,0.0243523,0.0276728,0.0540304,0.00290875,-0.196702,0.384023,-0.185587,4.3744e-05,0.000116219,-9.53745e-05,0.393865,-0.17856461541248614,4.3744956782720834e-05,0.00011622575368952504,0.46817920941547553,-9.536995199699305e-05,-0.16938343120412225
479,0.4692,0.0106256,907.334,0.0104204,0.0309918,0.0519042,-0.000898132,-0.197051,0.384704,-0.185918,4.38504e-05,0.000116344,-9.54082e-05,0.394569,-0.1788512463417008,4.3851361442914794e-05,0.00011635076822558155,0.46917937997651005,-9.54036487824661e-05,-0.16965831979182266
480,0.4702,0.0172242,907.647,0.0232343,0.0279452,0.0537525,0.00272809,-0.1974,0.385385,-0.186249,4.38618e-05,0.000116525,-9.53273e-05,0.395274,-0.179137777254175,4.386276194279226e-05,0.00011653178930148833,0.4701802318856696,-9.532275649726252e-05,-0.16993311740645745
481,0.4712,0.0110695,907.94,0.0113237,0.0307835,0.0519273,-0.000518774,-0.197749,0.386065,-0.186579,4.3961e-05,0.000116653,-9.53521e-05,0.395978,-0.17942420818480853,4.3961966298855515e-05,0.00011665980422570499,0.47118029442607967,-9.534755413298512e-05,-0.17020699428554276
482,0.4722,0.0166937,908.25,0.0222546,0.0281847,0.0534959,0.00258477,-0.198098,0.386744,-0.18691,4.3979e-05,0.000116829,-9.52788e-05,0.396681,-0.17971053916848911,4.3979967090379546e-05,0.00011683582477339804,0.47217956505998315,-9.527426111932691e-05,-0.17048161031897346
483,0.4732,0.0114464,908.543,0.0120976,0.0306061,0.0519316,-0.000176101,-0.198446,0.387423,-0.18724,4.40719e-05,0.00011696,-9.52958e-05,0.397384,-0.17999595023645232,4.407287118035619e-05,0.0001169668400875512,0.4731795144290516,-9.529125949947481e-05,-0.17075530622525992
484,0.4742,0.016227,908.85,0.0213974,0.0283952,0.0532579,0.0024744,-0.198794,0.388102,-0.187569,4.40956e-05,0.000117132,-9.52292e-05,0.398086,-0.18028126199864403,4.4096572225260644e-05,0.00011713886022057807,0.47418014299430267,-9.522466584366285e-05,-0.1710280828552957
485,0.4752,0.0117641,909.143,0.0127573,0.0304558,0.0519194,0.000134066,-0.199142,0.38878,-0.187899,4.41831e-05,0.000117266,-9.52393e-05,0.398788,-0.1805664744896167,4.418407608763886e-05,0.00011727287592622204,0.47517997603635354,-9.523476488182414e-05,-0.17130159845539727
486,0.4762,0.0158165,909.448,0.0206481,0.0285802,0.0530366,0.00239302,-0.19949,0.389458,-0.188228,4.42117e-05,0.000117433,-9.51783e-05,0.39949,-0.18085158774391075,4.421267735166268e-05,0.00011743989552459588,0.47618048719506234,-9.517377068934962e-05,-0.17157419538485175
487,0.4772,0.0120298,909.741,0.0133166,0.0303295,0.0518928,0.000415515,-0.199837,0.390135,-0.188558,4.42945e-05,0.00011757,-9.51825e-05,0.400191,-0.18113578293224675,4.429548101581027e-05,0.00011757691162328499,0.47718019974940984,-9.517797028957276e-05,-0.1718475307975511
488,0.4782,0.0154554,910.044,0.0199938,0.0287426,0.0528299,0.00233701,-0.200185,0.390812,-0.188886,4.43273e-05,0.000117734,-9.51264e-05,0.400891,-0.1814206981016715,4.43282824693636e-05,0.00011774093091942994,0.4781805893383071,-9.512187562743524e-05,-0.17211912026434206
489,0.4792,0.01225,910.337,0.0137878,0.0302242,0.0518537,0.000671662,-0.200532,0.391488,-0.189215,4.4406e-05,0.000117872,-9.51254e-05,0.401591,-0.18170469584297244,4.4406985961087386e-05,0.00011787894717718572,0.4791801772393447,-9.512087572260963e-05,-0.17239144827336117
490,0.4802,0.0151376,910.638,0.0194227,0.0288854,0.0526361,0.00230315,-0.200878,0.392164,-0.189544,4.44425e-05,0.000118034,-9.50735e-05,0.402291,-0.18198777704233915,4.4443487582590535e-05,0.00011804096628664773,0.4801804410902488,-9.506898065803071e-05,-0.17266368670120225
491,0.4812,0.0124304,910.93,0.014182,0.0301373,0.0518036,0.00090558,-0.201225,0.392839,-0.189872,4.45177e-05,0.000118173,-9.5068e-05,0.40299,-0.1822715780413845,4.451869092747529e-05,0.00011817998270391428,0.481179900167475,-9.506348118093477e-05,-0.17293500851275467
492,0.4822,0.0148576,911.228,0.0189243,0.029011,0.0524536,0.00228854,-0.201571,0.393514,-0.1902,4.45573e-05,0.000118332,-9.50195e-05,0.403688,-0.18255446313343904,4.455829269134348e-05,0.00011833900150737264,0.4821800341073188,-9.501498579034262e-05,-0.17320624134534623
493,0.4832,0.0125763,911.52,0.0145091,0.0300664,0.051744,0.00112002,-0.201917,0.394188,-0.190528,4.46295e-05,0.000118473,-9.50102e-05,0.404387,-0.18283725036418286,4.4630495910968904e-05,0.00011848001820302656,0.48317936018536467,-9.500568667386577e-05,-0.17347738522815725
494,0.4842,0.0146104,911.817,0.0184892,0.0291216,0.052281,0.00229058,-0.202263,0.394862,-0.190855,4.46717e-05,0.00011863,-9.49647e-05,0.405084,-0.18311993976746976,4.467269779517835e-05,0.00011863703681669335,0.48417936003622297,-9.496019099564101e-05,-0.17374761393838556
495,0.4852,0.0126922,912.108,0.0147781,0.0300095,0.0516763,0.00131742,-0.202609,0.395536,-0.191183,4.47413e-05,0.000118771,-9.4952e-05,0.405781,-0.18340253137714257,4.4742300906897015e-05,0.00011877805355453575,0.4851800341141699,-9.494749220151366e-05,-0.17401858028010442
496,0.4862,0.0143918,912.403,0.018109,0.0292192,0.0521171,0.00230697,-0.202954,0.396209,-0.19151,4.47858e-05,0.000118926,-9.49089e-05,0.406478,-0.18368420891164883,4.47868028989884e-05,0.0001189330719770787,0.48617989669314765,-9.490439629278313e-05,-0.17428863204848244
497,0.4872,0.0127822,912.693,0.0149968,0.0299646,0.0516016,0.00149997,-0.203299,0.396882,-0.191837,4.48532e-05,0.000119067,-9.48934e-05,0.407174,-0.18396578928416718,4.485420591970879e-05,0.00011907408875666547,0.4871804324061253,-9.488889776376741e-05,-0.1745585955243687
498,0.4882,0.0141979,912.987,0.0177763,0.0293057,0.0519608,0.00233566,-0.203644,0.397554,-0.192164,4.48996e-05,0.000119221,-9.48523e-05,0.40787,-0.1842472725282126,4.490060800210749e-05,0.00011922810710585097,0.4881801535253767,-9.484780166280071e-05,-0.17482847073663021
499,0.4892,0.01285,913.276,0.015172,0.0299301,0.051521,0.00166959,-0.203989,0.398226,-0.19249,4.49651e-05,0.000119363,-9.48343e-05,0.408566,-0.18452865867728863,4.496611094517711e-05,0.00011937012404628078,0.48918054668299993,-9.482980336994462e-05,-0.17509743281196977
500,0.4902,0.0140254,913.568,0.0174847,0.0293824,0.051811,0.00237487,-0.204333,0.398897,-0.192817,4.50131e-05,0.000119515,-9.47949e-05,0.409261,-0.18480913257442744,4.501411310475767e-05,0.00011952214220212198,0.4901801221498894,-9.479040710547171e-05,-0.1753671318532437
501,0.4912,0.0128986,913.857,0.01531,0.0299046,0.0514353,0.00182796,-0.204677,0.399568,-0.193143,4.5077e-05,0.000119657,-9.47747e-05,0.409955,-0.18508951000513885,4.507801598330197e-05,0.00011966415918429618,0.491180368556992,-9.477020902004529e-05,-0.17563591835367953
502,0.4922,0.0138712,914.147,0.0172284,0.0294509,0.051667,0.00242299,-0.205021,0.400238,-0.193468,4.51263e-05,0.000119807,-9.47367e-05,0.410649,-0.18536979100260165,4.512731820671689e-05,0.00011981417714523879,0.49217979417412017,-9.473221262057407e-05,-0.1759037931482027
503,0.4932,0.0129308,914.435,0.015416,0.0298868,0.0513453,0.00197657,-0.205365,0.400908,-0.193794,4.51889e-05,0.00011995,-9.47146e-05,0.411342,-0.18564997559998297,4.518992103363928e-05,0.00011995719428892215,0.49317988963078285,-9.471011471384738e-05,-0.17617240472557028
504,0.4942,0.0137328,914.724,0.0170023,0.0295123,0.051528,0.00247866,-0.205709,0.401577,-0.19412,4.52393e-05,0.000120099,-9.46777e-05,0.412035,-0.18593006383043886,4.524032331265637e-05,0.00012010621217362072,0.4941791611960149,-9.467321820799679e-05,-0.17644092874983563
505,0.4952,0.0129492,915.011,0.0154948,0.0298756,0.0512518,0.00211674,-0.206052,0.402247,-0.194445,4.53007e-05,0.000120241,-9.4654e-05,0.412728,-0.1862092419367628,4.530172609218397e-05,0.0001202482292388396,0.4951805966774405,-9.464952045146191e-05,-0.17670854195849006
506,0.4962,0.0136079,915.299,0.0168022,0.0295676,0.0513933,0.00254065,-0.206395,0.402915,-0.19477,4.5352e-05,0.000120389,-9.4618e-05,0.41342,-0.1864883243014167,4.5353028417460806e-05,0.00012039624704640595,0.4961797109830468,-9.461352385820021e-05,-0.1769760682069833
507,0.4972,0.0129557,915.584,0.0155504,0.02987,0.0511553,0.00224957,-0.206738,0.403583,-0.195095,4.54125e-05,0.000120531,-9.45929e-05,0.414112,-0.18676731095723464,4.541353116316316e-05,0.00012053826415292512,0.4971794929199731,-9.458842623266683e-05,-0.1772435075235731
508,0.4982,0.0134945,915.871,0.0166241,0.0296177,0.0512624,0.00260793,-0.20708,0.404251,-0.195419,4.54646e-05,0.000120678,-9.45576e-05,0.414803,-0.18704538898283452,4.546563353069466e-05,0.00012068528188269312,0.4981799429343463,-9.455312957107331e-05,-0.17751003744695626
509,0.4992,0.0129522,916.155,0.0155863,0.0298692,0.0510564,0.00237607,-0.207423,0.404918,-0.195744,4.55242e-05,0.00012082,-9.45313e-05,0.415494,-0.18732418459823197,4.5525236242127676e-05,0.0001208272990300685,0.49917956229227944,-9.452683205746215e-05,-0.17777730325174024
510,0.5002,0.0133909,916.441,0.0164649,0.0296634,0.0511348,0.00267957,-0.207765,0.405585,-0.196068,4.55769e-05,0.000120966,-9.44965e-05,0.416184,-0.18760207220560998,4.557793864279347e-05,0.00012097331668159406,0.5001798486187334,-9.449203534639405e-05,-0.1780436602533223
511,0.5012,0.0129403,916.724,0.0156056,0.0298724,0.0509555,0.00249708,-0.208107,0.406251,-0.196392,4.56359e-05,0.000121108,-9.44691e-05,0.416874,-0.18787986479167584,4.563694133352669e-05,0.00012111533386982565,0.5011793011786734,-9.446463793505444e-05,-0.178309930969215
512,0.5022,0.0132957,917.008,0.0163217,0.0297055,0.0510099,0.00275479,-0.208448,0.406917,-0.196715,4.56891e-05,0.000121253,-9.44348e-05,0.417563,-0.18815675054607772,4.569014376287761e-05,0.00012126035144222058,0.5021794195957239,-9.443034117462279e-05,-0.1785752940030748
513,0.5032,0.0129213,917.291,0.0156109,0.0298791,0.0508529,0.00261333,-0.20879,0.407583,-0.197039,4.57474e-05,0.000121394,-9.44064e-05,0.418252,-0.18843435346458604,4.574844642823983e-05,0.00012140136854976724,0.5031802043134936,-9.440194385601508e-05,-0.17884139249753395
514,0.5042,0.0132075,917.574,0.016192,0.0297445,0.0508876,0.00283292,-0.209131,0.408248,-0.197362,4.58011e-05,0.000121538,-9.43724e-05,0.418941,-0.1887110501705851,4.580214888649792e-05,0.00012154538604192133,0.5041801515949831,-9.436794706518814e-05,-0.1791065838970406
515,0.5052,0.0128964,917.855,0.0156045,0.0298887,0.0507491,0.00272546,-0.209472,0.408912,-0.197685,4.58589e-05,0.000121679,-9.43432e-05,0.419629,-0.18898765253909278,4.5859951535387466e-05,0.00012168640318988011,0.505179258882553,-9.433874982023305e-05,-0.17937168965355732
516,0.5062,0.0131254,918.137,0.0160737,0.0297808,0.0507674,0.00291338,-0.209813,0.409577,-0.198008,4.59129e-05,0.000121822,-9.43093e-05,0.420316,-0.1892641606022728,4.5913954013432345e-05,0.00012182942060112723,0.506180535977445,-9.430485301775704e-05,-0.17963670979474233
517,0.5072,0.0128667,918.417,0.0155883,0.0299008,0.0506443,0.00283399,-0.210153,0.41024,-0.198331,4.59703e-05,0.000121963,-9.42794e-05,0.421003,-0.18953976393244687,4.5971356650520434e-05,0.00012197043778905403,0.5071794647811048,-9.427495583702594e-05,-0.17990164434824485
518,0.5082,0.0130484,918.698,0.0159651,0.029815,0.0506492,0.00299567,-0.210493,0.410904,-0.198653,4.60245e-05,0.000122106,-9.42457e-05,0.42169,-0.18981527357341677,4.602555914345885e-05,0.00012211345524115735,0.5081805642739694,-9.424125901358327e-05,-0.18016567350778878
519,0.5092,0.0128329,918.977,0.015564,0.0299149,0.0505388,0.0029394,-0.210833,0.411566,-0.198975,4.60815e-05,0.000122246,-9.42151e-05,0.422376,-0.19009068955703146,4.6082561768523433e-05,0.00012225347234684492,0.5091793103559974,-9.421066189685412e-05,-0.18042961766362964
520,0.5102,0.0129757,919.257,0.0158647,0.0298473,0.0505326,0.00307937,-0.211173,0.412229,-0.199297,4.6136e-05,0.000122388,-9.41814e-05,0.423062,-0.19036601191512892,4.613706428169273e-05,0.000122395489716709,0.5101802280063001,-9.4176965071191e-05,-0.1806934768431342
521,0.5112,0.0127957,919.535,0.015533,0.0299307,0.0504327,0.00304208,-0.211513,0.412891,-0.199619,4.61927e-05,0.000122527,-9.41503e-05,0.423747,-0.19064124067953647,4.6193766899182975e-05,0.00012253450673949118,0.5111802983039859,-9.414586799960656e-05,-0.18095725107366045
522,0.5122,0.0129066,919.813,0.0157711,0.0298781,0.0504174,0.00316413,-0.211852,0.413552,-0.199941,4.62473e-05,0.000122668,-9.41165e-05,0.424432,-0.1909155667980419,4.624836942279664e-05,0.00012267552402667192,0.5121795186871196,-9.411207118115161e-05,-0.18122094038255765
523,0.5132,0.0127559,920.091,0.0154964,0.029948,0.0503263,0.00314235,-0.212191,0.414213,-0.200262,4.63038e-05,0.000122808,-9.40849e-05,0.425116,-0.19118979993575425,4.630487203738376e-05,0.00012281554121118532,0.5131793997732652,-9.408047415460086e-05,-0.1814837262813016
524,0.5142,0.0128405,920.368,0.0156832,0.0299077,0.0503036,0.00324964,-0.21253,0.414874,-0.200583,4.63585e-05,0.000122948,-9.40511e-05,0.4258,-0.19146394012418866,4.6359574571885886e-05,0.0001229555584150166,0.5141799419992912,-9.404667733392547e-05,-0.1817464278393095
525,0.5152,0.0127138,920.644,0.0154552,0.0299665,0.0502196,0.00324051,-0.212869,0.415534,-0.200904,4.64147e-05,0.000123087,-9.4019e-05,0.426483,-0.1917379873948497,4.6415777178898665e-05,0.0001230945755155144,0.5151796306219676,-9.401458035229737e-05,-0.18200904508365034
526,0.5162,0.0127771,920.92,0.0156001,0.0299363,0.0501909,0.00333564,-0.213208,0.416194,-0.201225,4.64695e-05,0.000123226,-9.39851e-05,0.427166,-0.1920119417792311,4.647057972384516e-05,0.00012323359263533007,0.5161799792569148,-9.398068353883016e-05,-0.1822715780413845
527,0.5172,0.0126699,921.195,0.0154103,0.029986,0.0501128,0.00333678,-0.213546,0.416853,-0.201546,4.65255e-05,0.000123365,-9.39525e-05,0.427849,-0.1922849955942154,4.652658232795481e-05,0.00012337260977446363,0.5171794711596553,-9.394808660212473e-05,-0.18253402673956354
528,0.5182,0.0127159,921.47,0.0155211,0.029964,0.0500793,0.00342193,-0.213884,0.417512,-0.201866,4.65804e-05,0.000123504,-9.39185e-05,0.428531,-0.19255795713260593,4.6581484883567725e-05,0.00012351162693291506,0.5181796219446377,-9.391408979575466e-05,-0.18279557400121316
529,0.5192,0.0126246,921.744,0.0153624,0.0300064,0.050006,0.00343136,-0.214222,0.418171,-0.202186,4.66363e-05,0.000123642,-9.38855e-05,0.429213,-0.1928308264255868,4.6637387489223414e-05,0.00012364964398714484,0.5191804320462083,-9.388109289432123e-05,-0.1830570375811288
530,0.5202,0.0126565,922.018,0.0154454,0.0299911,0.0499686,0.00350833,-0.214559,0.418829,-0.202506,4.66912e-05,0.00012378,-9.38513e-05,0.429894,-0.1931027966075317,4.6692290051053575e-05,0.0001237876610602484,0.5201803817178581,-9.384689610447694e-05,-0.18331841750608446
531,0.5212,0.0125782,922.291,0.0153121,0.0300275,0.0498993,0.00352443,-0.214897,0.419486,-0.202826,4.67469e-05,0.000123918,-9.3818e-05,0.430575,-0.19337548177588892,4.674799265336205e-05,0.00012392567815244782,0.5211794683926816,-9.381359922910892e-05,-0.18357971380284532
532,0.5222,0.0125987,922.564,0.0153726,0.0300176,0.0498588,0.00359468,-0.215234,0.420143,-0.203145,4.68018e-05,0.000124055,-9.37837e-05,0.431255,-0.19364726843990532,4.680289522140946e-05,0.00012406269513975943,0.522179211683125,-9.377930244625077e-05,-0.18384011033868652
533,0.5232,0.012531,922.836,0.0152599,0.0300492,0.0497927,0.00361612,-0.215571,0.4208,-0.203464,4.68574e-05,0.000124192,-9.375e-05,0.431935,-0.19391896352724758,4.685849782504192e-05,0.00012419971214572278,0.5231796120207266,-9.374560560604372e-05,-0.18410042382128056
534,0.5242,0.0125422,923.108,0.0153022,0.0300437,0.0497498,0.00368086,-0.215907,0.421456,-0.203784,4.69123e-05,0.000124329,-9.37155e-05,0.432615,-0.19418976125893572,4.691340039908454e-05,0.0001243367291703379,0.5241791456574003,-9.371110883971134e-05,-0.18436146991605495
535,0.5252,0.0124831,923.379,0.0152062,0.0300713,0.0496864,0.00370655,-0.216244,0.422112,-0.204102,4.69677e-05,0.000124466,-9.36814e-05,0.433293,-0.19446127355699971,4.696880299959183e-05,0.00012447374621404883,0.5251793352032545,-9.367701203466527e-05,-0.18462080173267736
536,0.5262,0.0124869,923.649,0.0152339,0.0300694,0.0496415,0.00376677,-0.21658,0.422768,-0.204421,4.70227e-05,0.000124602,-9.36467e-05,0.433972,-0.19473188910312678,4.7023805584522904e-05,0.0001246097631515397,0.5261801810887066,-9.364231528463662e-05,-0.18488086621443445
537,0.5272,0.0124347,923.919,0.0151512,0.0300939,0.0495803,0.00379582,-0.216916,0.423423,-0.20474,4.7078e-05,0.000124738,-9.36124e-05,0.43465,-0.19500241373770444,4.707910818635419e-05,0.00012474578010790438,0.5271801565635366,-9.360801849600531e-05,-0.18514084774885264
538,0.5282,0.0124326,924.189,0.0151672,0.0300949,0.0495338,0.00385233,-0.217252,0.424077,-0.205058,4.71329e-05,0.000124874,-9.35774e-05,0.435328,-0.19527284749127372,4.713401077260926e-05,0.0001248817970824767,0.5281792590568333,-9.357302177170901e-05,-0.18539993176272707
539,0.5292,0.012386,924.458,0.0150954,0.0301169,0.0494745,0.003884,-0.217588,0.424732,-0.205376,4.71881e-05,0.000125009,-9.35428e-05,0.436005,-0.19554319039436563,4.718921337598658e-05,0.00012501681395060693,0.5291805443566533,-9.353842500869902e-05,-0.18565893340098338
540,0.5302,0.0123791,924.727,0.0151019,0.0301202,0.0494269,0.00393745,-0.217923,0.425385,-0.205694,4.7243e-05,0.000125144,-9.35077e-05,0.436682,-0.19581263829054096,4.724411596801481e-05,0.0001251518308369448,0.5301794253512686,-9.350332829127783e-05,-0.18591785268981298
541,0.5312,0.012337,924.995,0.0150389,0.0301402,0.049369,0.00397116,-0.218258,0.426039,-0.206011,4.72981e-05,0.000125279,-9.34727e-05,0.437358,-0.19608199593678888,4.729921857271613e-05,0.0001252868477417124,0.53118049000791,-9.34683315633178e-05,-0.18617587583168171
542,0.5322,0.0123264,925.262,0.015038,0.0301453,0.0493205,0.0040221,-0.218593,0.426691,-0.206329,4.7353e-05,0.000125414,-9.34374e-05,0.438034,-0.19635126336333786,4.7354121170961605e-05,0.0001254218646644656,0.5321791452136146,-9.343303486208931e-05,-0.18643463075895328
543,0.5332,0.0122879,925.529,0.014982,0.0301637,0.0492639,0.00405737,-0.218928,0.427344,-0.206646,4.7408e-05,0.000125548,-9.34022e-05,0.43871,-0.1966204406004065,4.740912377698692e-05,0.0001255558814798885,0.533179984934044,-9.339783815032199e-05,-0.1866924901081365
544,0.5342,0.0122744,925.796,0.014975,0.0301704,0.0492147,0.00410621,-0.219262,0.427996,-0.206963,4.74629e-05,0.000125682,-9.33666e-05,0.439385,-0.19688872456732953,4.74640263812276e-05,0.00012568989831351907,0.5341799442355293,-9.336224147460381e-05,-0.1869502677288607
545,0.5352,0.0122388,926.062,0.0149247,0.0301875,0.0491592,0.00414265,-0.219597,0.428648,-0.20728,4.75178e-05,0.000125816,-9.33311e-05,0.440059,-0.19715772178504976,4.75189289885769e-05,0.0001258239151649132,0.5351805557230687,-9.33267447883468e-05,-0.18720796364702963
546,0.5362,0.0122229,926.327,0.014913,0.0301953,0.0491095,0.00418976,-0.219931,0.429299,-0.207596,4.75726e-05,0.00012595,-9.32953e-05,0.440733,-0.19742582633002215,4.757373159414158e-05,0.00012595793203429295,0.5361802836409746,-9.329094812882133e-05,-0.1874647653537106
547,0.5372,0.0121897,926.592,0.0148672,0.0302114,0.0490548,0.00422705,-0.220265,0.429949,-0.207913,4.76275e-05,0.000126083,-9.32596e-05,0.441407,-0.19769384134302925,4.762863420748609e-05,0.00012609094879545424,0.5371791254137499,-9.3255251458646e-05,-0.1877222982019804
548,0.5382,0.012172,926.857,0.0148518,0.0302203,0.0490047,0.00427271,-0.220598,0.4306,-0.208229,4.76822e-05,0.000126216,-9.32235e-05,0.44208,-0.19796096481533543,4.768333681415271e-05,0.0001262239655743791,0.5381801548241141,-9.321915482451981e-05,-0.1879789374046189
549,0.5392,0.0121406,927.121,0.0148095,0.0302356,0.0489508,0.00431061,-0.220932,0.43125,-0.208545,4.7737e-05,0.000126349,-9.31875e-05,0.442753,-0.19822880112193397,4.7738139428821214e-05,0.00012635698237106752,0.5391802969357229,-9.318315817974376e-05,-0.18823549552208163
550,0.5402,0.0121215,927.384,0.0147912,0.0302452,0.0489005,0.00435504,-0.221265,0.431899,-0.208861,4.77917e-05,0.000126481,-9.31513e-05,0.443426,-0.19849574648229107,4.779284204148304e-05,0.00012648899905887134,0.5401795491707104,-9.314696155238167e-05,-0.1884919725799873
551,0.5412,0.0120917,927.647,0.0147519,0.0302599,0.0488473,0.00439334,-0.221598,0.432548,-0.209176,4.78465e-05,0.000126613,-9.3115e-05,0.444098,-0.1987626029646422,4.784764466214675e-05,0.0001266210157642167,0.5411794501308873,-9.311066493289388e-05,-0.18874755735190962
552,0.5422,0.0120714,927.91,0.0147313,0.0302701,0.0487969,0.00443672,-0.221931,0.433197,-0.209492,4.79011e-05,0.000126745,-9.30786e-05,0.444769,-0.19902937059857884,4.7902247275910526e-05,0.00012675303248688152,0.5421800002374124,-9.307426832150245e-05,-0.18900387262384055
553,0.5432,0.0120429,928.172,0.0146944,0.0302844,0.0487441,0.00447527,-0.222263,0.433845,-0.209807,4.79558e-05,0.000126877,-9.30421e-05,0.44544,-0.19929524870933157,4.795694989767618e-05,0.00012688504922708788,0.5431796567312903,-9.303777171809635e-05,-0.18925929617264314
554,0.5442,0.0120218,928.433,0.014672,0.0302951,0.0486936,0.00451774,-0.222595,0.434493,-0.210122,4.80104e-05,0.000127008,-9.30054e-05,0.446111,-0.19956103856320295,4.801155251765721e-05,0.00012701606585752145,0.5441799612125013,-9.300107513188216e-05,-0.18951463927569867
555,0.5452,0.0119942,928.695,0.0146369,0.030309,0.0486414,0.00455641,-0.222928,0.43514,-0.210437,4.8065e-05,0.000127139,-9.29687e-05,0.446781,-0.19982754036234918,4.806615514052481e-05,0.0001271470825052745,0.5451793689209361,-9.29643785443357e-05,-0.18976990195834353
556,0.5462,0.0119725,928.955,0.0146132,0.0303201,0.0485909,0.00459809,-0.223259,0.435787,-0.210751,4.81196e-05,0.00012727,-9.29318e-05,0.447451,-0.2000923536174778,4.812075776650104e-05,0.000127278099170125,0.5461794234553838,-9.292748197398115e-05,-0.19002427427058555
557,0.5472,0.0119458,929.215,0.0145795,0.0303337,0.0485391,0.00463678,-0.223591,0.436434,-0.211066,4.81741e-05,0.000127401,-9.28948e-05,0.44812,-0.20035787887644485,4.817526039069264e-05,0.00012740911585207293,0.5471801252344766,-9.289048541172296e-05,-0.1902793764434888
558,0.5482,0.0119236,929.475,0.0145548,0.0303452,0.0484887,0.00467776,-0.223923,0.43708,-0.21138,4.82286e-05,0.000127531,-9.28577e-05,0.448789,-0.20062331599565797,4.822976301754878e-05,0.00012753913242358195,0.5481799264964162,-9.285338885722805e-05,-0.1905335888058559
559,0.5492,0.0118975,929.734,0.0145224,0.0303586,0.0484372,0.00471638,-0.224254,0.437726,-0.211694,4.82831e-05,0.000127661,-9.28205e-05,0.449458,-0.20088786589264007,4.828426564773558e-05,0.0001276691490121884,0.5491803738386325,-9.281619231071847e-05,-0.1907877213580721
560,0.5502,0.011875,929.993,0.0144969,0.0303703,0.0483869,0.00475675,-0.224585,0.438371,-0.212008,4.83375e-05,0.000127791,-9.27831e-05,0.450126,-0.2011523282380968,4.8338668275693664e-05,0.00012779916561767024,0.5501799174979356,-9.277879578128978e-05,-0.19104177412519385
561,0.5512,0.0118495,930.251,0.0144654,0.0303835,0.0483357,0.00479523,-0.224916,0.439016,-0.212321,4.8392e-05,0.000127921,-9.27457e-05,0.450794,-0.20141670306100312,4.839317091165363e-05,0.00012792918224002747,0.5511801060708612,-9.274139925052882e-05,-0.19129493842761247
562,0.5522,0.0118267,930.509,0.0144394,0.0303955,0.0482855,0.00483504,-0.225246,0.43966,-0.212634,4.84464e-05,0.00012805,-9.27082e-05,0.451461,-0.20168019207091514,4.844757354582896e-05,0.00012805819875127966,0.552179387793349,-9.270390272764217e-05,-0.19154802350200428
563,0.5532,0.0118017,930.766,0.0144087,0.0304087,0.0482347,0.00487334,-0.225577,0.440304,-0.212948,4.85007e-05,0.000128179,-9.26705e-05,0.452128,-0.2019443921998062,4.8501876177997616e-05,0.00012818721527896315,0.5531793132605296,-9.266620622183641e-05,-0.1918018375717303
564,0.5542,0.0117787,931.023,0.0143822,0.0304208,0.0481846,0.00491262,-0.225907,0.440948,-0.213261,4.85551e-05,0.000128308,-9.26327e-05,0.452794,-0.20220770710103197,4.855627881794611e-05,0.00012831623182352203,0.5541798828871081,-9.262840972390496e-05,-0.19205476401151766
565,0.5552,0.0117541,931.279,0.0143522,0.0304339,0.0481341,0.00495071,-0.226237,0.441591,-0.213573,4.86094e-05,0.000128436,-9.25949e-05,0.45346,-0.20247093512267622,4.861058145610997e-05,0.0001284442482560877,0.5551795419077374,-9.259061322453022e-05,-0.19230680360492491
566,0.5562,0.011731,931.535,0.0143254,0.0304462,0.0480842,0.00498951,-0.226567,0.442234,-0.213886,4.86637e-05,0.000128565,-9.25569e-05,0.454125,-0.20273407629340456,4.866488409716041e-05,0.00012857326483373122,0.5561798439158152,-9.255261674223636e-05,-0.19255957201507679
567,0.5572,0.0117067,931.79,0.014296,0.0304592,0.0480339,0.00502735,-0.226896,0.442876,-0.214198,4.8718e-05,0.000128693,-9.25188e-05,0.45479,-0.20299633363860514,4.871918674109743e-05,0.00012870128129938152,0.5571792321449045,-9.251452026781681e-05,-0.19281145413295442
568,0.5582,0.0116836,932.045,0.014269,0.0304717,0.0479841,0.00506569,-0.227225,0.443518,-0.21451,4.87722e-05,0.00012882,-9.24806e-05,0.455455,-0.20325850471533113,4.8773389383027776e-05,0.00012882829765259451,0.5581792621872372,-9.247632380116055e-05,-0.19306325767586963
569,0.5592,0.0116596,932.3,0.01424,0.0304847,0.0479342,0.00510326,-0.227555,0.44416,-0.214822,4.88264e-05,0.000128948,-9.24423e-05,0.456119,-0.20352138603097236,4.8827592028066746e-05,0.00012895631415066333,0.5591799344549893,-9.243802734226758e-05,-0.1933149826683339
570,0.5602,0.0116365,932.554,0.0142129,0.0304973,0.0478846,0.00514117,-0.227883,0.444801,-0.215134,4.88806e-05,0.000129075,-9.24039e-05,0.456783,-0.20378258817686057,4.8881794675992296e-05,0.00012908333053629484,0.5601796891801327,-9.23996308911379e-05,-0.19356662913485123
571,0.5612,0.0116127,932.807,0.0141843,0.0305103,0.0478348,0.00517844,-0.228212,0.445442,-0.215446,4.89347e-05,0.000129202,-9.23654e-05,0.457447,-0.2040445006183912,4.893589732191117e-05,0.00012921034693791356,0.5611800849534889,-9.23611344477715e-05,-0.19381819709991788
572,0.5622,0.0115897,933.06,0.0141571,0.030523,0.0477854,0.00521594,-0.228541,0.446082,-0.215757,4.89889e-05,0.000129329,-9.23268e-05,0.45811,-0.2043063269049019,4.8990099975831924e-05,0.00012933736335574153,0.5621795600057604,-9.232253801216839e-05,-0.1940688806573061
573,0.5632,0.0115661,933.313,0.0141288,0.030536,0.0477359,0.0052529,-0.228869,0.446722,-0.216068,4.9043e-05,0.000129456,-9.22881e-05,0.458772,-0.2045672716324024,4.904420262752396e-05,0.00012946437978955672,0.5631796749268017,-9.228384158432856e-05,-0.1943194862642299
574,0.5642,0.0115431,933.565,0.0141017,0.0305488,0.0476867,0.00529,-0.229197,0.447362,-0.216379,4.9097e-05,0.000129582,-9.22493e-05,0.459434,-0.20482813078406736,4.909820527743136e-05,0.0001295903961100464,0.5641804301262594,-9.2245045164141e-05,-0.19457001394492812
575,0.5652,0.0115197,933.817,0.0140737,0.0305618,0.0476374,0.00532665,-0.229525,0.448001,-0.21669,4.91511e-05,0.000129708,-9.22104e-05,0.460096,-0.20508890438796124,4.91523079351186e-05,0.00012971641244630128,0.5651802608329999,-9.220614875171673e-05,-0.19482046372363204
576,0.5662,0.0114968,934.068,0.0140465,0.0305747,0.0475884,0.00536335,-0.229852,0.448639,-0.217001,4.92051e-05,0.000129834,-9.21714e-05,0.460757,-0.2053487978213342,4.920631059079916e-05,0.00012984242879854335,0.5661791644557839,-9.216715234705575e-05,-0.1950708356245654
577,0.5672,0.0114735,934.319,0.0140188,0.0305878,0.0475393,0.00539967,-0.23018,0.449278,-0.217311,4.92591e-05,0.000129959,-9.21323e-05,0.461418,-0.20560940067444444,4.9260313249366305e-05,0.00012996744503657176,0.5671802727619104,-9.2128055949936e-05,-0.1953203249926717
578,0.5682,0.0114507,934.569,0.0139917,0.0306008,0.0474905,0.00543599,-0.230507,0.449916,-0.217621,4.93131e-05,0.000130084,-9.20931e-05,0.462079,-0.20586912393335677,4.931431591082003e-05,0.00013009246129036534,0.5681804527994381,-9.208885956069057e-05,-0.19556973703106062
579,0.5692,0.0114276,934.819,0.0139642,0.0306139,0.0474417,0.00547198,-0.230834,0.450553,-0.217931,4.93671e-05,0.000130209,-9.20538e-05,0.462739,-0.2061287622766479,4.9368318575382375e-05,0.00013021747755970203,0.5691797019749449,-9.204956317898638e-05,-0.19581907176370072
580,0.5702,0.0114049,935.069,0.0139372,0.0306269,0.047393,0.00550793,-0.231161,0.45119,-0.218241,4.9421e-05,0.000130334,-9.20144e-05,0.463398,-0.2063883157320806,4.9422221237716e-05,0.0001303424938448039,0.570179587874952,-9.201016680493446e-05,-0.19606832921455297
581,0.5712,0.011382,935.318,0.0139098,0.0306401,0.0473444,0.00554358,-0.231487,0.451827,-0.218551,4.94749e-05,0.000130459,-9.19749e-05,0.464057,-0.20664699097479644,4.947612390315825e-05,0.00013046751014544888,0.5711801109051817,-9.19706704385348e-05,-0.19631750940757098
582,0.5722,0.0113593,935.566,0.0138829,0.0306532,0.047296,0.00557916,-0.231814,0.452463,-0.21886,4.95288e-05,0.000130583,-9.19353e-05,0.464716,-0.2069063749971488,4.953002657126504e-05,0.00013059152633099202,0.5721796992911301,-9.19310740797874e-05,-0.19656580893291176
583,0.5732,0.0113366,935.815,0.0138558,0.0306665,0.0472476,0.00561447,-0.23214,0.453099,-0.219169,4.95826e-05,0.000130707,-9.18956e-05,0.465374,-0.20716488138006983,4.958382923736515e-05,0.0001307155425320783,0.5731799236174995,-9.189137772869227e-05,-0.1968140317455519
584,0.5742,0.011314,936.062,0.013829,0.0306797,0.0471993,0.00564968,-0.232466,0.453734,-0.219478,4.96364e-05,0.000130831,-9.18559e-05,0.466032,-0.20742330350364513,4.963763190657389e-05,0.00013083955874848563,0.5741792101088794,-9.18516813759318e-05,-0.197062177869192
585,0.5752,0.0112914,936.31,0.013802,0.030693,0.0471511,0.00568464,-0.232792,0.454369,-0.219787,4.96902e-05,0.000130955,-9.1816e-05,0.46669,-0.20768164139533873,4.969143457844716e-05,0.00013096357498021405,0.5751791313486927,-9.181178504003018e-05,-0.19731024732752522
586,0.5762,0.011269,936.556,0.0137753,0.0307062,0.0471031,0.00571949,-0.233117,0.455004,-0.220096,4.9744e-05,0.000131078,-9.1776e-05,0.467347,-0.2079391030221046,4.974523725320701e-05,0.00013108659109639653,0.5761796877401326,-9.177178871178082e-05,-0.19755824014423762
587,0.5772,0.0112465,936.803,0.0137485,0.0307196,0.0470551,0.00575411,-0.233443,0.455638,-0.220404,4.97978e-05,0.000131201,-9.1736e-05,0.468004,-0.20819727279056077,4.9799039931075484e-05,0.00013120960722767805,0.5771793025065575,-9.173179238186613e-05,-0.197805354148763
588,0.5782,0.0112242,937.049,0.013722,0.0307329,0.0470072,0.0057886,-0.233768,0.456272,-0.220712,4.98515e-05,0.000131324,-9.16958e-05,0.46866,-0.20845456686435215,4.985274260671524e-05,0.0001313326233740586,0.5781795512296872,-9.169159606858823e-05,-0.1980523920538948
589,0.5792,0.0112018,937.294,0.0136953,0.0307464,0.0469595,0.00582287,-0.234093,0.456906,-0.22102,4.99052e-05,0.000131447,-9.16556e-05,0.469316,-0.2087117773311563,4.9906445285241574e-05,0.00013145563953553818,0.5791804343115778,-9.165139975386705e-05,-0.1982993538830683
590,0.5802,0.0111796,937.539,0.0136689,0.0307598,0.0469118,0.005857,-0.234417,0.457539,-0.221328,4.99589e-05,0.000131569,-9.16153e-05,0.469971,-0.20896811318664998,4.996014796665449e-05,0.00013157765558058365,0.5801803719733782,-9.161110344657608e-05,-0.19854623965971097
591,0.5812,0.0111574,937.784,0.0136424,0.0307733,0.0468642,0.00589093,-0.234742,0.458171,-0.221636,5.00125e-05,0.000131691,-9.15749e-05,0.470626,-0.20922515677801823,5.0013750645838684e-05,0.0001316996716405061,0.5811793616159409,-9.157070714682636e-05,-0.19879304940724352
592,0.5822,0.0111353,938.028,0.0136161,0.0307868,0.0468168,0.0059247,-0.235066,0.458804,-0.221943,5.00662e-05,0.000131813,-9.15344e-05,0.471281,-0.20948132632551453,5.006745333302476e-05,0.00013182168771530556,0.5821805649992837,-9.153021085461788e-05,-0.19903898218846205
593,0.5832,0.0111132,938.272,0.0135897,0.0308003,0.0467694,0.00595828,-0.23539,0.459435,-0.222251,5.01198e-05,0.000131935,-9.14938e-05,0.471935,-0.2097374128875218,5.012105601820416e-05,0.000131943703804982,0.5831792359833576,-9.148961456995064e-05,-0.1992856401946651
594,0.5842,0.0110912,938.516,0.0135635,0.0308139,0.0467221,0.0059917,-0.235714,0.460067,-0.222558,5.01734e-05,0.000132056,-9.14531e-05,0.472589,-0.20999341649092296,5.017465870604809e-05,0.00013206471977733614,0.5841801215070099,-9.144891829271362e-05,-0.19953142177372252
595,0.5852,0.0110692,938.759,0.0135374,0.0308275,0.0466749,0.00602493,-0.236038,0.460698,-0.222865,5.02269e-05,0.000132177,-9.14123e-05,0.473242,-0.2102493371625923,5.022816139188535e-05,0.00013218573576456727,0.5851800546093968,-9.140812202301785e-05,-0.19977712790941637
596,0.5862,0.0110473,939.001,0.0135113,0.0308412,0.0466279,0.00605799,-0.236361,0.461329,-0.223171,5.02805e-05,0.000132298,-9.13715e-05,0.473895,-0.2105043854341755,5.0281764085502445e-05,0.00013230675176645335,0.5861806188686802,-9.136732575165674e-05,-0.2000219586472628
597,0.5872,0.0110255,939.243,0.0134852,0.0308549,0.0465809,0.00609087,-0.236685,0.461959,-0.223478,5.0334e-05,0.000132419,-9.13306e-05,0.474548,-0.21076014057872405,5.0335266777112864e-05,0.00013242776778277232,0.5871802275022251,-9.132642948772585e-05,-0.20026751421125044
598,0.5882,0.0110037,939.485,0.0134593,0.0308686,0.046534,0.00612358,-0.237008,0.462589,-0.223784,5.03875e-05,0.00013254,-9.12895e-05,0.4752,-0.21101502388744675,5.038876947138782e-05,0.00013254878381396829,0.5881804660876229,-9.128533324043175e-05,-0.2005121949138451
599,0.5892,0.010982,939.726,0.0134334,0.0308824,0.0464872,0.00615611,-0.237331,0.463218,-0.22409,5.0441e-05,0.00013266,-9.12484e-05,0.475852,-0.21126982488215518,5.044227216854935e-05,0.00013266879972695378,0.5891797458413284,-9.12442369913613e-05,-0.20075680075559899
600,0.5902,0.0109603,939.967,0.0134076,0.0308962,0.0464405,0.00618847,-0.237653,0.463847,-0.224396,5.04944e-05,0.00013278,-9.12073e-05,0.476503,-0.2115237551135819,5.049567486370421e-05,0.00013278881565437217,0.5901796543397182,-9.120314074062552e-05,-0.20100133175941604
601,0.5912,0.0109387,940.208,0.0133818,0.0309101,0.0463939,0.00622065,-0.237976,0.464476,-0.224702,5.05479e-05,0.0001329,-9.1166e-05,0.477154,-0.2117783918146391,5.05491775666389e-05,0.00013290883159622346,0.5911801919783974,-9.116184450652653e-05,-0.20124578794819337
602,0.5922,0.0109172,940.448,0.0133562,0.030924,0.0463474,0.00625266,-0.238298,0.465104,-0.225007,5.06013e-05,0.00013302,-9.11246e-05,0.477804,-0.21203215831387578,5.0602580267344877e-05,0.00013302884755250766,0.5921797669726567,-9.112044827974675e-05,-0.20148937083459073
603,0.5932,0.0108957,940.687,0.0133305,0.0309379,0.046301,0.00628449,-0.23862,0.465732,-0.225313,5.06547e-05,0.000133139,-9.10832e-05,0.478455,-0.2122858431134541,5.065598297093743e-05,0.00013314786338991524,0.5931799698971618,-9.107905205130162e-05,-0.2017336777062576
604,0.5942,0.0108743,940.927,0.013305,0.0309519,0.0462547,0.00631614,-0.238942,0.466359,-0.225618,5.0708e-05,0.000133258,-9.10417e-05,0.479104,-0.21253944623967702,5.070928567230126e-05,0.00013326687924175573,0.5941792069663727,-9.10375558301757e-05,-0.20197711180896938
605,0.5952,0.0108529,941.165,0.0132795,0.030966,0.0462085,0.00634762,-0.239264,0.466987,-0.225923,5.07614e-05,0.000133377,-9.10001e-05,0.479753,-0.21279296771883915,5.0762688381666976e-05,0.00013338589510758503,0.5951806659335499,-9.099595961648e-05,-0.20222047167560142
606,0.5962,0.0108316,941.404,0.0132541,0.03098,0.0461624,0.00637893,-0.239585,0.467613,-0.226228,5.08147e-05,0.000133496,-9.09584e-05,0.480402,-0.21304562062324084,5.081599108880397e-05,0.00013350491098762518,0.5961795616521641,-9.095426341010349e-05,-0.2024637573287923
607,0.5972,0.0108103,941.642,0.0132287,0.0309941,0.0461164,0.00641006,-0.239906,0.468239,-0.226532,5.0868e-05,0.000133614,-9.09167e-05,0.481051,-0.21329819243907555,5.08692937986055e-05,0.0001336229267481226,0.5971790828752606,-9.091256720206164e-05,-0.20270617149774373
608,0.5982,0.0107891,941.879,0.0132034,0.0310083,0.0460704,0.00644102,-0.240227,0.468865,-0.226837,5.09213e-05,0.000133732,-9.08749e-05,0.481699,-0.21355068319236858,5.0922596511293605e-05,0.00013374094252260882,0.5981792299945274,-9.0870771001339e-05,-0.20294930903507769
609,0.5992,0.010768,942.117,0.0131782,0.0310225,0.0460246,0.00647181,-0.240548,0.469491,-0.227141,5.09746e-05,0.00013385,-9.0833e-05,0.482347,-0.21380309290913702,5.097589922709034e-05,0.0001338589583108618,0.599180003401899,-9.082887480793556e-05,-0.20319157561874457
610,0.6002,0.0107469,942.353,0.0131531,0.0310367,0.0459789,0.00650241,-0.240869,0.470116,-0.227445,5.10278e-05,0.000133968,-9.0791e-05,0.482994,-0.21405542161538904,5.1029101940436306e-05,0.00013397697411332565,0.6001798033089507,-9.078687862185131e-05,-0.20343376856456352
611,0.6012,0.0107258,942.59,0.013128,0.031051,0.0459332,0.00653285,-0.241189,0.470741,-0.227749,5.1081e-05,0.000134086,-9.07489e-05,0.483641,-0.21430688364440165,5.108230465644681e-05,0.00013409498992955626,0.6011802282862582,-9.074478244308626e-05,-0.20367588789491697
612,0.6022,0.0107049,942.826,0.0131029,0.0310653,0.0458877,0.00656311,-0.24151,0.471365,-0.228052,5.11342e-05,0.000134203,-9.07068e-05,0.484287,-0.21455905065978065,5.1135507375565936e-05,0.00013421200562535596,0.6021796765441352,-9.070268626254485e-05,-0.2039171375497164
613,0.6032,0.0106839,943.061,0.013078,0.0310797,0.0458422,0.0065932,-0.24183,0.471989,-0.228356,5.11874e-05,0.00013432,-9.06646e-05,0.484933,-0.2148103515532821,5.11887100973496e-05,0.00013432902133514446,0.6031797486523462,-9.066049008932264e-05,-0.2041591099582316
614,0.6042,0.0106631,943.296,0.0130531,0.0310941,0.0457968,0.00662311,-0.242149,0.472613,-0.228659,5.12405e-05,0.000134437,-9.06223e-05,0.485579,-0.21506078710454246,5.124181281690454e-05,0.00013444603705847769,0.6041804450002952,-9.061819392341963e-05,-0.20440021321892565
615,0.6052,0.0106423,943.531,0.0130283,0.0311086,0.0457515,0.00665285,-0.242469,0.473236,-0.228962,5.12937e-05,0.000134554,-9.058e-05,0.486224,-0.2153119274680677,5.129501554423932e-05,0.00013456305279557768,0.605180160796666,-9.057589775562924e-05,-0.20464124343639833
616,0.6062,0.0106215,943.766,0.0130035,0.0311231,0.0457064,0.00668241,-0.242789,0.473859,-0.229265,5.13468e-05,0.00013467,-9.05375e-05,0.486869,-0.21556298747953373,5.134811826956742e-05,0.00013467906841158062,0.6061804996100277,-9.05334016042536e-05,-0.2048822006327784
617,0.6072,0.0106008,944.0,0.0129788,0.0311376,0.0456613,0.0067118,-0.243108,0.474481,-0.229568,5.13999e-05,0.000134787,-9.04951e-05,0.487514,-0.21581318297822405,5.140122099756006e-05,0.00013479608417577005,0.6071798546479823,-9.049100544200606e-05,-0.20512308483018782
618,0.6082,0.0105801,944.233,0.0129541,0.0311522,0.0456163,0.00674102,-0.243427,0.475103,-0.22987,5.1453e-05,0.000134903,-9.04525e-05,0.488158,-0.21606329867727903,5.145432372821723e-05,0.00013491209981886243,0.6081798314781279,-9.044840929595122e-05,-0.20536310141424063
619,0.6092,0.0105595,944.466,0.0129296,0.0311669,0.0455713,0.00677006,-0.243746,0.475725,-0.230173,5.1506e-05,0.000135019,-9.04098e-05,0.488801,-0.21631333460215063,5.150732645686773e-05,0.00013502811547549953,0.6091804304873396,-9.040571315721557e-05,-0.20560383992078657
620,0.6102,0.010539,944.699,0.012905,0.0311815,0.0455265,0.00679893,-0.244064,0.476346,-0.230475,5.15591e-05,0.000135134,-9.03671e-05,0.489445,-0.21656250734118188,5.156042919329806e-05,0.00013514313101037345,0.6101800418818861,-9.036301701659255e-05,-0.20584371133872326
621,0.6112,0.0105185,944.932,0.0128806,0.0311963,0.0454818,0.00682763,-0.244383,0.476967,-0.230777,5.16121e-05,0.00013525,-9.03244e-05,0.490087,-0.21681238404388692,5.161343192727763e-05,0.0001352591466936559,0.6111802742278938,-9.032032087419317e-05,-0.20608351032642935
622,0.6122,0.0104981,945.164,0.0128562,0.0312111,0.0454371,0.00685615,-0.244701,0.477587,-0.231079,5.16651e-05,0.000135365,-9.02815e-05,0.49073,-0.21706139811042602,5.1666434664365823e-05,0.00013537416225495313,0.6121795157307721,-9.02774247479865e-05,-0.20632323690577525
623,0.6132,0.0104777,945.395,0.0128319,0.0312259,0.0453926,0.0068845,-0.245019,0.478207,-0.23138,5.17181e-05,0.00013548,-9.02386e-05,0.491372,-0.2173103330030811,5.1719437403896507e-05,0.00013548917782957304,0.6131793769554759,-9.023452862000347e-05,-0.20656209766111955
624,0.6142,0.0104574,945.626,0.0128076,0.0312408,0.0453481,0.00691267,-0.245337,0.478827,-0.231682,5.17711e-05,0.000135594,-9.01956e-05,0.492014,-0.21755918874702573,5.1772440146535814e-05,0.00013560319328198567,0.614179858286352,-9.01915324991176e-05,-0.20680167972891272
625,0.6152,0.0104371,945.857,0.0127834,0.0312557,0.0453038,0.00694067,-0.245655,0.479446,-0.231983,5.1824e-05,0.000135709,-9.01526e-05,0.492655,-0.2178079653674252,5.182534288672436e-05,0.00013571820888280683,0.6151793449278331,-9.014853637645537e-05,-0.20704039649463868
626,0.6162,0.0104169,946.088,0.0127593,0.0312707,0.0452595,0.0069685,-0.245972,0.480065,-0.232284,5.1877e-05,0.000135823,-9.01095e-05,0.493296,-0.2180558809457085,5.187834563491478e-05,0.00013583222436119868,0.6161794504430671,-9.010544026100131e-05,-0.20727904141743114
627,0.6172,0.0103967,946.318,0.0127352,0.0312858,0.0452153,0.00699616,-0.246289,0.480684,-0.232585,5.19299e-05,0.000135937,-9.00663e-05,0.493936,-0.2183037179472085,5.193124838065444e-05,0.00013594623985269116,0.617180175215255,-9.006224415253339e-05,-0.2075176145189115
628,0.6182,0.0103766,946.548,0.0127112,0.0313008,0.0451712,0.00702364,-0.246606,0.481302,-0.232885,5.19828e-05,0.000136051,-9.0023e-05,0.494576,-0.21855147639683026,5.198415112905863e-05,0.00013606025535706223,0.6181799014471254,-9.001894805127364e-05,-0.20775532357641435
629,0.6192,0.0103566,946.777,0.0126872,0.031316,0.0451271,0.00705095,-0.246923,0.48192,-0.233186,5.20356e-05,0.000136165,-8.99797e-05,0.495216,-0.21879915631947056,5.2036953875234104e-05,0.0001361742708743119,0.6191802457007562,-8.997565194823753e-05,-0.20799375333853853
630,0.6202,0.0103366,947.006,0.0126633,0.0313312,0.0450832,0.00707809,-0.24724,0.482537,-0.233486,5.20885e-05,0.000136278,-8.99364e-05,0.495855,-0.2190467577400187,5.208985662941146e-05,0.0001362872862684661,0.6201795881778045,-8.993235584320303e-05,-0.20823131957581964
631,0.6212,0.0103166,947.235,0.0126395,0.0313464,0.0450394,0.00710505,-0.247556,0.483154,-0.233786,5.21413e-05,0.000136392,-8.98929e-05,0.496494,-0.21929349997724623,5.2142659381138046e-05,0.00013640130181169496,0.6211795474394195,-8.988885975436123e-05,-0.20846881455391897
632,0.6222,0.0102967,947.463,0.0126157,0.0313617,0.0449956,0.00713185,-0.247873,0.483771,-0.234086,5.21942e-05,0.000136505,-8.98494e-05,0.497133,-0.2195409447156902,5.2195562140866514e-05,0.0001365143172313843,0.6221801238662752,-8.984536366352103e-05,-0.2087062382942111
633,0.6232,0.0102769,947.691,0.012592,0.031377,0.0449519,0.00715846,-0.248189,0.484387,-0.234386,5.2247e-05,0.000136618,-8.98059e-05,0.497771,-0.21978753081450453,5.224836489836626e-05,0.00013662733266395222,0.6231796946587731,-8.980186757090447e-05,-0.20894359081806413
634,0.6242,0.0102571,947.918,0.0125683,0.0313924,0.0449083,0.00718491,-0.248505,0.485003,-0.234685,5.22998e-05,0.00013673,-8.97622e-05,0.498409,-0.22003403900442187,5.23011676583085e-05,0.0001367393479725365,0.6241798813765647,-8.975817149425858e-05,-0.20918008132731647
635,0.6252,0.0102373,948.145,0.0125448,0.0314079,0.0448648,0.00721118,-0.24882,0.485619,-0.234985,5.23525e-05,0.000136843,-8.97186e-05,0.499046,-0.220279689590137,5.235387041602202e-05,0.0001368523634304175,0.625180684399177,-8.971457540674077e-05,-0.20941729171958035
636,0.6262,0.0102176,948.372,0.0125212,0.0314234,0.0448214,0.00723728,-0.249136,0.486234,-0.235284,5.24053e-05,0.000136955,-8.96748e-05,0.499683,-0.2205260422824511,5.240667318173742e-05,0.00013696437876409284,0.6261804779250792,-8.967077933530465e-05,-0.20965364061343572
637,0.6272,0.010198,948.598,0.0124977,0.0314389,0.0447781,0.00726321,-0.249451,0.486848,-0.235583,5.2458e-05,0.000137067,-8.9631e-05,0.500319,-0.2207715379115407,5.245937594500205e-05,0.00013707639411042472,0.6271792593330396,-8.962698326198115e-05,-0.20988991884953578
638,0.6282,0.0101784,948.824,0.0124743,0.0314545,0.0447349,0.00728896,-0.249766,0.487463,-0.235882,5.25108e-05,0.000137179,-8.95872e-05,0.500956,-0.22101695622168538,5.2512178716268565e-05,0.00013718840946919109,0.6281802823605593,-8.958318718665925e-05,-0.21012612644900386
639,0.6292,0.0101588,949.05,0.012451,0.0314702,0.0446917,0.00731455,-0.250081,0.488077,-0.236181,5.25635e-05,0.00013729,-8.95432e-05,0.501591,-0.2212622972372369,5.256488148486227e-05,0.0001372994247033077,0.6291802920254792,-8.953919112730802e-05,-0.21036226343295727
640,0.6302,0.0101393,949.275,0.0124277,0.0314859,0.0446486,0.00733996,-0.250396,0.48869,-0.236479,5.26162e-05,0.000137402,-8.94993e-05,0.502227,-0.22150756098253932,5.26175842565646e-05,0.0001374114400871651,0.630179285704771,-8.949529505708487e-05,-0.210597540420442
641,0.6312,0.0101199,949.5,0.0124044,0.0315017,0.0446056,0.00736519,-0.25071,0.489304,-0.236777,5.26688e-05,0.000137513,-8.94552e-05,0.502862,-0.22175196923428708,5.267018702559412e-05,0.00013752245534592866,0.6311805231346295,-8.94511990029434e-05,-0.21083274730583013
642,0.6322,0.0101005,949.724,0.0123813,0.0315175,0.0445627,0.00739026,-0.251025,0.489916,-0.237075,5.27215e-05,0.000137624,-8.94111e-05,0.503496,-0.22199707875720165,5.2722889802625517e-05,0.00013763347061712672,0.6321791111515531,-8.940710294669252e-05,-0.2110678841100091
643,0.6332,0.0100812,949.948,0.0123581,0.0315334,0.0445199,0.00741515,-0.251339,0.490529,-0.237373,5.27741e-05,0.000137735,-8.9367e-05,0.504131,-0.22224133332449802,5.277549257720615e-05,0.00013774448590053723,0.6331799436705159,-8.936300688855425e-05,-0.21130295085385986
644,0.6342,0.0100619,950.172,0.0123351,0.0315493,0.0444772,0.00743987,-0.251653,0.491141,-0.237671,5.28268e-05,0.000137845,-8.93228e-05,0.504764,-0.22248551120790017,5.282819536001071e-05,0.00013785450105863184,0.6341797557073194,-8.931881083751314e-05,-0.2115379475582574
645,0.6352,0.0100426,950.396,0.0123121,0.0315653,0.0444345,0.00746442,-0.251967,0.491753,-0.237969,5.28794e-05,0.000137956,-8.92785e-05,0.505398,-0.22272961243148315,5.288079814014246e-05,0.00013796551636646726,0.6351801798163643,-8.927451479334714e-05,-0.21177287424407032
646,0.6362,0.0100234,950.619,0.0122891,0.0315814,0.044392,0.0074888,-0.25228,0.492364,-0.238266,5.2932e-05,0.000138066,-8.92342e-05,0.506031,-0.2229728599925629,5.2933400922938745e-05,0.00013807553154876473,0.6361795801919556,-8.923021874718273e-05,-0.21200694293949807
647,0.6372,0.0100043,950.841,0.0122663,0.0315975,0.0443495,0.007513,-0.252593,0.492975,-0.238563,5.29846e-05,0.000138176,-8.91899e-05,0.506664,-0.2232160314290702,5.298600370862161e-05,0.00013818554674327466,0.6371795913877627,-8.918592269913095e-05,-0.21224094212684563
648,0.6382,0.00998521,951.064,0.0122434,0.0316137,0.0443071,0.00753703,-0.252907,0.493586,-0.23886,5.30372e-05,0.000138285,-8.91455e-05,0.507296,-0.22345990330531307,5.3038606497191054e-05,0.00013829456181135846,0.6381802137771111,-8.914152665795427e-05,-0.21247487182675395
649,0.6392,0.00996617,951.286,0.0122207,0.0316299,0.0442648,0.00756089,-0.25322,0.494196,-0.239157,5.30897e-05,0.000138395,-8.9101e-05,0.507928,-0.22370292232111855,5.309110928308769e-05,0.0001384045770298492,0.6391798085529261,-8.909703062376373e-05,-0.21270873205985774
650,0.6402,0.00994718,951.507,0.0121979,0.0316462,0.0442225,0.00758458,-0.253532,0.494806,-0.239454,5.31423e-05,0.000138504,-8.90565e-05,0.508559,-0.2239450892293522,5.3143712076986205e-05,0.00013851359212191383,0.6401800132675666,-8.905253458757478e-05,-0.2129425228467855
651,0.6412,0.00992823,951.728,0.0121753,0.0316625,0.0441804,0.0076081,-0.253845,0.495415,-0.23975,5.31948e-05,0.000138614,-8.90119e-05,0.509191,-0.22418795640572753,5.3196214868433955e-05,0.0001386236073643854,0.6411791871132013,-8.900793855837197e-05,-0.21317545738401067
652,0.6422,0.00990934,951.949,0.0121527,0.0316789,0.0441383,0.00763144,-0.254157,0.496025,-0.240046,5.32473e-05,0.000138723,-8.89673e-05,0.509821,-0.22442997200693193,5.324871766254624e-05,0.0001387326224802088,0.6421806118208238,-8.896334252717075e-05,-0.2134083229828161
653,0.6432,0.00989049,952.17,0.0121301,0.0316954,0.0440963,0.00765461,-0.25447,0.496633,-0.240343,5.32998e-05,0.000138831,-8.89226e-05,0.510452,-0.22467268743874713,5.330122045954511e-05,0.00013884063746916198,0.6431793612218619,-8.891864650284464e-05,-0.21364190602209188
654,0.6442,0.00987169,952.39,0.0121076,0.0317119,0.0440544,0.00767761,-0.254782,0.497242,-0.240639,5.33523e-05,0.00013894,-8.88779e-05,0.511082,-0.22491455182745956,5.335372325920851e-05,0.00013894965260874415,0.6441803622267144,-8.887395047640911e-05,-0.21387463357253267
655,0.6452,0.00985294,952.61,0.0120852,0.0317285,0.0440126,0.00770044,-0.255093,0.49785,-0.240934,5.34048e-05,0.000139048,-8.88331e-05,0.511711,-0.22515556592220698,5.340622606175849e-05,0.00013905766762123406,0.645180327845692,-8.882915445695971e-05,-0.2141065063527121
656,0.6462,0.00983424,952.829,0.0120628,0.0317452,0.0439708,0.00772309,-0.255405,0.498457,-0.24123,5.34572e-05,0.000139157,-8.87883e-05,0.512341,-0.22539727967633283,5.345862886163566e-05,0.00013916668278435296,0.6461792554485506,-8.878435843551191e-05,-0.21433909640180626
657,0.6472,0.00981558,953.049,0.0120405,0.0317619,0.0439292,0.00774558,-0.255717,0.499065,-0.241525,5.35097e-05,0.000139265,-8.87434e-05,0.512969,-0.2256389180275309,5.351113166951471e-05,0.0001392746978203796,0.6471804367641416,-8.873946242093922e-05,-0.21457083218565898
658,0.6482,0.00979698,953.267,0.0120183,0.0317786,0.0438876,0.00776789,-0.256028,0.499672,-0.24182,5.35621e-05,0.000139372,-8.86985e-05,0.513598,-0.22587970687941694,5.3563534474943e-05,0.0001393817127284258,0.6481805788016572,-8.869456640436812e-05,-0.21480249961753795
659,0.6492,0.00977842,953.486,0.0119961,0.0317955,0.0438461,0.00779003,-0.256339,0.500278,-0.242116,5.36145e-05,0.00013948,-8.86536e-05,0.514226,-0.22612042085761375,5.361593728303582e-05,0.0001394897277875451,0.6491796789291744,-8.86496703856876e-05,-0.21503488368311274
660,0.6502,0.00975991,953.704,0.0119739,0.0318124,0.0438047,0.007812,-0.25665,0.500884,-0.24241,5.36669e-05,0.000139587,-8.86086e-05,0.514854,-0.226361059985403,5.3668340093793176e-05,0.00013959674271868394,0.6501793846948585,-8.860467437399322e-05,-0.2152656295060119
661,0.6512,0.00974144,953.922,0.0119518,0.0318293,0.0437633,0.00783379,-0.256961,0.50149,-0.242705,5.37193e-05,0.000139695,-8.85635e-05,0.515481,-0.2266016242860599,5.3720742907437113e-05,0.00013970475780089586,0.6511796964658376,-8.85595783689519e-05,-0.21549709200291078
662,0.6522,0.00972302,954.139,0.0119298,0.0318464,0.043722,0.00785542,-0.257271,0.502096,-0.243,5.37717e-05,0.000139802,-8.85184e-05,0.516108,-0.22684134062457906,5.3773145723745586e-05,0.0001398117727549053,0.6521806146094622,-8.85144823620232e-05,-0.21572848622844354
663,0.6532,0.00970465,954.356,0.0119078,0.0318634,0.0436809,0.00787687,-0.257581,0.502701,-0.243294,5.38241e-05,0.000139909,-8.84733e-05,0.516735,-0.2270809826625504,5.382554854294064e-05,0.0001399187877206831,0.6531804863119928,-8.846938635298507e-05,-0.2159590281621675
664,0.6542,0.00968633,954.573,0.0118858,0.0318806,0.0436398,0.00789815,-0.257892,0.503305,-0.243588,5.38765e-05,0.000140015,-8.84281e-05,0.517361,-0.22732132310206676,5.3877951364800225e-05,0.0001400248025575923,0.6541793089397934,-8.842419035082205e-05,-0.21618950232652556
665,0.6552,0.00966805,954.789,0.011864,0.0318978,0.0435987,0.00791926,-0.258201,0.50391,-0.243882,5.39288e-05,0.000140122,-8.83829e-05,0.517987,-0.22756004392896112,5.393025418376496e-05,0.00014013181754601867,0.6551803902182536,-8.837899434654961e-05,-0.21641990874143902
666,0.6562,0.00964982,955.005,0.0118421,0.0319151,0.0435578,0.0079402,-0.258511,0.504514,-0.244176,5.39812e-05,0.000140228,-8.83376e-05,0.518612,-0.22779946320343814,5.398265701117566e-05,0.0001402378324055764,0.6561804211528854,-8.833369834915228e-05,-0.21665024742682315
667,0.6572,0.00963164,955.221,0.0118204,0.0319324,0.0435169,0.00796096,-0.258821,0.505117,-0.24447,5.40335e-05,0.000140334,-8.82923e-05,0.519237,-0.22803880826944312,5.4034959835913554e-05,0.00014034384727645843,0.6571793991084245,-8.828840234964552e-05,-0.2168805184025876
668,0.6582,0.0096135,955.436,0.0117987,0.0319498,0.0434761,0.00798156,-0.25913,0.505721,-0.244763,5.40858e-05,0.00014044,-8.8247e-05,0.519862,-0.22827730742767027,5.408726266331598e-05,0.00014044986215844268,0.6581806378091344,-8.824310634802934e-05,-0.21710993879896623
669,0.6592,0.00959541,955.651,0.011777,0.0319673,0.0434354,0.00800198,-0.259439,0.506323,-0.245056,5.41381e-05,0.000140546,-8.82016e-05,0.520486,-0.22851573290104232,5.4139565493382946e-05,0.0001405558770517512,0.659179163079046,-8.819771035328827e-05,-0.21733929198501556
670,0.6602,0.00957737,955.866,0.0117554,0.0319849,0.0433948,0.00802223,-0.259748,0.506926,-0.245349,5.41904e-05,0.000140651,-8.81562e-05,0.52111,-0.2287540847123246,5.419186832633649e-05,0.00014066089181574704,0.6601799498212608,-8.815231435643778e-05,-0.21756857798042528
671,0.6612,0.00955937,956.08,0.0117338,0.0320025,0.0433542,0.00804231,-0.260057,0.507528,-0.245642,5.42427e-05,0.000140756,-8.81107e-05,0.521734,-0.22899236288427505,5.424417116195457e-05,0.00014076590659062305,0.6611796790393558,-8.810681836624035e-05,-0.21779779680487943
672,0.6622,0.00954141,956.294,0.0117123,0.0320202,0.0433137,0.00806222,-0.260366,0.50813,-0.245935,5.4295e-05,0.000140862,-8.80652e-05,0.522357,-0.22923056743964465,5.429647400023718e-05,0.0001408719215174603,0.6621800102756292,-8.806132237415554e-05,-0.21802694847805604
673,0.6632,0.00952351,956.508,0.0116909,0.0320379,0.0432733,0.00808195,-0.260674,0.508731,-0.246228,5.43472e-05,0.000140967,-8.80196e-05,0.52298,-0.22946792786949066,5.434867683584699e-05,0.00014097693631454078,0.6631792807124932,-8.801572638861277e-05,-0.21825603301962782
674,0.6642,0.00950564,956.721,0.0116695,0.0320557,0.043233,0.00810152,-0.260983,0.509332,-0.24652,5.43995e-05,0.000141071,-8.79741e-05,0.523602,-0.22970598549798116,5.4400979679680717e-05,0.00014108095098142037,0.6641791518913944,-8.797023039230911e-05,-0.2184842689339208
675,0.6652,0.00948783,956.934,0.0116481,0.0320736,0.0431927,0.00812091,-0.261291,0.509933,-0.246812,5.44517e-05,0.000141176,-8.79284e-05,0.524224,-0.2299431995216129,5.445318252061959e-05,0.00014118596580048326,0.6651796241734875,-8.792453441153203e-05,-0.2187124382130562
676,0.6662,0.00947005,957.147,0.0116269,0.0320916,0.0431525,0.00814013,-0.261599,0.510534,-0.247104,5.4504e-05,0.00014128,-8.78828e-05,0.524846,-0.2301803404945758,5.4505485370004436e-05,0.00014128998048912322,0.6661806979201443,-8.787893841988303e-05,-0.2189405408764884
677,0.6672,0.00945233,957.359,0.0116056,0.0321096,0.0431124,0.00815918,-0.261906,0.511133,-0.247396,5.45562e-05,0.000141384,-8.78371e-05,0.525467,-0.23041663885638952,5.4557688216494427e-05,0.00014139399518886542,0.6671790391315406,-8.78332424348871e-05,-0.21916857694366632
678,0.6682,0.00943464,957.571,0.0115844,0.0321277,0.0430724,0.00817806,-0.262214,0.511733,-0.247688,5.46084e-05,0.000141488,-8.77914e-05,0.526088,-0.23065363403249106,5.4609891065871e-05,0.00014149800989926575,0.6681796467072743,-8.778754644778175e-05,-0.2193965464340334
679,0.6692,0.009417,957.783,0.0115633,0.0321458,0.0430325,0.00819676,-0.262521,0.512332,-0.247979,5.46606e-05,0.000141592,-8.77456e-05,0.526709,-0.23088978711549002,5.46620939179121e-05,0.00014160202462032423,0.6691791856476783,-8.774175046744048e-05,-0.21962366899108632
680,0.6702,0.00939941,957.994,0.0115422,0.0321641,0.0429926,0.0082153,-0.262828,0.512931,-0.248271,5.47128e-05,0.000141696,-8.76998e-05,0.527329,-0.23112586771062005,5.471429677261774e-05,0.00014170603935248494,0.6701793234912612,-8.769595448498979e-05,-0.21985150561397515
681,0.6712,0.00938186,958.205,0.0115212,0.0321824,0.0429528,0.00823366,-0.263135,0.51353,-0.248562,5.4765e-05,0.000141799,-8.7654e-05,0.527949,-0.23136187584013135,5.476649962998792e-05,0.00014180905395333454,0.6711800605968734,-8.765015850042968e-05,-0.22007849579716798
682,0.6722,0.00936435,958.416,0.0115002,0.0322007,0.0429131,0.00825185,-0.263442,0.514128,-0.248853,5.48172e-05,0.000141903,-8.76081e-05,0.528568,-0.23159781152626757,5.4818702490244675e-05,0.00014191306870703357,0.6721797251430193,-8.760426252252262e-05,-0.22030541993582753
683,0.6732,0.00934689,958.627,0.0114793,0.0322192,0.0428734,0.00826987,-0.263749,0.514726,-0.249144,5.48694e-05,0.000142006,-8.75622e-05,0.529187,-0.23183367479126538,5.4870905353165966e-05,0.00014201608332919946,0.6731799876673414,-8.755836654250615e-05,-0.22053227804916975
684,0.6742,0.00932948,958.837,0.0114584,0.0322377,0.0428338,0.00828771,-0.264055,0.515323,-0.249435,5.49215e-05,0.000142109,-8.75163e-05,0.529806,-0.23206869772643623,5.4923008213192404e-05,0.00014211909796224553,0.6741791743475263,-8.751247056038025e-05,-0.2207590701564055
685,0.6752,0.0093121,959.046,0.0114376,0.0322563,0.0427943,0.00830539,-0.264361,0.515921,-0.249725,5.49737e-05,0.000142212,-8.74703e-05,0.530424,-0.23230364875559117,5.4975211081442765e-05,0.00014222211260594975,0.6751806329000494,-8.74664745847964e-05,-0.22098501726214625
686,0.6762,0.00929477,959.256,0.0114168,0.032275,0.0427549,0.00832289,-0.264667,0.516517,-0.250015,5.50258e-05,0.000142314,-8.74243e-05,0.531042,-0.23253852790073004,5.502731394702032e-05,0.00014232412711767672,0.676179338141857,-8.742047860721414e-05,-0.2212108988527265
687,0.6772,0.00927749,959.465,0.0113961,0.0322937,0.0427156,0.00834023,-0.264973,0.517114,-0.250306,5.5078e-05,0.000142416,-8.73783e-05,0.53166,-0.2327733351838459,5.5079516820821794e-05,0.00014242614164006184,0.6771803159688792,-8.737448262752245e-05,-0.22143749351003872
688,0.6782,0.00926024,959.674,0.0113754,0.0323125,0.0426763,0.00835739,-0.265279,0.51771,-0.250595,5.51301e-05,0.000142519,-8.73323e-05,0.532277,-0.2330080706269252,5.513161969195046e-05,0.00014252915631507435,0.678180213377026,-8.732848664572135e-05,-0.22166246556438673
689,0.6792,0.00924304,959.882,0.0113548,0.0323314,0.0426371,0.00837437,-0.265584,0.518305,-0.250885,5.51822e-05,0.000142621,-8.72862e-05,0.532894,-0.23324196749429849,5.518372256552162e-05,0.00014263117085833166,0.6791790277217857,-8.728239067046228e-05,-0.22188815072344326
690,0.6802,0.00922588,960.09,0.0113342,0.0323504,0.0425979,0.00839119,-0.26589,0.518901,-0.251175,5.52344e-05,0.000142723,-8.72401e-05,0.533511,-0.23347655955782898,5.523592544753875e-05,0.00014273318541202507,0.680180116717195,-8.72362946930938e-05,-0.22211377044329284
691,0.6812,0.00920877,960.298,0.0113137,0.0323694,0.0425589,0.00840783,-0.266195,0.519496,-0.251464,5.52865e-05,0.000142824,-8.7194e-05,0.534127,-0.23371031355786676,5.528802832666102e-05,0.0001428341998330751,0.6811801213585202,-8.719019871361589e-05,-0.22233854708184608
692,0.6822,0.0091917,960.506,0.0112933,0.0323885,0.0425199,0.00842431,-0.2665,0.52009,-0.251754,5.53386e-05,0.000142926,-8.71478e-05,0.534743,-0.2339439962738059,5.5340131208669874e-05,0.00014293621440741866,0.6821790389997757,-8.714400274079104e-05,-0.222564036205689
693,0.6832,0.00917467,960.713,0.0112728,0.0324077,0.042481,0.00844061,-0.266805,0.520685,-0.252043,5.53907e-05,0.000143027,-8.71016e-05,0.535358,-0.23417760772738483,5.539223409312122e-05,0.00014303722884911885,0.6831802333537633,-8.709780676574574e-05,-0.22278868273623842
694,0.6842,0.00915768,960.92,0.0112525,0.0324269,0.0424421,0.00845674,-0.267109,0.521279,-0.252332,5.54428e-05,0.000143128,-8.70554e-05,0.535973,-0.23441038235110012,5.544433698045914e-05,0.00014313824330081104,0.6841803394144697,-8.705161078859103e-05,-0.2230132643533208
695,0.6852,0.00914074,961.126,0.0112321,0.0324463,0.0424034,0.0084727,-0.267414,0.521872,-0.252621,5.54949e-05,0.000143229,-8.70091e-05,0.536588,-0.234643851578616,5.54964398704616e-05,0.00014323925776293933,0.6851793545344502,-8.700531481808937e-05,-0.2232377810756937
696,0.6862,0.00912384,961.332,0.0112119,0.0324657,0.0423647,0.00848848,-0.267718,0.522466,-0.252909,5.5547e-05,0.00014333,-8.69629e-05,0.537202,-0.2348764844857426,5.5548542763128594e-05,0.00014334027223528167,0.6861806484258883,-8.695911883660479e-05,-0.22346145638395343
697,0.6872,0.00910698,961.538,0.0111916,0.0324852,0.042326,0.0085041,-0.268022,0.523058,-0.253198,5.5599e-05,0.000143431,-8.69166e-05,0.537816,-0.23510904668321386,5.560054565312278e-05,0.00014344128671761602,0.6871791629008792,-8.691282286177326e-05,-0.2236858435975443
698,0.6882,0.00909016,961.744,0.0111715,0.0325048,0.0422875,0.00851954,-0.268326,0.523651,-0.253486,5.56511e-05,0.000143531,-8.68703e-05,0.53843,-0.23534153819252235,5.5652648551118844e-05,0.00014354130106686291,0.688179956850558,-8.68665268847213e-05,-0.22390938988237807
699,0.6892,0.00907339,961.949,0.0111514,0.0325244,0.042249,0.00853481,-0.268629,0.524243,-0.253774,5.57032e-05,0.000143631,-8.68239e-05,0.539043,-0.2355731946087306,5.570475145200149e-05,0.00014364131542587977,0.6891796552665481,-8.682013091432239e-05,-0.22413287179515184
700,0.6902,0.00905665,962.154,0.0111313,0.0325442,0.0422106,0.00854991,-0.268933,0.524835,-0.254062,5.57552e-05,0.000143731,-8.67776e-05,0.539656,-0.2358055450385148,5.575675434998928e-05,0.00014374132979511067,0.6901799456792144,-8.677383493294055e-05,-0.224356289354402
701,0.6912,0.00903996,962.359,0.0111113,0.032564,0.0421722,0.00856485,-0.269236,0.525426,-0.25435,5.58073e-05,0.000143831,-8.67312e-05,0.540268,-0.23603706088194654,5.580885725642304e-05,0.00014384134417411154,0.6911791372591394,-8.672743895821178e-05,-0.2245796425786598
702,0.6922,0.00899727,962.563,0.0110653,0.0325844,0.0421341,0.00858011,-0.269539,0.526018,-0.254637,5.58594e-05,0.000143931,-8.66848e-05,0.540881,-0.23626850658670429,5.586096016529929e-05,0.00014394135856332646,0.6921806117155875,-8.668104298126256e-05,-0.22480215628899503
703,0.6932,0.00891073,962.767,0.0109788,0.0326006,0.042101,0.00860023,-0.269842,0.526608,-0.254925,5.59113e-05,0.000144031,-8.66382e-05,0.541492,-0.23649988217403695,5.591286306594334e-05,0.0001440413729625334,0.6931792928584668,-8.663444701950684e-05,-0.22502538112206483
704,0.6942,0.00897262,962.971,0.0110397,0.0326173,0.042069,0.00861933,-0.270145,0.527199,-0.255212,5.59633e-05,0.00014413,-8.65917e-05,0.542104,-0.23673118766518664,5.596486597458927e-05,0.00014414038722754263,0.6941802575764855,-8.658795104699024e-05,-0.22524776692379378
705,0.6952,0.00895851,963.175,0.0110117,0.0326485,0.0420161,0.00861895,-0.270448,0.527789,-0.255499,5.60155e-05,0.000144229,-8.65454e-05,0.542715,-0.23696242308138937,5.601706889746261e-05,0.00014423940150232184,0.6951801188585294,-8.654165505495026e-05,-0.22547008890995557
706,0.6962,0.00896325,963.378,0.0110226,0.0326611,0.0419829,0.00863941,-0.27075,0.528379,-0.255786,5.60674e-05,0.000144328,-8.64989e-05,0.543326,-0.23719282563708177,5.6068971806100265e-05,0.000144338415786871,0.6961805702327901,-8.649515907799277e-05,-0.22569234709886277
707,0.6972,0.00893493,963.581,0.0109822,0.032687,0.0419417,0.00864793,-0.271052,0.528968,-0.256073,5.61196e-05,0.000144427,-8.64524e-05,0.543936,-0.23742315862170804,5.612117473430267e-05,0.00014443743008119014,0.6971799148667606,-8.644866309892585e-05,-0.2259145415088224
708,0.6982,0.00892843,963.783,0.0109801,0.032703,0.0419071,0.00866672,-0.271354,0.529557,-0.256359,5.61715e-05,0.000144526,-8.64058e-05,0.544546,-0.2376534220562756,5.61730776482694e-05,0.00014453644438550128,0.6981798482881016,-8.640206712640097e-05,-0.2261358982944217
709,0.6992,0.0089045,963.986,0.0109463,0.032727,0.041867,0.00867627,-0.271656,0.530146,-0.256646,5.62236e-05,0.000144625,-8.63593e-05,0.545156,-0.2378836159617853,5.6225180576241485e-05,0.0001446354586995824,0.6991803708437108,-8.635557114300418e-05,-0.22635796542345388
710,0.7002,0.00889424,964.188,0.0109384,0.0327446,0.0418311,0.00869291,-0.271958,0.530734,-0.256932,5.62756e-05,0.000144723,-8.63127e-05,0.545765,-0.23811374035923183,5.627718350131872e-05,0.00014473347287857763,0.7001797827000575,-8.630897516603842e-05,-0.22657919540794702
711,0.7012,0.00887316,964.389,0.0109094,0.0327675,0.041792,0.00870343,-0.27226,0.531322,-0.257218,5.63276e-05,0.000144821,-8.62662e-05,0.546374,-0.23834379526960336,5.6329186429060485e-05,0.00014483148706734283,0.7011797823833801,-8.626247917831176e-05,-0.22680036212971155
712,0.7022,0.00886076,964.591,0.0108976,0.0327864,0.0417556,0.00871864,-0.272561,0.53191,-0.257504,5.63796e-05,0.000144919,-8.62195e-05,0.546983,-0.23857301928728192,5.638118935946679e-05,0.00014492950126565596,0.7021803702394223,-8.62157832057786e-05,-0.2270214656068381
713,0.7032,0.00884147,964.792,0.0108719,0.0328087,0.0417172,0.00872972,-0.272862,0.532497,-0.25779,5.64317e-05,0.000145017,-8.6173e-05,0.547591,-0.23880217431891404,5.643329229831906e-05,0.000145027515473517,0.7031798434334362,-8.616928721372208e-05,-0.22724250585741212
714,0.7042,0.00882779,964.993,0.0108575,0.0328283,0.0416805,0.00874384,-0.273163,0.533084,-0.258075,5.64837e-05,0.000145115,-8.61263e-05,0.548199,-0.23903126038526146,5.648529523427648e-05,0.00014512552969092596,0.7041799034904426,-8.612259123674804e-05,-0.22746271036261023
715,0.7052,0.00880967,965.193,0.0108341,0.0328502,0.0416425,0.00875518,-0.273464,0.533671,-0.258361,5.65357e-05,0.000145212,-8.60797e-05,0.548806,-0.23926027750707957,5.653729817289843e-05,0.00014522254377280497,0.705180550755031,-8.607599524890208e-05,-0.22768362443522827
716,0.7062,0.00879519,965.393,0.0108181,0.0328705,0.0416057,0.00876846,-0.273765,0.534257,-0.258646,5.65877e-05,0.00014531,-8.6033e-05,0.549413,-0.23948922570511755,5.658930111418492e-05,0.0001453205580095318,0.7061800793910609,-8.602929926759817e-05,-0.227903703239545
717,0.7072,0.00877785,965.593,0.0107962,0.0328922,0.041568,0.00877987,-0.274065,0.534843,-0.258931,5.66397e-05,0.000145407,-8.59863e-05,0.55002,-0.23971734471784323,5.6641304058135944e-05,0.0001454175721102846,0.7071801939225222,-8.598260328407381e-05,-0.2281237193303396
718,0.7082,0.00876289,965.793,0.0107791,0.0329129,0.0415312,0.00879247,-0.274365,0.535428,-0.259216,5.66917e-05,0.000145504,-8.59396e-05,0.550627,-0.23994539530512937,5.66933070047515e-05,0.00014551458622036328,0.7081791865128095,-8.5935907298329e-05,-0.22834367272548273
719,0.7092,0.00874608,965.992,0.0107582,0.0329347,0.0414938,0.0088038,-0.274665,0.536014,-0.259501,5.67437e-05,0.000145601,-8.58929e-05,0.551233,-0.24017337748750056,5.674530995425364e-05,0.00014561160033998988,0.7091804728643538,-8.588921131047478e-05,-0.22856356344284035
720,0.7102,0.00873083,966.191,0.0107404,0.0329557,0.041457,0.00881585,-0.274965,0.536599,-0.259785,5.67957e-05,0.000145698,-8.58462e-05,0.551838,-0.24040129128547527,5.679731290619827e-05,0.0001457086144691644,0.7101806359601619,-8.58425153204001e-05,-0.2287826202832789
721,0.7112,0.00871439,966.39,0.0107202,0.0329775,0.0414199,0.008827,-0.275265,0.537183,-0.26007,5.68477e-05,0.000145794,-8.57995e-05,0.552444,-0.24062913671956565,5.684931586102948e-05,0.00014580462846169873,0.7111796731420255,-8.5795819328216e-05,-0.2290023859184077
722,0.7122,0.00869899,966.588,0.0107021,0.0329988,0.0413831,0.00883856,-0.275565,0.537767,-0.260354,5.68997e-05,0.00014589,-8.57528e-05,0.553049,-0.24085691381027785,5.6901318818525226e-05,0.00014590064246355894,0.7121792939320006,-8.574912333370044e-05,-0.22922131815095825
723,0.7132,0.00868282,966.786,0.0106824,0.0330206,0.0413462,0.00884948,-0.275864,0.538351,-0.260638,5.69517e-05,0.000145987,-8.5706e-05,0.553653,-0.2410838636623549,5.695332177890755e-05,0.00014599765662071107,0.7131794986710136,-8.570232734572691e-05,-0.2294401882155831
724,0.7142,0.00866733,966.984,0.010664,0.0330422,0.0413095,0.0088606,-0.276163,0.538935,-0.260922,5.70037e-05,0.000146083,-8.56593e-05,0.554258,-0.24131074566656996,5.7005324741732366e-05,0.00014609367064100098,0.7141802877001904,-8.565563134688148e-05,-0.22965899612993534
725,0.7152,0.00865137,967.182,0.0106446,0.0330642,0.0412727,0.00887125,-0.276462,0.539518,-0.261206,5.70557e-05,0.000146179,-8.56125e-05,0.554862,-0.24153755984320646,5.705732770744376e-05,0.00014618968467061677,0.7151799461800519,-8.560883535446706e-05,-0.2298777419116632
726,0.7162,0.00863586,967.379,0.0106262,0.033086,0.0412361,0.00888197,-0.276761,0.540101,-0.261489,5.71077e-05,0.000146274,-8.55657e-05,0.555465,-0.24176430621254186,5.710933067581969e-05,0.0001462846985631483,0.716180187630727,-8.556203935994322e-05,-0.23009565567445045
727,0.7172,0.00862006,967.576,0.010607,0.0331081,0.0411995,0.00889232,-0.27706,0.540683,-0.261773,5.71597e-05,0.00014637,-8.55189e-05,0.556069,-0.24199098479484749,5.716133364686016e-05,0.00014638071261119379,0.7171792952120324,-8.551524336308791e-05,-0.23031427746247557
728,0.7182,0.00860456,967.773,0.0105885,0.0331301,0.0411631,0.00890265,-0.277359,0.541265,-0.262056,5.72117e-05,0.000146465,-8.54722e-05,0.556672,-0.2422175956103887,5.721333662056516e-05,0.00014647572652171092,0.7181789844431936,-8.546854735558274e-05,-0.23053206770318102
729,0.7192,0.00858888,967.969,0.0105696,0.0331523,0.0411266,0.00891269,-0.277657,0.541847,-0.262339,5.72637e-05,0.000146561,-8.54254e-05,0.557274,-0.24244338112318442,5.7265339596934695e-05,0.00014657174058796407,0.7191792556628298,-8.542175135439756e-05,-0.23074979631796888
730,0.7202,0.00857341,968.165,0.0105511,0.0331746,0.0410903,0.00892265,-0.277955,0.542429,-0.262622,5.73157e-05,0.000146656,-8.53785e-05,0.557876,-0.24266909936192183,5.731734257619081e-05,0.0001466667545169109,0.7201801092097568,-8.53748553596434e-05,-0.23096746332427687
731,0.7212,0.00855785,968.361,0.0105323,0.033197,0.0410539,0.00893236,-0.278253,0.54301,-0.262905,5.73677e-05,0.000146751,-8.53317e-05,0.558478,-0.24289475034664532,5.736934555788942e-05,0.00014676176845473954,0.7211798242423024,-8.532805935401733e-05,-0.23118506873953748
732,0.7222,0.00854243,968.556,0.0105138,0.0332194,0.0410177,0.00894196,-0.278551,0.543591,-0.263187,5.74197e-05,0.000146845,-8.52849e-05,0.55908,-0.24312033409739375,5.7421348542474604e-05,0.00014685578225481777,0.7221801202780473,-8.528126334628183e-05,-0.23140184398340702
733,0.7232,0.00852696,968.752,0.0104952,0.033242,0.0409815,0.00895133,-0.278849,0.544171,-0.26347,5.74717e-05,0.00014694,-8.52381e-05,0.559681,-0.2433458506341999,5.7473351529724326e-05,0.000146950796210632,0.7231792744745158,-8.523446733632589e-05,-0.231619326486334
734,0.7242,0.0085116,968.947,0.0104768,0.0332646,0.0409454,0.00896057,-0.279146,0.544751,-0.263752,5.75237e-05,0.000147034,-8.51912e-05,0.560282,-0.2435705435480121,5.752535451986063e-05,0.0001470448100284738,0.7241790083485087,-8.518757133280097e-05,-0.23183597928678423
735,0.7252,0.00849622,969.141,0.0104583,0.0332874,0.0409093,0.00896961,-0.279443,0.545331,-0.264034,5.75757e-05,0.000147129,-8.51444e-05,0.560882,-0.24379516973793802,5.757735751243942e-05,0.0001471398240020516,0.7251793222363361,-8.514077531840414e-05,-0.2320525709997585
736,0.7262,0.00848092,969.336,0.0104399,0.0333102,0.0408734,0.00897849,-0.279741,0.545911,-0.264316,5.76278e-05,0.000147223,-8.50976e-05,0.561482,-0.24402048520368425,5.762946051346418e-05,0.00014723383783765698,0.7261802164745039,-8.509397930189788e-05,-0.23226910164248094
737,0.7272,0.00846563,969.53,0.0104215,0.0333331,0.0408374,0.00898719,-0.280038,0.54649,-0.264598,5.76798e-05,0.000147317,-8.50507e-05,0.562082,-0.24424497778078091,5.768146351159409e-05,0.00014732785168214413,0.727179964218885,-8.504708329171162e-05,-0.23248557123217106
738,0.7282,0.0084504,969.724,0.0104032,0.0333562,0.0408016,0.00899572,-0.280334,0.547069,-0.26488,5.77318e-05,0.000147411,-8.50039e-05,0.562682,-0.24446864816250824,5.773346651238853e-05,0.00014742186553529102,0.7281802909848205,-8.50002872708755e-05,-0.23270197978604346
739,0.7292,0.00843518,969.917,0.0103849,0.0333793,0.0407658,0.00900407,-0.280631,0.547647,-0.265161,5.77838e-05,0.000147504,-8.4957e-05,0.563281,-0.24469300765497015,5.778546951584751e-05,0.00014751487925002138,0.7291794679273287,-8.495339125624835e-05,-0.23291756023925125
740,0.7302,0.00842002,970.111,0.0103667,0.0334025,0.0407301,0.00901225,-0.280927,0.548225,-0.265442,5.78358e-05,0.000147598,-8.49102e-05,0.563879,-0.24491654543947994,5.783747252219307e-05,0.0001476088931207098,0.7301792225610462,-8.490659523097133e-05,-0.23313308012286227
741,0.7312,0.00840488,970.304,0.0103484,0.0334258,0.0406944,0.00902026,-0.281224,0.548803,-0.265724,5.78879e-05,0.000147691,-8.48633e-05,0.564478,-0.24514077192620298,5.788957553676255e-05,0.00014770190685275963,0.7311795552199756,-8.48596992120143e-05,-0.2333493061049713
742,0.7322,0.00838979,970.497,0.0103303,0.0334492,0.0406588,0.00902809,-0.28152,0.549381,-0.266005,5.79399e-05,0.000147784,-8.48165e-05,0.565076,-0.24536417719210224,5.794157854843718e-05,0.00014779492059324717,0.7321804662383111,-8.481290318240742e-05,-0.23356470468503787
743,0.7332,0.00837472,970.689,0.0103122,0.0334727,0.0406233,0.00903575,-0.281816,0.549958,-0.266285,5.79919e-05,0.000147877,-8.47696e-05,0.565674,-0.2455875163398289,5.799358156277634e-05,0.0001478879343426165,0.7331802227693525,-8.47660071590095e-05,-0.2337792765262664
744,0.7342,0.0083597,970.881,0.0102941,0.0334963,0.0405878,0.00904323,-0.282112,0.550535,-0.266566,5.8044e-05,0.00014797,-8.47228e-05,0.566271,-0.24581078938895085,5.8045684585561474e-05,0.0001479809481004235,0.7341805563263684,-8.471921112496172e-05,-0.23399455430161864
745,0.7352,0.00834471,971.073,0.0102761,0.03352,0.0405524,0.00905054,-0.282407,0.551111,-0.266847,5.8096e-05,0.000148063,-8.46759e-05,0.566868,-0.2460332423926498,5.809768760522971e-05,0.00014807396186689026,0.735179732061799,-8.467231509712292e-05,-0.2342097715924143
746,0.7362,0.00832976,971.265,0.0102581,0.0335438,0.040517,0.00905767,-0.282703,0.551687,-0.267127,5.81481e-05,0.000148156,-8.46291e-05,0.567465,-0.24625638352638457,5.8149790633565956e-05,0.0001481669756422388,0.7361794834882363,-8.462551905874527e-05,-0.23442416284019307
747,0.7372,0.00831485,971.456,0.0102402,0.0335677,0.0404817,0.00906463,-0.282998,0.552263,-0.267407,5.82001e-05,0.000148248,-8.45822e-05,0.568061,-0.2464787050992,5.8201793658785306e-05,0.00014825898927783854,0.7371798109373737,-8.45786230265766e-05,-0.2346384940668258
748,0.7382,0.00829997,971.647,0.0102223,0.0335917,0.0404465,0.00907142,-0.283293,0.552839,-0.267687,5.82522e-05,0.00014834,-8.45354e-05,0.568657,-0.24670096109682427,5.8253896692450624e-05,0.00014835100292187597,0.7381807147410961,-8.453182698375805e-05,-0.23485276528911603
749,0.7392,0.00828512,971.838,0.0102044,0.0336158,0.0404113,0.00907803,-0.283588,0.553414,-0.267967,5.83042e-05,0.000148432,-8.44885e-05,0.569253,-0.24692315153859923,5.8305899722999044e-05,0.0001484430165743511,0.7391804560501536,-8.448493094714848e-05,-0.23506697652386277
750,0.7402,0.00827031,972.029,0.0101866,0.03364,0.0403762,0.00908446,-0.283883,0.553988,-0.268247,5.83563e-05,0.000148524,-8.44417e-05,0.569848,-0.24714527644386086,5.835800276199343e-05,0.00014853503023526393,0.740179032195863,-8.443813490000007e-05,-0.23528112778785992
751,0.7412,0.00825554,972.219,0.0101688,0.0336643,0.0403412,0.00909072,-0.284177,0.554563,-0.268526,5.84084e-05,0.000148616,-8.43948e-05,0.570443,-0.24736658319889937,5.84101058038744e-05,0.0001486270439048365,0.7411799228678673,-8.439123885906064e-05,-0.2354944545927341
752,0.7422,0.0082408,972.409,0.0101511,0.0336887,0.0403062,0.00909681,-0.284472,0.555137,-0.268806,5.84605e-05,0.000148708,-8.4348e-05,0.571038,-0.24758857731111417,5.8462208848419905e-05,0.00014871905758284676,0.7421796470369812,-8.434444280747133e-05,-0.23570848617962759
753,0.7432,0.0082261,972.599,0.0101334,0.0337132,0.0402713,0.00910272,-0.284766,0.555711,-0.269085,5.85125e-05,0.000148799,-8.43012e-05,0.571632,-0.24780975375485437,5.8514211889626466e-05,0.00014881007112022004,0.7431799452124921,-8.429764675366158e-05,-0.23592169376814187
754,0.7442,0.00821143,972.788,0.0101157,0.0337378,0.0402364,0.00910846,-0.28506,0.556284,-0.269364,5.85646e-05,0.000148891,-8.42544e-05,0.572226,-0.2480308651822779,5.8566314939723085e-05,0.0001489020848151057,0.744179073544029,-8.425085069774241e-05,-0.2361348418800363
755,0.7452,0.0081968,972.978,0.0100981,0.0337625,0.0402016,0.00911401,-0.285354,0.556858,-0.269643,5.86167e-05,0.000148982,-8.42075e-05,0.57282,-0.24825191161249693,5.8618417992262195e-05,0.00014899309836935437,0.7451805197197998,-8.420395464803221e-05,-0.23634793053190262
756,0.7462,0.00818221,973.167,0.0100806,0.0337873,0.0401669,0.0091194,-0.285648,0.55743,-0.269922,5.86688e-05,0.000149073,-8.41607e-05,0.573413,-0.24847289306461762,5.8670521047687885e-05,0.0001490841119318187,0.7461790485290938,-8.415715858767214e-05,-0.23656095974032776
757,0.7472,0.00816764,973.355,0.010063,0.0338122,0.0401322,0.00912461,-0.285941,0.558003,-0.2702,5.8721e-05,0.000149164,-8.41139e-05,0.574006,-0.24869305825117483,5.872272411155954e-05,0.00014917512550272072,0.7471798958392715,-8.411036252509163e-05,-0.2367731662954421
758,0.7482,0.00815312,973.544,0.0100456,0.0338372,0.0400976,0.00912964,-0.286235,0.558575,-0.270479,5.87731e-05,0.000149255,-8.40671e-05,0.574598,-0.24891391002524743,5.877482717253635e-05,0.00014926613908161634,0.7481795686188499,-8.40635664604017e-05,-0.23698607687963813
759,0.7492,0.00813862,973.732,0.0100281,0.0338623,0.0400631,0.0091345,-0.286528,0.559147,-0.270757,5.88252e-05,0.000149345,-8.40203e-05,0.575191,-0.24913394601276362,5.8826930235955643e-05,0.00014935615251965295,0.749179813374828,-8.401677039349131e-05,-0.2371981652686136
760,0.7502,0.00812417,973.92,0.0100107,0.0338875,0.0400286,0.00913918,-0.286821,0.559719,-0.271035,5.88773e-05,0.000149436,-8.39736e-05,0.575783,-0.24935391753917957,5.887903330226152e-05,0.00014944716611520192,0.75018063043447,-8.397007431593106e-05,-0.23741019470521163
761,0.7512,0.00810974,974.107,0.00999335,0.0339128,0.0399941,0.00914369,-0.287114,0.56029,-0.271313,5.89295e-05,0.000149526,-8.39268e-05,0.576374,-0.24957382462337951,5.893123637701336e-05,0.0001495371795694478,0.7511802689440823,-8.392327824469081e-05,-0.2376221652058189
762,0.7522,0.00809535,974.295,0.00997603,0.0339382,0.0399598,0.00914802,-0.287406,0.560861,-0.271591,5.89816e-05,0.000149616,-8.388e-05,0.576965,-0.24979291707753448,5.898333944887035e-05,0.0001496271930319093,0.7521804784102764,-8.38764821711191e-05,-0.23783407678681712
763,0.7532,0.008081,974.482,0.00995875,0.0339638,0.0399254,0.00915217,-0.287699,0.561431,-0.271868,5.90338e-05,0.000149706,-8.38333e-05,0.577556,-0.25001269555371164,5.903554252895127e-05,0.00014971720650236442,0.7531795059787785,-8.382978608711955e-05,-0.23804516751013227
764,0.7542,0.00806668,974.669,0.0099415,0.0339894,0.0398912,0.00915615,-0.287991,0.562001,-0.272146,5.90859e-05,0.000149796,-8.37865e-05,0.578147,-0.25023165987626306,5.908764560613733e-05,0.0001498072199810352,0.7541791031553176,-8.378299000921796e-05,-0.23825696151283404
765,0.7552,0.00805239,974.855,0.0099243,0.0340152,0.039857,0.00915995,-0.288284,0.562571,-0.272423,5.91381e-05,0.000149886,-8.37398e-05,0.578737,-0.25045130981963126,5.9139848691991403e-05,0.00014989723346769956,0.7551792702646627,-8.373629392077753e-05,-0.23846793511330233
766,0.7562,0.00803814,975.042,0.00990714,0.034041,0.0398229,0.00916358,-0.288576,0.563141,-0.2727,5.91903e-05,0.000149975,-8.36931e-05,0.579327,-0.2506701460855142,5.919205178028797e-05,0.00014998624681261674,0.7561800076317682,-8.368959783022767e-05,-0.2386788502821764
767,0.7572,0.00802392,975.228,0.00989002,0.034067,0.0397888,0.00916703,-0.288868,0.56371,-0.272977,5.92425e-05,0.000150065,-8.36464e-05,0.579917,-0.25088891846053607,5.9244254871471114e-05,0.00015007626031526833,0.7571795584013368,-8.364290173745736e-05,-0.23888970703563972
768,0.7582,0.00800974,975.414,0.00987293,0.034093,0.0397548,0.0091703,-0.289159,0.564279,-0.273254,5.92947e-05,0.000150154,-8.35997e-05,0.580506,-0.2511068780706027,5.929645796554084e-05,0.00015016527367617272,0.7581796780771315,-8.359620564246661e-05,-0.23910050538987082
769,0.7592,0.00799559,975.599,0.00985589,0.0341192,0.0397208,0.0091734,-0.289451,0.564848,-0.273531,5.93469e-05,0.000150243,-8.3553e-05,0.581095,-0.25132552293850186,5.9348661062053054e-05,0.00015025428704484867,0.7591803669829524,-8.354950954525542e-05,-0.23931124536104442
770,0.7602,0.00798147,975.784,0.00983889,0.0341455,0.0396869,0.00917632,-0.289742,0.565416,-0.273807,5.93991e-05,0.000150332,-8.35063e-05,0.581683,-0.2515433555151496,5.940086416145185e-05,0.00015034330042129618,0.7601798652620382,-8.35028134459348e-05,-0.23952116648687682
771,0.7612,0.00796738,975.97,0.00982192,0.0341719,0.0396531,0.00917906,-0.290033,0.565984,-0.274084,5.94514e-05,0.000150421,-8.34596e-05,0.582272,-0.25176112471173984,5.945316726951866e-05,0.00015043231380595934,0.7611799314174081,-8.345611734450475e-05,-0.23973178995106337
772,0.7622,0.00795333,976.154,0.009805,0.0341984,0.0396193,0.00918162,-0.290325,0.566552,-0.27436,5.95036e-05,0.00015051,-8.3413e-05,0.582859,-0.25197957856750886,5.9505370374246525e-05,0.00015052132719839406,0.7621805657717071,-8.340952123242484e-05,-0.23994159502260515
773,0.7632,0.00793931,976.339,0.00978811,0.034225,0.0395855,0.00918401,-0.290615,0.567119,-0.274636,5.95559e-05,0.000150598,-8.33664e-05,0.583447,-0.252196473038506,5.955767348786445e-05,0.00015060934044797136,0.7631800054668778,-8.336292511823551e-05,-0.2401513421959376
774,0.7642,0.00792533,976.523,0.00977127,0.0342517,0.0395519,0.00918622,-0.290906,0.567686,-0.274912,5.96081e-05,0.000150687,-8.33198e-05,0.584034,-0.2524140522055476,5.960987659814343e-05,0.00015069835385617125,0.7641800120050402,-8.331632900182573e-05,-0.24036103148703813
775,0.7652,0.00791138,976.707,0.00975446,0.0342786,0.0395183,0.00918826,-0.291197,0.568253,-0.275188,5.96604e-05,0.000150775,-8.32732e-05,0.584621,-0.25263156806626297,5.9662179717090424e-05,0.00015078636712151372,0.7651805857076854,-8.326973288330652e-05,-0.24057066291188034
776,0.7662,0.00789746,976.891,0.00973769,0.0343055,0.0394847,0.00919011,-0.291487,0.568819,-0.275463,5.97127e-05,0.000150863,-8.32266e-05,0.585208,-0.252848273487719,5.9714482838701954e-05,0.00015087438039462775,0.7661799607156436,-8.322313676256687e-05,-0.2407794772662899
777,0.7672,0.00788357,977.075,0.00972096,0.0343326,0.0394512,0.00919179,-0.291777,0.569385,-0.275739,5.9765e-05,0.000150951,-8.318e-05,0.585794,-0.2530649160737143,5.9766785963200064e-05,0.00015096239367551334,0.7671799015299645,-8.31765406397178e-05,-0.2409889932160334
778,0.7682,0.00786972,977.258,0.00970427,0.0343597,0.0394178,0.00919329,-0.292067,0.569951,-0.276014,5.98173e-05,0.000151039,-8.31335e-05,0.58638,-0.2532814958424685,5.981908909036271e-05,0.00015105040696394845,0.7681804084709849,-8.313004450632988e-05,-0.2411976925454259
779,0.7692,0.0078559,977.441,0.00968761,0.034387,0.0393844,0.00919462,-0.292357,0.570516,-0.276289,5.98696e-05,0.000151127,-8.30869e-05,0.586965,-0.2534980128121962,5.987139222018989e-05,0.00015113842026037716,0.769179712678626,-8.308344837915094e-05,-0.24140633449039361
780,0.7702,0.00784211,977.624,0.009671,0.0344144,0.0393511,0.00919576,-0.292647,0.571081,-0.276564,5.99219e-05,0.000151214,-8.30404e-05,0.587551,-0.2537144670011062,5.992369535290365e-05,0.00015122543341328232,0.770179581652676,-8.303695224143315e-05,-0.24161491906671495
781,0.7712,0.00782836,977.806,0.00965442,0.0344419,0.0393178,0.00919673,-0.292937,0.571646,-0.276839,5.99743e-05,0.000151302,-8.29939e-05,0.588136,-0.2539308584274026,5.9976098494285424e-05,0.00015131344672481006,0.7711800157123179,-8.299045610160594e-05,-0.24182344629016428
782,0.7722,0.00781463,977.988,0.00963788,0.0344695,0.0392846,0.00919752,-0.293226,0.57221,-0.277114,6.00266e-05,0.000151389,-8.29475e-05,0.58872,-0.25414644125609787,6.0028401632328254e-05,0.0001514004598930363,0.7721792429967864,-8.294405995123988e-05,-0.24203191617651132
783,0.7732,0.00780094,978.17,0.00962138,0.0344973,0.0392514,0.00919813,-0.293515,0.572774,-0.277388,6.0079e-05,0.000151476,-8.2901e-05,0.589304,-0.25436196179035764,6.008080477926114e-05,0.00015148747306859,0.7731790340043982,-8.28975638070828e-05,-0.24223957098147153
784,0.7742,0.00778728,978.352,0.00960492,0.0345251,0.0392183,0.00919856,-0.293804,0.573338,-0.277663,6.01314e-05,0.000151563,-8.28546e-05,0.589888,-0.2545774200481823,6.013320792885857e-05,0.00015157448625169323,0.7741793890531832,-8.285116765238687e-05,-0.24244792644926172
785,0.7752,0.00777366,978.534,0.00958849,0.0345531,0.0391853,0.00919882,-0.294093,0.573902,-0.277937,6.01838e-05,0.00015165,-8.28082e-05,0.590472,-0.2547928160475673,6.018561108112053e-05,0.00015166149944256802,0.77518030846135,-8.280477149569254e-05,-0.2426554672830219
786,0.7762,0.00776006,978.715,0.0095721,0.0345812,0.0391523,0.00919889,-0.294382,0.574465,-0.278211,6.02362e-05,0.000151737,-8.27618e-05,0.591055,-0.25500814980650266,6.0238014236269066e-05,0.00015174851264077027,0.7761800163663826,-8.275837533666675e-05,-0.24286295125838364
787,0.7772,0.0077465,978.896,0.00955575,0.0346094,0.0391194,0.00919879,-0.294671,0.575028,-0.278485,6.02886e-05,0.000151823,-8.27154e-05,0.591638,-0.25522342134297327,6.029041739408214e-05,0.00015183452569500488,0.7771802872654336,-8.271197917564255e-05,-0.24307037839092394
788,0.7782,0.00773297,979.077,0.00953944,0.0346377,0.0390865,0.00919851,-0.294959,0.57559,-0.278759,6.03411e-05,0.00015191,-8.26691e-05,0.592221,-0.25543788611321716,6.0342920560785274e-05,0.00015192153890830618,0.7781793432953259,-8.26656830040795e-05,-0.24327774869621566
789,0.7792,0.00771947,979.257,0.00952316,0.0346661,0.0390537,0.00919805,-0.295247,0.576153,-0.279032,6.03935e-05,0.000151996,-8.26227e-05,0.592803,-0.25565228912650073,6.039532372414946e-05,0.00015200755197719573,0.7791807401323596,-8.261928683872544e-05,-0.24348430567451118
790,0.7802,0.007706,979.438,0.00950693,0.0346947,0.0390209,0.00919741,-0.295535,0.576714,-0.279306,6.0446e-05,0.000152082,-8.25764e-05,0.593385,-0.2558666304006073,6.044782689618167e-05,0.0001520935650536348,0.780179140552707,-8.257299066294355e-05,-0.24369156257926372
791,0.7812,0.00769256,979.618,0.00949072,0.0347234,0.0389882,0.00919659,-0.295823,0.577276,-0.279579,6.04985e-05,0.000152168,-8.25302e-05,0.593967,-0.25608090995331523,6.050033007110045e-05,0.00015217957813740135,0.7811798824118201,-8.252679447673383e-05,-0.2438980066017884
792,0.7822,0.00767916,979.798,0.00947456,0.0347522,0.0389556,0.00919559,-0.296111,0.577837,-0.279852,6.0551e-05,0.000152254,-8.24839e-05,0.594548,-0.2562951278023977,6.055283324890581e-05,0.00015226559122849537,0.7821794046656312,-8.248049829662207e-05,-0.24410439427278718
793,0.7832,0.00766579,979.977,0.00945843,0.0347811,0.038923,0.00919441,-0.296399,0.578398,-0.280125,6.06035e-05,0.00015234,-8.24377e-05,0.595129,-0.2565092839656229,6.060533642915367e-05,0.0001523516043271389,0.7831794878087412,-8.243430210619351e-05,-0.244310725607642
794,0.7842,0.00765244,980.157,0.00944234,0.0348101,0.0388904,0.00919305,-0.296686,0.578959,-0.280398,6.0656e-05,0.000152425,-8.23915e-05,0.59571,-0.2567226351837605,6.06578396122881e-05,0.00015243661728048252,0.7841801321558977,-8.238810591354451e-05,-0.24451700062173054
795,0.7852,0.00763913,980.336,0.00942629,0.0348393,0.0388579,0.00919151,-0.296973,0.579519,-0.280671,6.07086e-05,0.000152511,-8.23453e-05,0.59629,-0.2569359251788844,6.071044280431259e-05,0.000152522630393781,0.7851795528415788,-8.23419097188971e-05,-0.2447232193304264
796,0.7862,0.00762585,980.515,0.00941027,0.0348685,0.0388255,0.00918979,-0.297261,0.580079,-0.280943,6.07611e-05,0.000152596,-8.22992e-05,0.59687,-0.25714989681903777,6.076294599299814e-05,0.00015260764336177957,0.7861795333595822,-8.229581351371085e-05,-0.24492862667810278
797,0.7872,0.0076126,980.693,0.00939429,0.0348979,0.0387931,0.0091879,-0.297548,0.580639,-0.281216,6.08137e-05,0.000152682,-8.2253e-05,0.59745,-0.2573630642076672,6.081554919057375e-05,0.000152693656489733,0.7871800740235022,-8.224961731473357e-05,-0.24513473302822286
798,0.7882,0.00759938,980.872,0.00937834,0.0349274,0.0387608,0.00918582,-0.297834,0.581198,-0.281488,6.08663e-05,0.000152767,-8.22069e-05,0.598029,-0.25757542800183364,6.086815239081389e-05,0.0001527786694723865,0.7881793869668268,-8.220352110543949e-05,-0.24534002845939473
799,0.7892,0.00758619,981.05,0.00936243,0.0349571,0.0387286,0.00918356,-0.298121,0.581757,-0.28176,6.09189e-05,0.000152852,-8.21609e-05,0.598608,-0.25778847328053733,6.092075559394061e-05,0.00015286368246214543,0.7891792586822488,-8.215752488571759e-05,-0.24554526805780308
800,0.7902,0.00757304,981.228,0.00934656,0.0349868,0.0386963,0.00918112,-0.298407,0.582316,-0.282032,6.09715e-05,0.000152936,-8.21148e-05,0.599187,-0.2580007154251057,6.097335879973187e-05,0.00015294769530616037,0.7901796894822095,-8.211142867209364e-05,-0.2457504518386321
801,0.7912,0.00755991,981.405,0.00933073,0.0350167,0.0386642,0.0091785,-0.298694,0.582875,-0.282304,6.10242e-05,0.000153021,-8.20688e-05,0.599765,-0.2582136386638324,6.1026062014413185e-05,0.0001530327083103522,0.7911806796793244,-8.20654324481529e-05,-0.2459555798170623
802,0.7922,0.00754681,981.583,0.00931493,0.0350467,0.0386321,0.0091757,-0.29898,0.583433,-0.282575,6.10768e-05,0.000153106,-8.20228e-05,0.600343,-0.258425759228488,6.107866522575556e-05,0.00015311772132187151,0.7921804374050501,-8.201943622210273e-05,-0.24615989816854478
803,0.7932,0.00753375,981.76,0.00929916,0.0350769,0.0386,0.00917272,-0.299266,0.583991,-0.282847,6.11295e-05,0.00015319,-8.19769e-05,0.600921,-0.25863781913533646,6.113136844598799e-05,0.00015320173418720273,0.7931807531512602,-8.197353998573575e-05,-0.24636491479271805
804,0.7942,0.00752071,981.937,0.00928343,0.0351071,0.038568,0.00916956,-0.299552,0.584548,-0.283118,6.11822e-05,0.000153274,-8.1931e-05,0.601499,-0.2588498184017236,6.118407166888495e-05,0.00015328574705963938,0.7941798330486864,-8.192764374725936e-05,-0.2465691222294517
805,0.7952,0.00750771,982.114,0.00926774,0.0351375,0.0385361,0.00916621,-0.299838,0.585105,-0.283389,6.12349e-05,0.000153358,-8.18851e-05,0.602076,-0.25906175704499,6.12367748946685e-05,0.00015336975993918145,0.7951794695886263,-8.188174750667354e-05,-0.24677327433346807
806,0.7962,0.00749473,982.29,0.00925208,0.035168,0.0385042,0.00916269,-0.300123,0.585662,-0.28366,6.12877e-05,0.000153442,-8.18392e-05,0.602652,-0.2592728943557363,6.128957812956415e-05,0.00015345377282582895,0.7961796630812159,-8.18358512639783e-05,-0.24697737111976004
807,0.7972,0.00748179,982.466,0.00923646,0.0351986,0.0384723,0.00915898,-0.300408,0.586219,-0.283931,6.13404e-05,0.000153526,-8.17934e-05,0.603229,-0.25948397150092306,6.134228136089881e-05,0.00015353778571935983,0.7971804138367642,-8.179005501107728e-05,-0.24718141260331683
808,0.7982,0.00746887,982.642,0.00922087,0.0352294,0.0384406,0.00915509,-0.300694,0.586775,-0.284202,6.13932e-05,0.00015361,-8.17476e-05,0.603805,-0.25969572880233627,6.139508460112353e-05,0.00015362179862021819,0.7981799239849299,-8.174425875595581e-05,-0.24738539879912336
809,0.7992,0.00745598,982.818,0.00920532,0.0352603,0.0384088,0.00915102,-0.300979,0.587331,-0.284472,6.1446e-05,0.000153694,-8.17018e-05,0.604381,-0.25990668545687634,6.144788784423483e-05,0.00015370581152795992,0.7991799900152587,-8.169846249883594e-05,-0.24758857731111417
810,0.8002,0.00744313,982.994,0.0091898,0.0352913,0.0383771,0.00914677,-0.301264,0.587887,-0.284743,6.14988e-05,0.000153777,-8.16561e-05,0.604956,-0.2601175819973366,6.150069109001066e-05,0.00015378882428884744,0.8001806122369075,-8.165276623139928e-05,-0.2477924531802349
811,0.8012,0.0074303,983.169,0.00917432,0.0353225,0.0383455,0.00914234,-0.301548,0.588442,-0.285013,6.15516e-05,0.00015386,-8.16104e-05,0.605532,-0.26032767876889573,6.155349433867308e-05,0.00015387183705684038,0.8011799897783141,-8.160706996185318e-05,-0.2479955218023786
812,0.8022,0.00741751,983.344,0.00915887,0.0353537,0.0383139,0.00913772,-0.301833,0.588997,-0.285283,6.16045e-05,0.000153944,-8.15647e-05,0.606106,-0.26053845534335807,6.160639759622555e-05,0.00015395584998567635,0.8021799221282009,-8.156137369030869e-05,-0.24819853560339555
813,0.8032,0.00740474,983.519,0.00914346,0.0353851,0.0382824,0.00913292,-0.302117,0.589552,-0.285553,6.16573e-05,0.000154027,-8.15191e-05,0.606681,-0.26074843260385816,6.165920085043908e-05,0.00015403886276743606,0.8031804095945727,-8.15157774084474e-05,-0.24840149459808536
814,0.8042,0.007392,983.694,0.00912809,0.0354167,0.0382509,0.00912794,-0.302402,0.590106,-0.285823,6.17102e-05,0.00015411,-8.14735e-05,0.607255,-0.26095908928056377,6.171210411354267e-05,0.00015412187555607915,0.8041796483050541,-8.14701811245877e-05,-0.24860439880124374
815,0.8052,0.00737929,983.868,0.00911274,0.0354483,0.0382195,0.00912278,-0.302686,0.59066,-0.286093,6.17631e-05,0.000154192,-8.14279e-05,0.607829,-0.26116894709798755,6.176500737953283e-05,0.00015420388819742392,0.8051794407471504,-8.142458483850756e-05,-0.24880724822766254
816,0.8062,0.00736661,984.042,0.00909743,0.0354801,0.0381882,0.00911743,-0.30297,0.591214,-0.286362,6.18161e-05,0.000154275,-8.13824e-05,0.608403,-0.2613787453242534,6.181801065441306e-05,0.00015428690099983378,0.8061797872277146,-8.137908854233267e-05,-0.24900929190179677
817,0.8072,0.00735396,984.216,0.00908216,0.035512,0.0381568,0.0091119,-0.303253,0.591768,-0.286632,6.1869e-05,0.000154358,-8.13369e-05,0.608976,-0.2615877455643978,6.187091392595434e-05,0.000154369913809127,0.807180688053768,-8.133359224404835e-05,-0.2492120320218355
818,0.8082,0.00734134,984.39,0.00906692,0.0355441,0.0381256,0.00910618,-0.303537,0.592321,-0.286901,6.1922e-05,0.00015444,-8.12915e-05,0.609549,-0.261797424868787,6.192391720660773e-05,0.00015445192647067785,0.8081803353512644,-8.128819593555825e-05,-0.24941396682377304
819,0.8092,0.00732875,984.563,0.00905172,0.0355763,0.0380944,0.00910029,-0.30382,0.592874,-0.28717,6.1975e-05,0.000154522,-8.12461e-05,0.610122,-0.2620063066393844,6.197692048992565e-05,0.00015453393913911206,0.8091805356065951,-8.124279962495873e-05,-0.24961584731255437
820,0.8102,0.00731619,984.737,0.00903654,0.0356086,0.0380632,0.00909421,-0.304104,0.593426,-0.287439,6.2028e-05,0.000154605,-8.12007e-05,0.610694,-0.26221586708930644,6.202992377613015e-05,0.00015461695196905545,0.8101794789452463,-8.11974033123608e-05,-0.24981767350278772
821,0.8112,0.00730365,984.91,0.00902141,0.035641,0.0380321,0.00908794,-0.304387,0.593978,-0.287708,6.20811e-05,0.000154687,-8.11554e-05,0.611266,-0.2624246304575103,6.208302707144675e-05,0.00015469896465081234,0.8111789738528392,-8.11521069895571e-05,-0.2500194454090774
822,0.8122,0.00729115,985.082,0.0090063,0.0356736,0.038001,0.00908149,-0.30467,0.59453,-0.287976,6.21341e-05,0.000154768,-8.11101e-05,0.611838,-0.26263333475403994,6.213603036320237e-05,0.00015477997718482683,0.8121790206339246,-8.1106810664755e-05,-0.2502204132668119
823,0.8132,0.00727867,985.255,0.00899123,0.0357063,0.03797,0.00907486,-0.304953,0.595082,-0.288245,6.21872e-05,0.00015485,-8.10648e-05,0.612409,-0.2628419799956103,6.218913366407008e-05,0.00015486198988012845,0.8131796195932199,-8.106151433784348e-05,-0.2504220768506751
824,0.8142,0.00726622,985.427,0.0089762,0.0357392,0.0379391,0.00906805,-0.305235,0.595634,-0.288513,6.22403e-05,0.000154932,-8.10196e-05,0.61298,-0.26304982924912945,6.224223696760234e-05,0.0001549440025820914,0.8141807710356121,-8.10163180008372e-05,-0.25062293681764125
825,0.8152,0.0072538,985.599,0.0089612,0.0357722,0.0379082,0.00906105,-0.305518,0.596185,-0.288781,6.22935e-05,0.000155013,-8.09744e-05,0.613551,-0.2632583566394344,6.229544028046874e-05,0.00015502501513586786,0.8151806600845886,-8.097112166172149e-05,-0.250823742961349
826,0.8162,0.00724141,985.771,0.00894623,0.0358053,0.0378773,0.00905386,-0.3058,0.596735,-0.289049,6.23466e-05,0.000155095,-8.09293e-05,0.614121,-0.2634660884912944,6.234854358955211e-05,0.00015510702785137553,0.8161792840440503,-8.092602531251103e-05,-0.25102449529622095
827,0.8172,0.00722905,985.943,0.00893129,0.0358386,0.0378465,0.00904649,-0.306083,0.597286,-0.289317,6.23998e-05,0.000155176,-8.08842e-05,0.614692,-0.26367449809690124,6.240174690796962e-05,0.00015518804041825263,0.8171802745771253,-8.088092896130217e-05,-0.25122519383667585
828,0.8182,0.00721671,986.115,0.00891639,0.035872,0.0378158,0.00903893,-0.306365,0.597836,-0.289585,6.2453e-05,0.000155257,-8.08391e-05,0.615261,-0.2638821126134152,6.245495022927372e-05,0.00015526905299179106,0.8181799986270553,-8.083583260798388e-05,-0.25142583859712875
829,0.8192,0.0072044,986.286,0.00890152,0.0359055,0.0377851,0.00903119,-0.306647,0.598386,-0.289853,6.25063e-05,0.000155338,-8.07941e-05,0.615831,-0.2640896685908899,6.250825355946787e-05,0.00015535006557176878,0.8191802726764483,-8.079083624457084e-05,-0.2516264295919909
830,0.8202,0.00719212,986.457,0.00888669,0.0359392,0.0377544,0.00902327,-0.306928,0.598935,-0.29012,6.25595e-05,0.000155419,-8.07492e-05,0.6164,-0.2642964303426292,6.256145688632309e-05,0.00015543107815840784,0.820179276847701,-8.074593987106304e-05,-0.25182621866226196
831,0.8212,0.00717987,986.628,0.00887189,0.035973,0.0377238,0.00901516,-0.30721,0.599485,-0.290388,6.26128e-05,0.0001555,-8.07042e-05,0.616969,-0.26450386949897686,6.26147602222904e-05,0.00015551209075170824,0.8211806508025619,-8.07009435036532e-05,-0.25202670236964375
832,0.8222,0.00716765,986.798,0.00885712,0.0360069,0.0376933,0.00900686,-0.307491,0.600034,-0.290655,6.26661e-05,0.000155581,-8.06594e-05,0.617538,-0.26471051487661235,6.26680635611443e-05,0.00015559310335144794,0.8221807534829189,-8.065614711805225e-05,-0.2522263845813496
833,0.8232,0.00715545,986.969,0.00884238,0.036041,0.0376627,0.00899838,-0.307773,0.600582,-0.290922,6.27194e-05,0.000155661,-8.06145e-05,0.618106,-0.26491783727758467,6.272136690266272e-05,0.00015567311580211296,0.8231795821898971,-8.061125073854924e-05,-0.2524260134850218
834,0.8242,0.00714329,987.139,0.00882768,0.0360752,0.0376323,0.00898971,-0.308054,0.60113,-0.291189,6.27728e-05,0.000155742,-8.05697e-05,0.618674,-0.2651243663466165,6.27747702535153e-05,0.00015575412841495329,0.8241789584050105,-8.056645434884047e-05,-0.25262558909489174
835,0.8252,0.00713115,987.309,0.008813,0.0361096,0.0376019,0.00898086,-0.308335,0.601679,-0.291455,6.28262e-05,0.000155822,-8.0525e-05,0.619241,-0.2653308373891331,6.282817360703241e-05,0.0001558341408784969,0.8251807076081703,-8.052175794925898e-05,-0.2528243642499248
836,0.8262,0.00711903,987.478,0.00879837,0.0361441,0.0375715,0.00897181,-0.308616,0.602226,-0.291722,6.28796e-05,0.000155902,-8.04803e-05,0.619809,-0.2655372504214375,6.28815769634361e-05,0.0001559141533484798,0.8261793545602731,-8.047706154756806e-05,-0.2530238335143382
837,0.8272,0.00710695,987.648,0.00878376,0.0361788,0.0375412,0.00896259,-0.308896,0.602774,-0.291988,6.2933e-05,0.000155982,-8.04356e-05,0.620376,-0.2657428712030666,6.293498032272637e-05,0.00015599416582467995,0.8271803751011495,-8.043236514387875e-05,-0.25322250275044367
838,0.8282,0.00709489,987.817,0.00876919,0.0362136,0.037511,0.00895317,-0.309177,0.603321,-0.292255,6.29865e-05,0.000156062,-8.0391e-05,0.620943,-0.26594916847013506,6.298848369112875e-05,0.00015607417830754144,0.8281801161705846,-8.038776873009468e-05,-0.2534218657260676
839,0.8292,0.00708286,987.986,0.00875464,0.0362485,0.0374808,0.00894357,-0.309457,0.603868,-0.292521,6.304e-05,0.000156142,-8.03464e-05,0.621509,-0.26615467393085634,6.304198706263975e-05,0.00015615419079662018,0.8291804042479778,-8.034317231442323e-05,-0.2536204290996851
840,0.8302,0.00707086,988.155,0.00874013,0.0362836,0.0374506,0.00893378,-0.309737,0.604414,-0.292787,6.30935e-05,0.000156221,-8.03019e-05,0.622075,-0.26636012185810354,6.309549043681528e-05,0.00015623320313595812,0.8301794094522998,-8.029867588876805e-05,-0.25381893966246916
841,0.8312,0.00705888,988.324,0.00872566,0.0363188,0.0374205,0.00892381,-0.310017,0.604961,-0.293053,6.3147e-05,0.000156301,-8.02575e-05,0.622641,-0.2665655122679841,6.31489938138774e-05,0.0001563132156376934,0.8311807914422757,-8.025427945301811e-05,-0.25401739742846596
842,0.8322,0.00704694,988.492,0.00871121,0.0363541,0.0373904,0.00891364,-0.310297,0.605506,-0.293319,6.32006e-05,0.00015638,-8.02131e-05,0.623206,-0.2667708451766003,6.320259720005161e-05,0.00015639222798968788,0.8321790569762608,-8.020988301526977e-05,-0.25421580241171726
843,0.8332,0.00703501,988.66,0.0086968,0.0363896,0.0373604,0.00890329,-0.310577,0.606052,-0.293584,6.32542e-05,0.00015646,-8.01687e-05,0.623771,-0.2669761206000505,6.325620058911241e-05,0.0001564722405040797,0.8331796998920269,-8.016548657563405e-05,-0.2544134090400435
844,0.8342,0.00702312,988.828,0.00868242,0.0364253,0.0373305,0.00889275,-0.310857,0.606597,-0.29385,6.33079e-05,0.000156539,-8.01244e-05,0.624336,-0.26718133855442805,6.330990398728531e-05,0.00015655125286850868,0.8341790551280339,-8.01211901260146e-05,-0.25461170869821514
845,0.8352,0.00701125,988.996,0.00866807,0.0364611,0.0373005,0.00888203,-0.311136,0.607143,-0.294115,6.33615e-05,0.000156618,-8.00801e-05,0.624901,-0.267385766441955,6.336350738234131e-05,0.00015663026523937695,0.8351807903409607,-8.007689367439674e-05,-0.2548092104252755
846,0.8362,0.00699941,989.163,0.00865375,0.036497,0.0372707,0.00887111,-0.311415,0.607687,-0.29438,6.34152e-05,0.000156697,-8.00359e-05,0.625465,-0.26759013730205705,6.341721078628737e-05,0.00015670927761624043,0.8361794002881846,-8.003269721279516e-05,-0.2550066598213123
847,0.8372,0.0069876,989.331,0.00863946,0.0365331,0.0372409,0.00886001,-0.311694,0.608232,-0.294645,6.34689e-05,0.000156776,-7.99917e-05,0.626029,-0.2677944511506425,6.347091419334205e-05,0.00015678828999932115,0.8371803908064814,-7.998850074930619e-05,-0.25520405690019154
848,0.8382,0.00697581,989.498,0.00862521,0.0365694,0.0372111,0.00884872,-0.311973,0.608776,-0.29491,6.35227e-05,0.000156854,-7.99476e-05,0.626593,-0.2679987080036156,6.352471760950884e-05,0.0001568663022317729,0.8381800888322892,-7.994440427583349e-05,-0.2554014016757753
849,0.8392,0.00696405,989.665,0.00861099,0.0366057,0.0371814,0.00883724,-0.312252,0.60932,-0.295175,6.35764e-05,0.000156933,-7.99035e-05,0.627156,-0.2682029078768756,6.357842102211464e-05,0.00015694531462751016,0.8391803308417733,-7.990030780036239e-05,-0.25559869416192227
850,0.8402,0.00695231,989.831,0.00859679,0.0366423,0.0371517,0.00882556,-0.312531,0.609863,-0.295439,6.36303e-05,0.000157011,-7.98595e-05,0.627719,-0.2684070507863179,6.363232445050215e-05,0.00015702332687217435,0.8401792769507441,-7.985631131501858e-05,-0.2557951901680494
851,0.8412,0.0069406,989.998,0.00858263,0.036679,0.0371221,0.00881371,-0.312809,0.610407,-0.295704,6.36841e-05,0.00015709,-7.98156e-05,0.628282,-0.26861040535860403,6.368612787532868e-05,0.00015710233928012407,0.8411806068144343,-7.981241481969104e-05,-0.2559923783140716
852,0.8422,0.00692892,990.164,0.0085685,0.0367158,0.0370925,0.00880166,-0.313088,0.61095,-0.295968,6.3738e-05,0.000157168,-7.97717e-05,0.628844,-0.2688144345921074,6.374003130948935e-05,0.00015718035153722276,0.8421806393682012,-7.976851832258713e-05,-0.2561887704013005
853,0.8432,0.00691727,990.33,0.00855441,0.0367528,0.0370629,0.00878942,-0.313366,0.611492,-0.296232,6.37919e-05,0.000157246,-7.97278e-05,0.629406,-0.2690176759274363,6.379393474653661e-05,0.00015725836380031666,0.8431793719068075,-7.972462182337381e-05,-0.25638511064786174
854,0.8442,0.00690564,990.496,0.00854034,0.0367899,0.0370335,0.00877699,-0.313644,0.612035,-0.296496,6.38458e-05,0.000157324,-7.9684e-05,0.629968,-0.2692208607695268,6.384783818647044e-05,0.00015733637606940576,0.8441804900847398,-7.96808253143988e-05,-0.25658139906743926
855,0.8452,0.00689403,990.662,0.0085263,0.0368272,0.037004,0.00876437,-0.313922,0.612577,-0.29676,6.38998e-05,0.000157402,-7.96403e-05,0.63053,-0.26942398913408205,6.390184163573842e-05,0.0001574143883447121,0.8451803068362296,-7.963712879544005e-05,-0.2567776356737137
856,0.8462,0.00688246,990.827,0.00851229,0.0368646,0.0369746,0.00875156,-0.3142,0.613119,-0.297024,6.39538e-05,0.00015748,-7.95966e-05,0.631091,-0.26962706103680045,6.395584508789298e-05,0.0001574924006262357,0.8461806656352802,-7.959343227470494e-05,-0.2569738204803619
857,0.8472,0.0068709,990.992,0.00849832,0.0369022,0.0369453,0.00873856,-0.314477,0.61366,-0.297287,6.40078e-05,0.000157557,-7.9553e-05,0.631652,-0.26982934632308764,6.400984854293412e-05,0.0001575694127560201,0.8471797195951181,-7.954983574398611e-05,-0.25716921067063925
858,0.8482,0.00685938,991.157,0.00848437,0.0369399,0.036916,0.00872537,-0.314755,0.614201,-0.297551,6.40618e-05,0.000157635,-7.95094e-05,0.632212,-0.27003230555216984,6.406385200086184e-05,0.0001576474250495341,0.8481793141893765,-7.950623921137989e-05,-0.2573652921151327
859,0.8492,0.00684788,991.322,0.00847046,0.0369778,0.0368867,0.00871199,-0.315032,0.614742,-0.297814,6.41159e-05,0.000157712,-7.94659e-05,0.632773,-0.2702344786012719,6.411795546834576e-05,0.0001577244371913089,0.8491794497106182,-7.946274266901199e-05,-0.2575605793619079
860,0.8502,0.00683641,991.487,0.00845658,0.0370158,0.0368575,0.00869842,-0.315309,0.615283,-0.298077,6.41701e-05,0.000157789,-7.94224e-05,0.633333,-0.27043659565619493,6.417215894494177e-05,0.00015780144933907891,0.8501801264515634,-7.941924612464568e-05,-0.25775581525489033
861,0.8512,0.00682496,991.651,0.00844272,0.037054,0.0368284,0.00868465,-0.315586,0.615823,-0.29834,6.42242e-05,0.000157867,-7.9379e-05,0.633892,-0.270638656732447,6.42262624179768e-05,0.00015787946165057853,0.8511794935246724,-7.937584957051769e-05,-0.2579509998075846
862,0.8522,0.00681353,991.815,0.0084289,0.0370924,0.0367993,0.0086707,-0.315863,0.616363,-0.298603,6.42784e-05,0.000157944,-7.93357e-05,0.634452,-0.27084066184553235,6.428046590056802e-05,0.00015795647381033895,0.8521794004017347,-7.9332553006628e-05,-0.2581461330334912
863,0.8532,0.00680214,991.979,0.00841511,0.0371309,0.0367702,0.00865655,-0.31614,0.616903,-0.298866,6.43326e-05,0.000158021,-7.92924e-05,0.635011,-0.2710426110109505,6.433466938604582e-05,0.00015803348597587252,0.8531798473743235,-7.928925644073992e-05,-0.2583412149461075
864,0.8542,0.00679076,992.143,0.00840134,0.0371695,0.0367412,0.00864221,-0.316416,0.617442,-0.299128,6.43869e-05,0.000158097,-7.92492e-05,0.63557,-0.27124377548833656,6.438897288085776e-05,0.0001581094979892228,0.8541789805542612,-7.924605986509015e-05,-0.25853550409480164
865,0.8552,0.00677942,992.307,0.00838761,0.0372084,0.0367122,0.00862768,-0.316693,0.617982,-0.299391,6.44412e-05,0.000158174,-7.9206e-05,0.636128,-0.2714456130067394,6.444327637877834e-05,0.00015818651016674679,0.8551805075917234,-7.9202863287553e-05,-0.2587304836162938
866,0.8562,0.0067681,992.47,0.00837391,0.0372473,0.0366833,0.00861296,-0.316969,0.618521,-0.299653,6.44955e-05,0.000158251,-7.91629e-05,0.636686,-0.2716466662709228,6.449757987936344e-05,0.00015826352235004393,0.8561807194181874,-7.915976670036518e-05,-0.25892467078995574
867,0.8572,0.0067568,992.633,0.00836024,0.0372865,0.0366544,0.00859804,-0.317245,0.619059,-0.299915,6.45499e-05,0.000158327,-7.91198e-05,0.637244,-0.2718476640520623,6.455198338972679e-05,0.00015833953438093573,0.8571796133236014,-7.911667011117895e-05,-0.25911880709324253
868,0.8582,0.00674553,992.796,0.00834659,0.0373258,0.0366256,0.00858293,-0.317521,0.619597,-0.300177,6.46043e-05,0.000158403,-7.90768e-05,0.637802,-0.2720486063654691,6.460638690275466e-05,0.0001584155464176007,0.858179044778524,-7.907367351223105e-05,-0.2593128925394804
869,0.8592,0.00673428,992.959,0.00833298,0.0373652,0.0365968,0.00856763,-0.317797,0.620135,-0.300439,6.46587e-05,0.00015848,-7.90339e-05,0.638359,-0.2722494932264502,6.466079041889117e-05,0.0001584925586186614,0.8591790140722353,-7.903077690363247e-05,-0.2595069271419922
870,0.8602,0.00672306,993.122,0.0083194,0.0374048,0.036568,0.00855213,-0.318073,0.620673,-0.300701,6.47132e-05,0.000158556,-7.89911e-05,0.638916,-0.2724503246503084,6.471529394436182e-05,0.0001585685706668727,0.8601795214941703,-7.898798028516119e-05,-0.2597009109140972
871,0.8612,0.00671187,993.284,0.00830584,0.0374446,0.0365393,0.00853644,-0.318348,0.621211,-0.300962,6.47677e-05,0.000158632,-7.89483e-05,0.639473,-0.27265037330307906,6.476979747271905e-05,0.00015864458272107917,0.8611805673339192,-7.894518366502457e-05,-0.259894103763585
872,0.8622,0.0067007,993.446,0.00829232,0.0374845,0.0365107,0.00852056,-0.318624,0.621748,-0.301224,6.48223e-05,0.000158708,-7.89055e-05,0.640029,-0.2728510940993033,6.482440101063247e-05,0.00015872059478083678,0.8621802897000088,-7.890238704288954e-05,-0.26008798610870276
873,0.8632,0.00668955,993.608,0.00827882,0.0375246,0.0364821,0.00850448,-0.318899,0.622285,-0.301485,6.48768e-05,0.000158783,-7.88629e-05,0.640585,-0.27305103255562824,6.487890454520695e-05,0.00015879560668774495,0.8631805490611792,-7.885979040322955e-05,-0.26028107794474764
874,0.8642,0.00667843,993.77,0.00826535,0.0375648,0.0364535,0.00848821,-0.319174,0.622821,-0.301746,6.49315e-05,0.000158859,-7.88203e-05,0.641141,-0.27325091603643714,6.493360809556314e-05,0.00015887161875904887,0.8641794815254606,-7.881719376179319e-05,-0.26047411939039955
875,0.8652,0.00666733,993.932,0.00825192,0.0376052,0.036425,0.00847174,-0.319449,0.623357,-0.302007,6.49861e-05,0.000158935,-7.87777e-05,0.641696,-0.27345074455684626,6.498821164235835e-05,0.000158947630836348,0.8651789495610633,-7.877459711846946e-05,-0.26066711045880864
876,0.8662,0.00665626,994.093,0.00823851,0.0376458,0.0363965,0.00845508,-0.319724,0.623893,-0.302268,6.50408e-05,0.00015901,-7.87352e-05,0.642251,-0.2736505181319675,6.504291519870975e-05,0.00015902264276013156,0.8661789534551303,-7.873210046549506e-05,-0.2608600511631217
877,0.8672,0.00664521,994.254,0.00822513,0.0376865,0.0363681,0.00843823,-0.319998,0.624429,-0.302529,6.50955e-05,0.000159085,-7.86928e-05,0.642806,-0.27384951062678264,6.509761875794773e-05,0.00015909765468968828,0.8671794934949586,-7.868970380286999e-05,-0.26105294151648206
878,0.8682,0.00663419,994.415,0.00821178,0.0377274,0.0363397,0.00842118,-0.320273,0.624965,-0.30279,6.51503e-05,0.000159161,-7.86505e-05,0.643361,-0.2740491745563116,6.515242232696394e-05,0.0001591736667838628,0.8681805699679996,-7.864740713048324e-05,-0.2612457815320295
879,0.8692,0.00662319,994.576,0.00819846,0.0377685,0.0363113,0.00840393,-0.320547,0.6255,-0.30305,6.52051e-05,0.000159236,-7.86082e-05,0.643915,-0.2742480578342299,6.52072258986447e-05,0.0001592486787247438,0.8691803139806098,-7.860511045643115e-05,-0.26143783266110243
880,0.8702,0.00661221,994.736,0.00818517,0.0378097,0.036283,0.00838649,-0.320821,0.626035,-0.303311,6.526e-05,0.000159311,-7.8566e-05,0.644469,-0.2744468866255949,6.526212948010368e-05,0.0001593236906711759,0.8701805929993682,-7.856291377261737e-05,-0.26163057223316966
881,0.8712,0.00660126,994.897,0.0081719,0.0378511,0.0362548,0.00836885,-0.321095,0.626569,-0.303571,6.53149e-05,0.000159386,-7.85238e-05,0.645023,-0.27464566094533416,6.531703306444925e-05,0.00015939870262338118,0.871179536130108,-7.852071708713826e-05,-0.26182252332966516
882,0.8722,0.00659034,995.057,0.00815867,0.0378926,0.0362266,0.00835101,-0.321369,0.627103,-0.303831,6.53698e-05,0.00015946,-7.84817e-05,0.645576,-0.2748443808083706,6.537193665190344e-05,0.0001594727144216268,0.872179012838932,-7.847862039189746e-05,-0.26201442452536294
883,0.8732,0.00657943,995.217,0.00814546,0.0379343,0.0361984,0.00833298,-0.321643,0.627637,-0.304091,6.54247e-05,0.000159535,-7.84397e-05,0.64613,-0.2750430462296235,6.542684024246626e-05,0.0001595477263849343,0.8731790234108476,-7.843662368711701e-05,-0.26220627583323564
884,0.8742,0.00656856,995.377,0.00813229,0.0379762,0.0361703,0.00831475,-0.321917,0.628171,-0.304351,6.54797e-05,0.00015961,-7.83978e-05,0.646682,-0.27524165722400773,6.548184384236322e-05,0.00015962273835379293,0.8741795681310134,-7.839472697279692e-05,-0.2623980772662522
885,0.8752,0.0065577,995.536,0.00811914,0.0380183,0.0361422,0.00829633,-0.32219,0.628705,-0.30461,6.55348e-05,0.000159684,-7.83559e-05,0.647235,-0.2754394892462858,6.553694745181637e-05,0.0001596967501686919,0.8751806472847405,-7.835283025670048e-05,-0.2625890914268386
886,0.8762,0.00654687,995.696,0.00810601,0.0380605,0.0361142,0.00827771,-0.322463,0.629238,-0.30487,6.55899e-05,0.000159758,-7.83141e-05,0.647787,-0.27563726726779336,6.55920510646002e-05,0.00015977076198891993,0.8761803849761702,-7.831103353095337e-05,-0.2627807933407389
887,0.8772,0.00653607,995.855,0.00809292,0.0381029,0.0360862,0.00825889,-0.322737,0.629771,-0.305129,6.5645e-05,0.000159833,-7.82724e-05,0.648339,-0.27583571546791696,6.56471546802706e-05,0.0001598457739744319,0.8771806556698218,-7.826933679566661e-05,-0.2629717083906975
888,0.8782,0.00652528,996.014,0.00807986,0.0381454,0.0360583,0.00823987,-0.32301,0.630303,-0.305389,6.57002e-05,0.000159907,-7.82307e-05,0.648891,-0.2760333853344298,6.57023583054972e-05,0.00015991978580576216,0.8781795814693409,-7.82276400586035e-05,-0.2631633108371185
889,0.8792,0.00651452,996.173,0.00806682,0.0381882,0.0360304,0.00822066,-0.323282,0.630835,-0.305648,6.57554e-05,0.000159981,-7.81891e-05,0.649442,-0.2762302774750738,6.575756193361038e-05,0.00015999379764264354,0.8791790388387706,-7.818604331200074e-05,-0.2633541268278742
890,0.8802,0.00650379,996.331,0.00805381,0.0382311,0.0360025,0.00820124,-0.323555,0.631367,-0.305907,6.58107e-05,0.000160055,-7.81476e-05,0.649993,-0.2764278396408605,6.581286557172383e-05,0.000160067809484854,0.8801790280609807,-7.814454655585834e-05,-0.2635448934036878
891,0.8812,0.00649308,996.49,0.00804083,0.0382741,0.0359747,0.00818163,-0.323828,0.631899,-0.306165,6.58659e-05,0.000160128,-7.81062e-05,0.650544,-0.2766253478795373,6.586806920605426e-05,0.00016014082117243866,0.8811795494189927,-7.81031497901763e-05,-0.26373487431259857
892,0.8822,0.00648239,996.648,0.00802788,0.0383174,0.0359469,0.00816182,-0.3241,0.632431,-0.306424,6.59213e-05,0.000160202,-7.80648e-05,0.651094,-0.27682207902826494,6.592347285661049e-05,0.00016021483302575135,0.882180603195978,-7.806175302282892e-05,-0.263925542287583
893,0.8832,0.00647172,996.806,0.00801495,0.0383608,0.0359192,0.00814181,-0.324372,0.632962,-0.306683,6.59767e-05,0.000160276,-7.80235e-05,0.651645,-0.2770187566733969,6.597887651027534e-05,0.0001602888448843931,0.8831803064940111,-7.802045624583087e-05,-0.26411616088595646
894,0.8842,0.00646108,996.964,0.00800206,0.0384044,0.0358915,0.00812161,-0.324645,0.633493,-0.306941,6.60321e-05,0.000160349,-7.79823e-05,0.652194,-0.27721610361374205,6.603428016704882e-05,0.00016036185658796498,0.8841805407754588,-7.797925945951523e-05,-0.2643059944268681
895,0.8852,0.00645046,997.122,0.00798919,0.0384481,0.0358639,0.0081012,-0.324917,0.634023,-0.307199,6.60876e-05,0.000160422,-7.79411e-05,0.652744,-0.27741267409876125,6.608978383360053e-05,0.00016043486829708797,0.8851794211419848,-7.793806267142322e-05,-0.2644957789970437
896,0.8862,0.00643987,997.279,0.00797634,0.0384921,0.0358362,0.00808059,-0.325188,0.634554,-0.307458,6.61431e-05,0.000160496,-7.79e-05,0.653293,-0.2776084687327093,6.614528750303883e-05,0.00016050888017216103,0.8861807172351968,-7.789696587379158e-05,-0.26468624992323375
897,0.8872,0.0064293,997.436,0.00796353,0.0385362,0.0358087,0.00805978,-0.32546,0.635084,-0.307716,6.61986e-05,0.000160569,-7.7859e-05,0.653842,-0.2778049325089291,6.620079117558575e-05,0.00016058189189194216,0.8871806579762207,-7.785596906673131e-05,-0.26487593640014584
898,0.8882,0.00641875,997.594,0.00795074,0.0385804,0.0357812,0.00803878,-0.325732,0.635613,-0.307973,6.62542e-05,0.000160642,-7.78181e-05,0.654391,-0.2780013428542688,6.62563948579109e-05,0.00016065490361705237,0.8881792406461193,-7.781507225024242e-05,-0.265064839009466
899,0.8892,0.00640822,997.75,0.00793798,0.0386249,0.0357537,0.00801757,-0.326003,0.636143,-0.308231,6.63099e-05,0.000160715,-7.77772e-05,0.65494,-0.2781969779805984,6.63120985500143e-05,0.00016072791534749165,0.8891802408852936,-7.777417543197718e-05,-0.2652544278229929
900,0.8902,0.00639772,997.907,0.00792525,0.0386695,0.0357263,0.00799616,-0.326274,0.636672,-0.308489,6.63656e-05,0.000160787,-7.77365e-05,0.655488,-0.27839256009699187,6.636780224522631e-05,0.00016079992692241696,0.8901798816143829,-7.773347859652002e-05,-0.26544396772891543
901,0.8912,0.00638724,998.064,0.00791254,0.0387143,0.0356989,0.00797455,-0.326546,0.637201,-0.308746,6.64213e-05,0.00016086,-7.76958e-05,0.656036,-0.27858881062936314,6.642350594332491e-05,0.00016087293866351438,0.891180051293313,-7.769278175950856e-05,-0.2656327243729414
902,0.8922,0.00637678,998.22,0.00789987,0.0387593,0.0356715,0.00795274,-0.326817,0.63773,-0.309004,6.64771e-05,0.000160933,-7.76551e-05,0.656583,-0.27878428657349585,6.647930965142379e-05,0.00016094595040994086,0.8921807502019721,-7.765208492072073e-05,-0.2658221666909433
903,0.8932,0.00636635,998.376,0.00788721,0.0388045,0.0356442,0.00793072,-0.327087,0.638258,-0.309261,6.65329e-05,0.000161005,-7.76146e-05,0.65713,-0.278978988530174,6.653511336240925e-05,0.00016101796200063134,0.8931800854393648,-7.761158806485202e-05,-0.2660108261503248
904,0.8942,0.00635593,998.532,0.00787459,0.0388498,0.035617,0.00790851,-0.327358,0.638786,-0.309518,6.65888e-05,0.000161078,-7.75741e-05,0.657677,-0.27917435875042185,6.659101708339499e-05,0.00016109097375771597,0.8941799484650867,-7.757109120731798e-05,-0.26619943713045513
905,0.8952,0.00634555,998.688,0.00786199,0.0388953,0.0355897,0.00788609,-0.327629,0.639314,-0.309775,6.66447e-05,0.00016115,-7.75337e-05,0.658224,-0.2793696760325134,6.664692080726731e-05,0.00016116298535884255,0.8951803395578839,-7.753069434035531e-05,-0.2663879996437917
906,0.8962,0.00633518,998.844,0.00784942,0.038941,0.0355626,0.00786347,-0.327899,0.639841,-0.310032,6.67007e-05,0.000161222,-7.74934e-05,0.658771,-0.27956421995537317,6.670292454113991e-05,0.00016123499696507615,0.8961793628163379,-7.749039746407504e-05,-0.266576513702789
907,0.8972,0.00632484,998.999,0.00783688,0.0389869,0.0355354,0.00784065,-0.328169,0.640369,-0.310288,6.67567e-05,0.000161294,-7.74532e-05,0.659317,-0.2797587113584642,6.675892827812113e-05,0.00016130700857663882,0.8971808098786638,-7.745020057836616e-05,-0.266764246084511
908,0.8982,0.00631451,999.154,0.00782436,0.0390329,0.0355083,0.00781762,-0.328439,0.640895,-0.310545,6.68127e-05,0.000161366,-7.74131e-05,0.659863,-0.279953150255965,6.681493201821098e-05,0.00016137902019330852,0.8981789894828816,-7.741010368333967e-05,-0.26695266346059743
909,0.8992,0.00630422,999.309,0.00781187,0.0390792,0.0354813,0.0077944,-0.328709,0.641422,-0.310801,6.68688e-05,0.000161438,-7.7373e-05,0.660408,-0.2801475366620503,6.687103576807907e-05,0.00016145103181508524,0.8991795934463254,-7.737000678664785e-05,-0.26714029956030605
910,0.9002,0.00629394,999.464,0.00779941,0.0391256,0.0354543,0.00777096,-0.328979,0.641949,-0.311057,6.6925e-05,0.00016151,-7.7333e-05,0.660953,-0.28034187059089055,6.692723952772539e-05,0.00016152304344219104,0.9001807248670306,-7.733000988063843e-05,-0.267327887631321
911,0.9012,0.00628368,999.619,0.00778697,0.0391722,0.0354273,0.00774733,-0.329249,0.642475,-0.311314,6.69812e-05,0.000161581,-7.72931e-05,0.661498,-0.28053615205665283,6.698344329070238e-05,0.0001615940549128947,0.9011804828416072,-7.729011296531141e-05,-0.26751616017014224
912,0.9022,0.00627345,999.773,0.00777456,0.039219,0.0354004,0.00772349,-0.329519,0.643001,-0.31157,6.70375e-05,0.000161653,-7.72533e-05,0.662043,-0.28073038107350035,6.703974706345761e-05,0.00016166606655021454,0.9021807668272073,-7.725031604066679e-05,-0.26770365203315627
913,0.9032,0.00626324,999.928,0.00776217,0.039266,0.0353735,0.00769944,-0.329788,0.643526,-0.311825,6.70938e-05,0.000161724,-7.72136e-05,0.662588,-0.2809238385797904,6.709605083932146e-05,0.00016173707803113224,0.9031796739199598,-7.721061910670457e-05,-0.26789036379512643
914,0.9042,0.00625305,1000.08,0.00774981,0.0393131,0.0353466,0.00767519,-0.330057,0.644051,-0.312081,6.71501e-05,0.000161796,-7.71739e-05,0.663132,-0.28111724405301,6.715235461851599e-05,0.00016180908967866614,0.904179105576622,-7.717092217118804e-05,-0.2680777598742733
915,0.9052,0.00624289,1000.24,0.00773748,0.0393605,0.0353198,0.00765074,-0.330326,0.644576,-0.312337,6.72065e-05,0.000161867,-7.71343e-05,0.663676,-0.28131059750715426,6.720875840748874e-05,0.0001618801011697979,0.9051790620726621,-7.713132522635391e-05,-0.268265107986164
916,0.9062,0.00623275,1000.39,0.00772517,0.039408,0.0352931,0.00762608,-0.330595,0.645101,-0.312592,6.7263e-05,0.000161938,-7.70948e-05,0.664219,-0.2815038989562143,6.726526220623974e-05,0.00016195111266581463,0.9061795436836935,-7.70918282723132e-05,-0.2684516765951189
917,0.9072,0.00622262,1000.54,0.00771289,0.0394557,0.0352663,0.00760122,-0.330864,0.645626,-0.312848,6.73195e-05,0.000162009,-7.70554e-05,0.664762,-0.2816971484141777,6.73217660083214e-05,0.00016202212416671635,0.9071805506854733,-7.70524313089549e-05,-0.2686389289965805
918,0.9082,0.00621252,1000.7,0.00770064,0.0395036,0.0352396,0.00757615,-0.331133,0.64615,-0.313103,6.7376e-05,0.00016208,-7.70161e-05,0.665305,-0.28189034589502815,6.737826981373374e-05,0.00016209313567294714,0.9081801751727754,-7.701313433627899e-05,-0.26882540229333063
919,0.9092,0.00620244,1000.85,0.00768841,0.0395517,0.035213,0.00755087,-0.331402,0.646674,-0.313358,6.74327e-05,0.000162151,-7.69769e-05,0.665848,-0.28208349141274547,6.743497363559392e-05,0.0001621641471840629,0.9091803236005693,-7.697393735450753e-05,-0.2690118280454522
920,0.9102,0.00619239,1001.0,0.00767621,0.0396,0.0351864,0.00752539,-0.33167,0.647197,-0.313613,6.74893e-05,0.000162221,-7.69378e-05,0.66639,-0.2822758672575323,6.749157745411516e-05,0.00016223415853788836,0.9101790860634307,-7.693484036341847e-05,-0.26919820626506763
921,0.9112,0.00618235,1001.16,0.00766403,0.0396484,0.0351598,0.0074997,-0.331938,0.647721,-0.313868,6.7546e-05,0.000162292,-7.68987e-05,0.666933,-0.2824681915525006,6.754828128241464e-05,0.00016230517005899614,0.9111802821950057,-7.68957433707751e-05,-0.2693845369642962
922,0.9122,0.00617234,1001.31,0.00765188,0.0396971,0.0351333,0.0074738,-0.332206,0.648244,-0.314122,6.76028e-05,0.000162363,-7.68597e-05,0.667475,-0.28266046431146397,6.760508512071439e-05,0.00016237618158521094,0.9121800909097828,-7.685674636892514e-05,-0.26957008972570906
923,0.9132,0.00616235,1001.46,0.00763975,0.0397459,0.0351068,0.0074477,-0.332474,0.648767,-0.314377,6.76596e-05,0.000162433,-7.68208e-05,0.668016,-0.2828526855482323,6.766188896234482e-05,0.00016244619295413543,0.9131804226612799,-7.681784935786862e-05,-0.269756325606745
924,0.9142,0.00615238,1001.61,0.00762765,0.0397949,0.0350804,0.00742138,-0.332742,0.649289,-0.314631,6.77165e-05,0.000162503,-7.6782e-05,0.668557,-0.2830448552766116,6.771879281397553e-05,0.00016251620432772285,0.9141793635427964,-7.677905233771654e-05,-0.2699417839458347
925,0.9152,0.00614243,1001.77,0.00761558,0.0398442,0.035054,0.00739486,-0.33301,0.649812,-0.314885,6.77734e-05,0.000162573,-7.67433e-05,0.669098,-0.2832369735104042,6.777569666871486e-05,0.0001625862157064173,0.9151807411873576,-7.674035530824685e-05,-0.27012719518448836
926,0.9162,0.0061325,1001.92,0.00760353,0.0398936,0.0350276,0.00736814,-0.333278,0.650334,-0.31514,6.78304e-05,0.000162644,-7.67047e-05,0.669639,-0.283429040263409,6.783270053367652e-05,0.00016265722725239407,0.9161807265077193,-7.670175826968162e-05,-0.2703132890217437
927,0.9172,0.0061226,1002.07,0.0075915,0.0399432,0.0350013,0.0073412,-0.333545,0.650855,-0.315394,6.78874e-05,0.000162714,-7.66662e-05,0.67018,-0.2836203391701181,6.78897044017468e-05,0.00016272723864085847,0.9171793167764066,-7.666326122202083e-05,-0.270498605910091
928,0.9182,0.00611271,1002.22,0.00757951,0.039993,0.034975,0.00731405,-0.333812,0.651377,-0.315647,6.79445e-05,0.000162783,-7.66278e-05,0.67072,-0.2838115870068373,6.794680827981736e-05,0.00016279624987158847,0.9181803456255633,-7.662486416515346e-05,-0.2706831464174372
929,0.9192,0.00610285,1002.37,0.00756753,0.040043,0.0349487,0.0072867,-0.33408,0.651898,-0.315901,6.80016e-05,0.000162853,-7.65894e-05,0.67126,-0.2840034997840587,6.80039121612186e-05,0.0001628662612696008,0.9191799779672474,-7.658646710673178e-05,-0.2708683693739359
930,0.9202,0.006093,1002.52,0.00755558,0.0400932,0.0349225,0.00725914,-0.334347,0.652419,-0.316155,6.80588e-05,0.000162923,-7.65511e-05,0.671799,-0.2841946453305504,6.806111605262011e-05,0.00016293627267272015,0.9201801312530757,-7.654817003932557e-05,-0.271053545289778
931,0.9212,0.00608318,1002.67,0.00754366,0.0401435,0.0348964,0.00723136,-0.334613,0.652939,-0.316408,6.8116e-05,0.000162993,-7.6513e-05,0.672338,-0.28438502423337575,6.811831994735229e-05,0.00016300628408072448,0.921178884574686,-7.651007295506052e-05,-0.2712379454152203
932,0.9222,0.00607338,1002.82,0.00753176,0.0401941,0.0348702,0.00720338,-0.33488,0.65346,-0.316662,6.81733e-05,0.000163062,-7.64749e-05,0.672878,-0.2845760679264375,6.81756238523068e-05,0.00016307529533055032,0.9221800795621964,-7.647197586935217e-05,-0.2714230274706686
933,0.9232,0.0060636,1002.98,0.00751989,0.0402449,0.0348442,0.00717518,-0.335147,0.65398,-0.316915,6.82307e-05,0.000163132,-7.64369e-05,0.673416,-0.28476706061764223,6.823302776726159e-05,0.00016314530674832461,0.923179873127367,-7.643397877454827e-05,-0.2716073341289432
934,0.9242,0.00605384,1003.13,0.00750804,0.0402959,0.0348181,0.00714678,-0.335413,0.6545,-0.317168,6.82881e-05,0.000163201,-7.6399e-05,0.673955,-0.2849572872782504,6.8290431685325e-05,0.00016321431800769837,0.9241801867203869,-7.639608167075984e-05,-0.2717915941635314
935,0.9252,0.00604411,1003.28,0.00749622,0.040347,0.0347921,0.00711816,-0.33568,0.655019,-0.317421,6.83456e-05,0.00016327,-7.63612e-05,0.674493,-0.2851481781974754,6.834793561383279e-05,0.0001632833292719571,0.9251790954316832,-7.635828455776483e-05,-0.2719758075862274
936,0.9262,0.00603439,1003.43,0.00748442,0.0403984,0.0347661,0.00708934,-0.335946,0.655539,-0.317674,6.84031e-05,0.000163339,-7.63235e-05,0.675031,-0.28533830349428935,6.84054395454492e-05,0.00016335234054087877,0.9261804488906431,-7.632058743578529e-05,-0.27215997440882267
937,0.9272,0.00602469,1003.58,0.00747264,0.04045,0.0347402,0.0070603,-0.336212,0.656058,-0.317926,6.84607e-05,0.000163408,-7.62859e-05,0.675569,-0.28552837822450006,6.846304348728793e-05,0.00016342135181446338,0.9271803960074487,-7.62829903047102e-05,-0.27234336698683625
938,0.9282,0.00601502,1003.73,0.00746089,0.0405017,0.0347143,0.00703105,-0.336478,0.656576,-0.318179,6.85183e-05,0.000163477,-7.62484e-05,0.676106,-0.2857184024015563,6.852064743223529e-05,0.00016349036309293297,0.9281789340516065,-7.624549316465057e-05,-0.27252744082866576
939,0.9292,0.00600536,1003.88,0.00744917,0.0405537,0.0346884,0.00700158,-0.336744,0.657095,-0.318431,6.8576e-05,0.000163546,-7.6211e-05,0.676643,-0.2859083760389036,6.857835138762702e-05,0.0001635593743760655,0.9291799186514138,-7.620809601549539e-05,-0.27271074081680846
940,0.9302,0.00599573,1004.03,0.00743747,0.0406059,0.0346626,0.00697191,-0.337009,0.657613,-0.318684,6.86338e-05,0.000163615,-7.61737e-05,0.67718,-0.28609758524792583,6.863615535324108e-05,0.000163628385664083,0.9301794927166074,-7.617079885735567e-05,-0.27289472172481555
941,0.9312,0.00598612,1004.18,0.00742579,0.0406582,0.0346368,0.00694202,-0.337275,0.658131,-0.318936,6.86916e-05,0.000163683,-7.61365e-05,0.677716,-0.2862874580360495,6.869395932196376e-05,0.00016369639679325587,0.9311795846952948,-7.613360169023142e-05,-0.2730779291698332
942,0.9322,0.00597652,1004.32,0.00741414,0.0407108,0.0346111,0.00691192,-0.33754,0.658649,-0.319188,6.87495e-05,0.000163752,-7.60993e-05,0.678253,-0.2864765668016518,6.875186330113081e-05,0.00016376540809059925,0.9321801948558246,-7.609640452166389e-05,-0.27326109045239155
943,0.9332,0.00596695,1004.47,0.00740251,0.0407636,0.0345854,0.0068816,-0.337805,0.659166,-0.31944,6.88074e-05,0.00016382,-7.60623e-05,0.678789,-0.2866656254600708,6.880976728340649e-05,0.00016383341922887595,0.9331793902863277,-7.605940733657057e-05,-0.27344420558412197
944,0.9342,0.0059574,1004.62,0.00739091,0.0408165,0.0345597,0.00685107,-0.33807,0.659683,-0.319691,6.88654e-05,0.000163888,-7.60254e-05,0.679324,-0.2868546340245829,6.886777127612653e-05,0.00016390143037203764,0.9341791024344281,-7.602251014249273e-05,-0.27362654820356425
945,0.9352,0.00594787,1004.77,0.00737933,0.0408697,0.0345341,0.00682033,-0.338335,0.6602,-0.319943,6.89235e-05,0.000163957,-7.59886e-05,0.67986,-0.28704359250846145,6.89258752790689e-05,0.00016397044168359187,0.9351793315673385,-7.598571293943035e-05,-0.27380957125154437
946,0.9362,0.00593835,1004.92,0.00736777,0.0409231,0.0345085,0.00678937,-0.3386,0.660717,-0.320195,6.89816e-05,0.000164025,-7.59518e-05,0.680395,-0.2872325009249761,6.898397928534195e-05,0.00016403845283585738,0.9361800779524085,-7.59489157350357e-05,-0.27399254818352725
947,0.9372,0.00592886,1005.07,0.00735624,0.0409767,0.034483,0.0067582,-0.338865,0.661233,-0.320446,6.90398e-05,0.000164093,-7.59152e-05,0.68093,-0.28742135928739276,6.904218330183731e-05,0.00016410646399278583,0.9371794046767539,-7.591231851411528e-05,-0.27417475318624873
948,0.9382,0.00591939,1005.22,0.00734473,0.0410305,0.0344575,0.00672681,-0.339129,0.661749,-0.320697,6.9098e-05,0.000164161,-7.58787e-05,0.681464,-0.28760945521878545,6.910038732188539e-05,0.00016417447515437722,0.9381792471867503,-7.587582128421033e-05,-0.2743569124612536
949,0.9392,0.00590994,1005.36,0.00733325,0.0410845,0.034432,0.0066952,-0.339394,0.662265,-0.320948,6.91563e-05,0.000164229,-7.58422e-05,0.681999,-0.2877982137015488,6.915869135193375e-05,0.0001642424863204095,0.9391796057486115,-7.583932405308413e-05,-0.2745390260200181
950,0.9402,0.00590051,1005.51,0.00732179,0.0411387,0.0344066,0.00666338,-0.339658,0.662781,-0.321199,6.92146e-05,0.000164296,-7.58059e-05,0.682533,-0.2879862101565077,6.921699538575687e-05,0.000164309497326931,0.9401804806286893,-7.580302680532114e-05,-0.27472109387401555
951,0.9412,0.00589109,1005.66,0.00731035,0.0411931,0.0343812,0.00663135,-0.339922,0.663296,-0.32145,6.92731e-05,0.000164364,-7.57697e-05,0.683066,-0.28817415698695314,6.927549943669398e-05,0.00016437750850228916,0.9411799309125715,-7.576682954879566e-05,-0.2749031160347164
952,0.9422,0.0058817,1005.81,0.00729894,0.0412477,0.0343558,0.00659909,-0.340186,0.663811,-0.321701,6.93315e-05,0.000164432,-7.57335e-05,0.6836,-0.2883620542059844,6.933390348407009e-05,0.00016444551968231025,0.942179896045912,-7.57306322909379e-05,-0.27508509251358815
953,0.9432,0.00587233,1005.95,0.00728755,0.0413026,0.0343305,0.00656662,-0.34045,0.664326,-0.321952,6.93901e-05,0.000164499,-7.56975e-05,0.684133,-0.28854990182669704,6.939250754878223e-05,0.00016451253070237648,0.9431803762939266,-7.569463501655438e-05,-0.2752670233220956
954,0.9442,0.00586298,1006.1,0.00727619,0.0413576,0.0343052,0.00653393,-0.340714,0.66484,-0.322202,6.94487e-05,0.000164566,-7.56616e-05,0.684666,-0.28873769986218345,6.945111161682505e-05,0.00016457954172710565,0.9441794277415683,-7.565873773329734e-05,-0.2754481839202467
955,0.9452,0.00585365,1006.25,0.00726484,0.0414128,0.0342799,0.00650103,-0.340977,0.665354,-0.322452,6.95074e-05,0.000164634,-7.56258e-05,0.685199,-0.28892473725062495,6.950981569531223e-05,0.00016464755292067146,0.9451789928336494,-7.562294044127782e-05,-0.2756292992339092
956,0.9462,0.00584433,1006.39,0.00725353,0.0414683,0.0342547,0.00646791,-0.341241,0.665868,-0.322703,6.95661e-05,0.000164701,-7.559e-05,0.685731,-0.2891124363426205,6.956851977735212e-05,0.0001647145639542824,0.9461790718342511,-7.558714314792603e-05,-0.2758110934636713
957,0.9472,0.00583504,1006.54,0.00724223,0.041524,0.0342296,0.00643456,-0.341504,0.666382,-0.322953,6.96249e-05,0.000164768,-7.55544e-05,0.686263,-0.2892993751883266,6.962732386961434e-05,0.0001647815749925563,0.9471796650075901,-7.555154583815948e-05,-0.27599211806128776
958,0.9482,0.00582577,1006.69,0.00723096,0.0415799,0.0342044,0.006401,-0.341767,0.666896,-0.323203,6.96838e-05,0.000164835,-7.55189e-05,0.686795,-0.28948626487558105,6.968622797232094e-05,0.00016484858603504904,0.9481807726180191,-7.551604851963045e-05,-0.27617309740841145
959,0.9492,0.00581651,1006.83,0.00721971,0.041636,0.0341793,0.00636722,-0.34203,0.667409,-0.323453,6.97427e-05,0.000164902,-7.54835e-05,0.687327,-0.2896731054173105,6.974513207858024e-05,0.0001649155970822047,0.9491804457486066,-7.548065119233893e-05,-0.2763540315163535
960,0.9502,0.00580728,1006.98,0.00720849,0.0416923,0.0341543,0.00633322,-0.342293,0.667922,-0.323702,6.98017e-05,0.000164969,-7.54482e-05,0.687858,-0.28985989682643876,6.980413619528392e-05,0.00016498260813380128,0.9501806318430739,-7.54453538561739e-05,-0.2765341969309809
961,0.9512,0.00579806,1007.13,0.00719728,0.0417488,0.0341292,0.00629901,-0.342556,0.668434,-0.323952,6.98608e-05,0.000165035,-7.5413e-05,0.688389,-0.290046639115886,6.986324032243196e-05,0.00016504861902477685,0.9511793799842838,-7.541015651124638e-05,-0.2767150407753257
962,0.9522,0.00578887,1007.27,0.0071861,0.0418056,0.0341042,0.00626457,-0.342819,0.668947,-0.324201,6.99199e-05,0.000165102,-7.53779e-05,0.68892,-0.29023333229856885,6.992234445313272e-05,0.0001651156300852552,0.9521805917950878,-7.537505915744536e-05,-0.2768951163098382
963,0.9532,0.00577969,1007.42,0.00717495,0.0418625,0.0340793,0.00622991,-0.343081,0.669459,-0.324451,6.99791e-05,0.000165168,-7.5343e-05,0.68945,-0.29041926680702246,6.998154859427785e-05,0.00016518164098511257,0.9531803641779766,-7.534016178745162e-05,-0.27707586993561606
964,0.9542,0.00577053,1007.56,0.00716382,0.0419197,0.0340544,0.00619503,-0.343343,0.669971,-0.3247,7.00384e-05,0.000165235,-7.53081e-05,0.689981,-0.2906051526070159,7.00408527460894e-05,0.0001652486520544727,0.9541806485753899,-7.530526441623664e-05,-0.27725585563485267
965,0.9552,0.0057614,1007.71,0.00715271,0.0419771,0.0340295,0.00615992,-0.343606,0.670482,-0.324949,7.00977e-05,0.000165301,-7.52733e-05,0.690511,-0.2907916989199648,7.010015690123161e-05,0.00016531466296321184,0.9551794900690787,-7.527046703625917e-05,-0.27743579652322925
966,0.9562,0.00575228,1007.85,0.00714162,0.0420347,0.0340046,0.0061246,-0.343868,0.670994,-0.325198,7.01571e-05,0.000165367,-7.52387e-05,0.69104,-0.2909774871555262,7.01595610668182e-05,0.00016538067387616984,0.9561807982810224,-7.523586963997797e-05,-0.27761569261190244
967,0.9572,0.00574318,1008.0,0.00713055,0.0420925,0.0339798,0.00608906,-0.34413,0.671505,-0.325447,7.02165e-05,0.000165434,-7.52041e-05,0.69157,-0.29116322672094586,7.021896523617954e-05,0.00016544768495885265,0.9571806621123959,-7.520127224258655e-05,-0.277795543912026
968,0.9582,0.0057341,1008.14,0.00711951,0.0421506,0.0339551,0.00605329,-0.344392,0.672015,-0.325695,7.02761e-05,0.0001655,-7.51697e-05,0.692099,-0.29134891762897375,7.027856942287691e-05,0.00016551369588047038,0.9581790788246942,-7.51668748288914e-05,-0.2779746284097402
969,0.9592,0.00572504,1008.29,0.00710849,0.0422089,0.0339303,0.0060173,-0.344653,0.672526,-0.325944,7.03357e-05,0.000165566,-7.51354e-05,0.692628,-0.2915338514265622,7.033817361334904e-05,0.000165579706806529,0.9591799640383663,-7.513257740654478e-05,-0.27815439034597633
970,0.9602,0.00571599,1008.43,0.0070975,0.0422674,0.0339056,0.00598108,-0.344915,0.673036,-0.326192,7.03953e-05,0.000165631,-7.51012e-05,0.693156,-0.2917194452436368,7.039777780737388e-05,0.00016564471757152255,0.9601794006547002,-7.509837997543567e-05,-0.27833338586080925
971,0.9612,0.00570697,1008.58,0.00708652,0.0423261,0.033881,0.00594465,-0.345176,0.673546,-0.326441,7.04551e-05,0.000165697,-7.50671e-05,0.693685,-0.29190428234613697,7.04575820189568e-05,0.0001657107285062409,0.9611793471137073,-7.506428253578612e-05,-0.2785130584775608
972,0.9622,0.00569797,1008.72,0.00707557,0.042385,0.0338563,0.00590799,-0.345437,0.674056,-0.326689,7.05149e-05,0.000165763,-7.50331e-05,0.694213,-0.29208907121244865,7.051738623409243e-05,0.00016577673944517812,0.9621798036754736,-7.503028508737408e-05,-0.27869196505372607
973,0.9632,0.00568898,1008.86,0.00706464,0.0424442,0.0338318,0.0058711,-0.345699,0.674566,-0.326937,7.05748e-05,0.000165829,-7.49992e-05,0.694741,-0.2922745195809938,7.057729045989447e-05,0.00016584275038877827,0.963180770600218,-7.499638763031058e-05,-0.27887082726656154
974,0.9642,0.00568001,1009.01,0.00705374,0.0425036,0.0338072,0.00583399,-0.34596,0.675075,-0.327185,7.06347e-05,0.000165894,-7.49655e-05,0.695268,-0.2924592118279965,7.063719468924923e-05,0.0001659077611706472,0.9641802839670257,-7.496269015716539e-05,-0.2790496451270683
975,0.9652,0.00567106,1009.15,0.00704285,0.0425632,0.0337827,0.00579666,-0.346221,0.675584,-0.327433,7.06947e-05,0.000165959,-7.49318e-05,0.695795,-0.2926438558766129,7.06971989292704e-05,0.000165972771956735,0.9651803062156366,-7.492899268279896e-05,-0.27922841864624404
976,0.9662,0.00566213,1009.3,0.00703199,0.042623,0.0337582,0.0057591,-0.346481,0.676093,-0.327681,7.07548e-05,0.000166025,-7.48983e-05,0.696322,-0.29282774456751925,7.075730317995799e-05,0.00016603878291299168,0.9661808376051377,-7.489549519235084e-05,-0.27940714783508436
977,0.9672,0.00565322,1009.44,0.00702115,0.042683,0.0337337,0.00572131,-0.346742,0.676601,-0.327928,7.0815e-05,0.00016609,-7.48648e-05,0.696849,-0.29301229244164195,7.081750744131199e-05,0.0001661037937077392,0.9671799112138522,-7.486199770079249e-05,-0.2795851122900541
978,0.9682,0.00564433,1009.58,0.00701033,0.0427433,0.0337093,0.0056833,-0.347002,0.677109,-0.328176,7.08752e-05,0.000166155,-7.48315e-05,0.697376,-0.29319608535149344,7.08777117062187e-05,0.00016616880450648353,0.9681794924808942,-7.482870019315246e-05,-0.2797637530298389
979,0.9692,0.00563546,1009.72,0.00699953,0.0428038,0.033685,0.00564506,-0.347263,0.677617,-0.328423,7.09355e-05,0.00016622,-7.47984e-05,0.697902,-0.29338053710121625,7.093801598201388e-05,0.00016623381530966874,0.9691795816642199,-7.479560266943075e-05,-0.27994162941420275
980,0.9702,0.0056266,1009.87,0.00698876,0.0428646,0.0336606,0.00560659,-0.347523,0.678125,-0.32867,7.09959e-05,0.000166285,-7.47653e-05,0.698428,-0.29356423427990197,7.099842026847547e-05,0.00016629882611685076,0.970180179021916,-7.476250514459881e-05,-0.2801194618685252
981,0.9712,0.00561776,1010.01,0.00697801,0.0429255,0.0336363,0.0055679,-0.347783,0.678632,-0.328917,7.10564e-05,0.00016635,-7.47323e-05,0.698953,-0.29374788370352956,7.105892456582552e-05,0.00016636383692847367,0.9711793136319016,-7.472950761122643e-05,-0.2802972504036556
982,0.9722,0.00560894,1010.15,0.00696728,0.0429867,0.033612,0.00552898,-0.348043,0.679139,-0.329164,7.11169e-05,0.000166415,-7.46995e-05,0.699479,-0.29393148538451375,7.111942886672828e-05,0.00016642884774431543,0.9721789549315694,-7.469671006177236e-05,-0.2804749950304408
983,0.9732,0.00560014,1010.3,0.00695657,0.0430482,0.0335878,0.00548983,-0.348303,0.679646,-0.329411,7.11775e-05,0.00016648,-7.46668e-05,0.700004,-0.29411503933526617,7.118003317829746e-05,0.000166493858564154,0.973179103177876,-7.466401250388888e-05,-0.28065269575972485
984,0.9742,0.00559136,1010.44,0.00694588,0.0431098,0.0335636,0.00545046,-0.348563,0.680153,-0.329658,7.12382e-05,0.000166544,-7.46341e-05,0.700529,-0.294298545568195,7.12407375007551e-05,0.00016655786922181726,0.9741797586279091,-7.463131494489517e-05,-0.2808303526023489
985,0.9752,0.0055826,1010.58,0.00693522,0.0431717,0.0335394,0.00541085,-0.348822,0.680659,-0.329904,7.12989e-05,0.000166609,-7.46017e-05,0.701053,-0.2944812985773565,7.13014418269875e-05,0.00016662288005031556,0.9751789463589517,-7.459891736238955e-05,-0.2810072465767578
986,0.9762,0.00557385,1010.72,0.00692458,0.0432338,0.0335153,0.00537101,-0.349082,0.681166,-0.330151,7.13597e-05,0.000166673,-7.45693e-05,0.701578,-0.2946647095952609,7.136224616388631e-05,0.00016668689071619447,0.9761806159865498,-7.456651977888473e-05,-0.2811848158561445
987,0.9772,0.00556512,1010.86,0.00691395,0.0432962,0.0334912,0.00533095,-0.349341,0.681672,-0.330397,7.14206e-05,0.000166737,-7.4537e-05,0.702102,-0.2948473677802197,7.142315051167358e-05,0.00016675090138629223,0.9771808164076048,-7.453422218683947e-05,-0.28136162264331743
988,0.9782,0.00555641,1011.0,0.00690335,0.0433588,0.0334671,0.00529065,-0.3496,0.682177,-0.330643,7.14816e-05,0.000166802,-7.45049e-05,0.702626,-0.29502997866283454,7.148415487034931e-05,0.00016681591222722503,0.9781795448776045,-7.450212457882355e-05,-0.28153838594137015
989,0.9792,0.00554772,1011.15,0.00689278,0.0434216,0.0334431,0.00525013,-0.349859,0.682683,-0.330889,7.15427e-05,0.000166866,-7.44729e-05,0.703149,-0.295212542255355,7.15452592399135e-05,0.0001668799229053164,0.9791807570126205,-7.44701269623782e-05,-0.28171510576099956
990,0.9802,0.00553905,1011.29,0.00688222,0.0434847,0.0334191,0.00520937,-0.350118,0.683188,-0.331135,7.16038e-05,0.00016693,-7.4441e-05,0.703672,-0.2953950585700279,7.160636361325246e-05,0.00016694393358784865,0.9801804957076858,-7.443822933750344e-05,-0.2818917821129001
991,0.9812,0.00553039,1011.43,0.00687168,0.0435479,0.0333951,0.00516838,-0.350377,0.683693,-0.331381,7.1665e-05,0.000166994,-7.44092e-05,0.704195,-0.2955775276190964,7.166756799747986e-05,0.00016700794427415566,0.9811807393982928,-7.440643170408823e-05,-0.2820684150077635
992,0.9822,0.00552176,1011.57,0.00686117,0.0436115,0.0333712,0.00512717,-0.350635,0.684197,-0.331627,7.17263e-05,0.000167058,-7.43776e-05,0.704718,-0.295759245174398,7.172887239259573e-05,0.00016707195496468152,0.9821795061590315,-7.43748340549244e-05,-0.28224500445627887
993,0.9832,0.00551313,1011.71,0.00685068,0.0436752,0.0333473,0.00508571,-0.350894,0.684702,-0.331872,7.17876e-05,0.000167122,-7.43461e-05,0.705241,-0.29594161991134993,7.179017679148636e-05,0.00016713596565942623,0.9831807596048581,-7.434333639722013e-05,-0.2824208328903244
994,0.9842,0.00550453,1011.85,0.0068402,0.0437392,0.0333235,0.00504403,-0.351152,0.685206,-0.332118,7.18491e-05,0.000167185,-7.43147e-05,0.705763,-0.2961232435429568,7.185168120837915e-05,0.00016719897619088542,0.9841805346298418,-7.431193873108644e-05,-0.28259733565470324
995,0.9852,0.00549595,1011.99,0.00682975,0.0438035,0.0332997,0.00500211,-0.351411,0.68571,-0.332363,7.19106e-05,0.000167249,-7.42834e-05,0.706285,-0.29630552401653887,7.191318562926874e-05,0.00016726298689384578,0.9851808136684392,-7.428064105652332e-05,-0.2827730777781786
996,0.9862,0.00548738,1012.13,0.00681932,0.043868,0.0332759,0.00495996,-0.351669,0.686213,-0.332608,7.19722e-05,0.000167313,-7.42522e-05,0.706806,-0.2964870537729971,7.197479006082474e-05,0.0001673269976005809,0.9861796107941327,-7.424944337364181e-05,-0.2829487768501079
997,0.9872,0.00547883,1012.27,0.00680892,0.0439327,0.0332521,0.00491758,-0.351927,0.686716,-0.332853,7.20339e-05,0.000167376,-7.42212e-05,0.707328,-0.2966685367008193,7.20364945037133e-05,0.00016739000814425253,0.9871789104411541,-7.421844567490066e-05,-0.28312443288103717
998,0.9882,0.0054703,1012.41,0.00679853,0.0439977,0.0332284,0.00487496,-0.352185,0.68722,-0.333098,7.20956e-05,0.000167439,-7.41903e-05,0.707849,-0.2968499728120857,7.209819895015457e-05,0.00016745301869169893,0.988180701042042,-7.418754796773008e-05,-0.28330004588151025
999,0.9892,0.00546179,1012.55,0.00678816,0.0440629,0.0332047,0.00483211,-0.352442,0.687722,-0.333343,7.21574e-05,0.000167503,-7.41595e-05,0.70837,-0.29703065914988414,7.216000340770634e-05,0.00016751702941086855,0.9891790183106346,-7.415675025224111e-05,-0.2834756158620685
