,Time,S11,S22,S33,S12,S13,S23,LE11,LE22,LE33,LE12,LE13,LE23,SDV_EPBAR,E11,E12,E13,E22,E23,E33
0,1e-05,-1.66533e-16,2.08407,-2.22045e-16,-1.69736e-17,0.0,-3.59433e-39,-2.99999e-06,9.99995e-06,-2.99999e-06,0.0,0.0,0.0,0.0,-2.999985500018454e-06,0.0,0.0,9.999999999621423e-06,0.0,-2.999985500018454e-06
1,2e-05,3.33067e-16,4.16811,4.44089e-16,2.20659e-22,0.0,-3.59433e-39,-5.99994e-06,1.99998e-05,-5.99994e-06,0.0,0.0,0.0,0.0,-5.999922000343716e-06,0.0,0.0,1.9999999997244444e-05,0.0,-5.999922000343716e-06
2,3.5e-05,-1.11022e-16,7.29414,-2.22045e-16,2.20659e-22,1.37033e-38,-3.59433e-39,-1.04998e-05,3.49994e-05,-1.04998e-05,0.0,0.0,0.0,0.0,-1.0499744877323636e-05,0.0,0.0,3.5000012486241516e-05,0.0,-1.0499744877323636e-05
3,5.75e-05,-4.21885e-15,11.9831,-4.44089e-15,-1.69731e-17,3.39477e-17,-1.0783e-38,-1.72495e-05,5.74983e-05,-1.72495e-05,0.0,0.0,0.0,0.0,-1.7249351228265652e-05,0.0,0.0,5.749995305892597e-05,0.0,-1.7249351228265652e-05
4,9.125e-05,-2.88658e-14,19.0163,-2.93099e-14,-1.69724e-17,0.0,-3.39462e-17,-2.73738e-05,9.12458e-05,-2.73738e-05,0.0,0.0,0.0,0.0,-2.737342534098186e-05,0.0,0.0,9.124996302456445e-05,0.0,-2.737342534098186e-05
5,0.00014188,-1.57208e-13,29.5657,-1.57208e-13,1.69742e-17,1.35791e-16,1.48934e-21,-4.25595e-05,0.000141865,-4.25595e-05,0.0,0.0,0.0,0.0,-4.255859435731146e-05,0.0,0.0,0.00014187506331508892,0.0,-4.255859435731146e-05
6,0.00021781,-8.01581e-13,45.3888,-8.01137e-13,8.48612e-17,6.78954e-17,-6.78872e-17,-6.53366e-05,0.000217789,-6.53366e-05,0.0,0.0,0.0,0.0,-6.533446561085565e-05,0.0,0.0,0.0002178127177461242,0.0,-6.533446561085565e-05
7,0.00033172,-4.04787e-12,69.1212,-4.05009e-12,-1.86693e-16,4.75268e-16,-6.78772e-17,-9.94991e-05,0.000331664,-9.94991e-05,0.0,0.0,0.0,0.0,-9.949415012866503e-05,0.0,0.0,0.0003317190065854625,0.0,-9.949415012866503e-05
8,0.00050258,-2.05174e-11,104.715,-2.05169e-11,-1.86651e-16,3.39477e-16,2.03659e-16,-0.000150736,0.000502452,-0.000150736,0.0,0.0,0.0,0.0,-0.00015072463989995732,0.0,0.0,0.0005025782501502096,0.0,-0.00015072463989995732
9,0.00075887,-1.03756e-10,158.094,-1.03753e-10,-1.86589e-16,6.78954e-17,2.03591e-16,-0.000227574,0.000758579,-0.000227574,0.0,0.0,0.0,0.0,-0.0002275481070015406,0.0,0.0,0.0007588667938165372,0.0,-0.0002275481070015406
10,0.0011433,-5.24726e-10,238.136,-5.24729e-10,3.56396e-16,6.11059e-16,2.0349e-16,-0.000342794,0.00114265,-0.000342794,0.0,0.0,0.0,0.0,-0.00034273525284966855,0.0,0.0,0.0011433030732321825,0.0,-0.00034273525284966855
11,0.00172,-2.65266e-09,358.143,-2.65265e-09,-1.86627e-16,-4.75268e-16,2.03337e-16,-0.000515542,0.00171847,-0.000515542,0.0,0.0,0.0,0.0,-0.0005154091310572984,0.0,0.0,0.001719947415747436,0.0,-0.0005154091310572984
12,0.0025849,0.117189,374.501,0.170844,-0.0162553,0.018825,0.0176242,-0.000931757,0.00258159,-0.000930528,-3.01867e-07,2.01113e-07,4.68338e-07,0.000785297,-0.0009313230492358215,-3.018669544330166e-07,2.0111302023728683e-07,0.0025849251728629064,4.6833810962709777e-07,-0.000930095193077296
13,0.0034499,0.156495,380.901,0.241098,-0.0306408,0.0245805,0.026109,-0.00135734,0.00344396,-0.00135486,-6.78632e-07,2.59228e-07,9.03975e-07,0.00161739,-0.0013564192307082834,-6.786317697793365e-07,2.592280337054831e-07,0.0034498972441614484,9.039754085282681e-07,-0.001353942591556967
14,0.0043149,-0.0682683,386.844,-0.125259,0.0353871,-0.0169464,-0.0567735,-0.00178289,0.0043056,-0.0017807,3.77332e-07,-5.36878e-07,-3.43882e-07,0.00244993,-0.0017813015957475198,3.7733207114420964e-07,-5.368778558390019e-07,0.0043148824130179175,-3.43881940922941e-07,-0.0017791154944042376
15,0.0051799,-0.156873,392.869,-0.23702,0.054483,-0.0375467,-0.0799472,-0.00220795,0.00516648,-0.00220539,9.64804e-07,-1.1949e-06,-9.9294e-07,0.00328189,-0.002205514271384157,9.648044654309018e-07,-1.194899286072193e-06,0.005179849271904402,-9.929395070606972e-07,-0.0022029599142311396
16,0.0061799,-0.185171,399.786,-0.266802,0.0574968,-0.041345,-0.0835154,-0.00269888,0.00616084,-0.00269569,1.42084e-06,-1.78094e-06,-1.41769e-06,0.00424332,-0.0026952412975825846,1.4208410092919621e-06,-1.7809384140754503e-06,0.006179857008276057,-1.4176889950867633e-06,-0.002692059890328058
17,0.0071799,0.233067,407.084,0.316128,-0.0423105,0.0476805,0.0432514,-0.00318875,0.0071542,-0.0031833,-1.20417e-07,-5.66344e-07,6.84653e-07,0.00520344,-0.0031836713363491143,-1.2041699271048145e-07,-5.663438396030784e-07,0.007179852426528299,6.846532343285361e-07,-0.003178238672553957
18,0.0081799,0.229994,413.761,0.342707,-0.0491849,0.0410416,0.0467965,-0.00367928,0.00814658,-0.00367234,-5.44635e-07,-5.89025e-07,1.26122e-06,0.00616415,-0.0036725197428418843,-5.446348516624511e-07,-5.890248264694975e-07,0.008179853677031446,1.2612207953566212e-06,-0.0036656052061354583
19,0.0091799,-0.0768368,419.895,-0.150241,0.038605,-0.0145285,-0.0621722,-0.00416963,0.00913798,-0.00416318,8.20362e-07,-1.59927e-06,-3.2738e-07,0.00712529,-0.004160949162316463,8.203623365066193e-07,-1.5992687211197065e-06,0.009179858804601926,-3.2737994637432877e-07,-0.004154525979723767
20,0.01018,-0.232524,426.118,-0.345924,0.0717098,-0.0500303,-0.103151,-0.00465937,0.0101284,-0.00465264,1.72187e-06,-2.58889e-06,-1.3448e-06,0.00808566,-0.004648531974924985,1.7218714825073533e-06,-2.588886648835498e-06,0.010179865852104397,-1.3447990957482503e-06,-0.004641833237003956
21,0.01118,-0.216829,432.406,-0.3157,0.0661917,-0.047452,-0.0958088,-0.00514836,0.0111178,-0.00514096,2.09704e-06,-3.07393e-06,-1.70638e-06,0.00904531,-0.005135129908816816,2.097042198778709e-06,-3.0739252754319324e-06,0.011179832413263036,-1.7063785441306933e-06,-0.005127767881538681
22,0.01218,0.214695,439.059,0.296263,-0.0420383,0.0462939,0.039661,-0.00563636,0.0121063,-0.00562668,4.74418e-07,-1.79752e-06,4.22733e-07,0.0100037,-0.00562050552413873,4.744181125726499e-07,-1.7975183844720632e-06,0.012179877868638389,4.227330894224224e-07,-0.005610879884044184
23,0.01318,0.201413,445.069,0.305234,-0.0453995,0.038186,0.0399367,-0.00612504,0.0130938,-0.00611399,1.42978e-07,-1.84209e-06,8.56664e-07,0.0109626,-0.0061063201818777335,1.4297801032014945e-07,-1.8420883033387625e-06,0.013179899177290011,8.566643669993823e-07,-0.006095337596036976
24,0.01418,-0.0473465,450.632,-0.106837,0.0300558,-0.00734802,-0.0528794,-0.00661345,0.0140803,-0.00660272,1.28074e-06,-2.64056e-06,-4.73553e-07,0.0119218,-0.0065916292694846446,1.2807408200643522e-06,-2.640556513777703e-06,0.014179894314331642,-4.7355288790296157e-07,-0.00658096994047952
25,0.01518,0.266978,456.802,0.390686,-0.0568134,0.0603729,0.0647743,-0.00710074,0.0150658,-0.0070876,-1.57394e-07,-1.59422e-06,1.56363e-06,0.0128792,-0.00707558931043728,-1.5739398762093515e-07,-1.594218729250585e-06,0.015179861252955895,1.5636312225009164e-06,-0.00706254219796143
26,0.01618,0.179417,462.357,0.281959,-0.0411538,0.0339256,0.0347461,-0.00758843,0.0160504,-0.00757422,-2.1383e-07,-1.88585e-06,1.56027e-06,0.0138371,-0.007559710556146015,-2.1382997716923313e-07,-1.8858482218053751e-06,0.016179899582425605,1.5602712171158828e-06,-0.007545607879433702
27,0.01718,0.0111427,467.659,-0.0226004,0.015316,0.00514062,-0.036014,-0.00807557,0.0170339,-0.00806144,5.8904e-07,-2.3801e-06,6.05673e-07,0.0147949,-0.008043050182154676,5.890401735264561e-07,-2.380097167575812e-06,0.01717980413613107,6.056731833847806e-07,-0.008029033731427715
28,0.01818,0.179166,473.307,0.26623,-0.0347822,0.0414096,0.0356457,-0.00856198,0.0180166,-0.00854597,-2.43763e-07,-1.83834e-06,1.86203e-06,0.0157513,-0.008525430635266784,-2.4376297025341387e-07,-1.8383383102449358e-06,0.018179878035485153,1.8620317334683278e-06,-0.00850955700034317
29,0.01918,-0.137225,478.215,-0.234941,0.0537962,-0.0269133,-0.0829074,-0.00904862,0.0189982,-0.00903318,1.18867e-06,-3.00829e-06,2.45377e-08,0.0167086,-0.009007804438988853,1.1886707065311697e-06,-3.008285475059047e-06,0.019179814092091574,2.453770031607405e-08,-0.008992503401365703
30,0.02018,-0.209266,483.342,-0.317545,0.0679512,-0.0466005,-0.101717,-0.00953444,0.0199789,-0.00951854,1.77174e-06,-3.68086e-06,-6.77883e-07,0.0176647,-0.009489131338852208,1.7717415694562533e-06,-3.6808532256626947e-06,0.020179814005581553,-6.77882770250271e-07,-0.00947338209083426
31,0.02118,0.237499,488.982,0.333166,-0.0510075,0.0542988,0.0469547,-0.0100191,0.0209587,-0.0100008,-9.15823e-09,-2.25142e-06,1.58569e-06,0.0186193,-0.009969076022067647,-9.158229952177521e-09,-2.251417465570782e-06,0.021179876037728196,1.5856912571887705e-06,-0.009950958290382172
32,0.02218,0.181917,493.923,0.282082,-0.0432194,0.0363944,0.0340336,-0.0105044,0.0219375,-0.0104849,-1.59218e-07,-2.40677e-06,1.74989e-06,0.0195745,-0.010449421464225228,-1.5921798734996884e-07,-2.4067671037242278e-06,0.022179896230437146,1.7498915310110164e-06,-0.010430125039804228
33,0.02318,-0.00938706,498.554,-0.051839,0.0202532,0.00107129,-0.043329,-0.0109893,0.0229153,-0.01097,7.53171e-07,-2.97972e-06,6.58532e-07,0.0205296,-0.010929138223029433,7.531712835628923e-07,-2.9797155606248182e-06,0.023179872541717383,6.585322167573793e-07,-0.010910048971186415
34,0.02418,0.192255,503.612,0.286575,-0.0401751,0.0459437,0.0403448,-0.0114734,0.0238921,-0.0114521,-2.2652e-07,-2.2936e-06,2.05301e-06,0.0214832,-0.01140783155014724,-2.2651997433342785e-07,-2.29359736969581e-06,0.024179802927710714,2.0530121074280316e-06,-0.01138677431270052
35,0.02518,-0.154671,507.862,-0.261367,0.0591796,-0.0314098,-0.0904217,-0.0119578,0.0248681,-0.0119372,1.35103e-06,-3.56557e-06,2.6379e-08,0.0224377,-0.01188658963197553,1.3510309126996134e-06,-3.565563643337377e-06,0.025179890378655756,2.6379000317433565e-08,-0.011866234286062594
36,0.02618,-0.203037,512.411,-0.311234,0.0675805,-0.0459389,-0.101951,-0.0124413,0.025843,-0.0124202,1.83591e-06,-4.12864e-06,-5.73909e-07,0.023391,-0.012364226987752858,1.8359116853439161e-06,-4.1286314771404875e-06,0.0261798255930088,-5.73908835344028e-07,-0.012343387653088067
37,0.02718,0.210068,517.421,0.296461,-0.0455991,0.0495112,0.0390472,-0.0129236,0.026817,-0.0129003,1.73617e-07,-2.78783e-06,1.51237e-06,0.0243427,-0.01284044887093816,1.7361701498685989e-07,-2.787826113959113e-06,0.02717981165729455,1.5123711436526577e-06,-0.012817447785435254
38,0.02818,-0.258845,521.255,-0.398853,0.0851334,-0.0572541,-0.12146,-0.0134071,0.0277901,-0.0133847,2.27629e-06,-4.55226e-06,-1.05254e-06,0.025296,-0.013317625147248435,2.2762925906416598e-06,-4.552249638467565e-06,0.028179846820213683,-1.0525394460447757e-06,-0.013295523214510996
39,0.02918,-0.255208,525.583,-0.389212,0.0824063,-0.0574374,-0.119175,-0.0138893,0.0287622,-0.0138664,2.69238e-06,-4.9811e-06,-1.5684e-06,0.0262476,-0.013793288696704042,2.6923836244918675e-06,-4.981087594391198e-06,0.029179826410640874,-1.5683987700798596e-06,-0.013770704304424841
40,0.03018,0.209808,530.391,0.303293,-0.0480198,0.050136,0.0426118,-0.0143704,0.0297334,-0.014345,8.07819e-07,-3.48261e-06,7.81987e-07,0.0271976,-0.014267638631485835,8.078193263205691e-07,-3.482603935678341e-06,0.030179851391577195,7.819873057979265e-07,-0.014242600711526943
41,0.03118,-0.281045,533.927,-0.436254,0.0917376,-0.0623827,-0.130226,-0.0148527,0.0307036,-0.0148285,3.04678e-06,-5.32837e-06,-1.97633e-06,0.0281494,-0.0147429427205793,3.0467846414694577e-06,-5.3283558042460655e-06,0.0311798168882218,-1.9763280471041256e-06,-0.01471909921128789
42,0.03218,-0.258767,538.02,-0.397672,0.083756,-0.0580541,-0.120756,-0.0153337,0.0316729,-0.0153089,3.39314e-06,-5.68697e-06,-2.40352e-06,0.0290994,-0.015216737408373482,3.393145756813709e-06,-5.686953829187047e-06,0.0321798240599116,-2.4035171115599496e-06,-0.015192314480618196
43,0.03318,0.197974,542.566,0.287479,-0.0461923,0.0483609,0.0404392,-0.0158137,0.0326413,-0.0157864,1.52993e-06,-4.20954e-06,-8.55113e-08,0.0300478,-0.01568931994553502,1.5299311704186636e-06,-4.2095311398870905e-06,0.03317987114617682,-8.551129637712762e-08,-0.015662447897167753
44,0.03418,-0.265667,545.885,-0.415533,0.0875968,-0.0587461,-0.124898,-0.0162948,0.0336087,-0.0162686,3.66127e-06,-5.95213e-06,-2.71433e-06,0.0309979,-0.016162757919072956,3.6612767024823967e-06,-5.952112286156108e-06,0.034179852966743196,-2.7143263161555353e-06,-0.016136981045654863
45,0.03518,-0.237343,549.743,-0.366268,0.0775165,-0.0532048,-0.112908,-0.0167746,0.0345752,-0.0167478,3.93881e-06,-6.25501e-06,-3.06254e-06,0.0319462,-0.016634689802311087,3.938817757065394e-06,-6.254990437493113e-06,0.035179870975493355,-3.0625353104607456e-06,-0.016608335258848417
46,0.03618,0.179409,554.001,0.259537,-0.0418755,0.0449891,0.0351284,-0.0172534,0.0355407,-0.0172243,2.23462e-06,-4.89479e-06,-9.48121e-07,0.0328931,-0.01710541241284802,2.2346224968217143e-06,-4.894778020569923e-06,0.03617981978853102,-9.481205505146306e-07,-0.017076809764182688
47,0.03718,-0.231411,557.152,-0.36477,0.0778347,-0.0506339,-0.112217,-0.0177333,0.0365053,-0.017705,4.13027e-06,-6.43806e-06,-3.28065e-06,0.0338413,-0.01757699036125182,4.130278529634879e-06,-6.43803927569131e-06,0.03717980105612817,-3.280644618630646e-06,-0.017549187396668997
48,0.03818,-0.205406,560.779,-0.317608,0.0679473,-0.0460021,-0.100961,-0.0182119,0.037469,-0.018183,4.35308e-06,-6.70235e-06,-3.57204e-06,0.034788,-0.01804706551570756,4.353089474662397e-06,-6.702327539298558e-06,0.03817981300877116,-3.572033620224957e-06,-0.01801868666582862
49,0.03918,0.16018,564.749,0.229632,-0.0369668,0.0413258,0.0290699,-0.0186896,0.0384318,-0.0186587,2.85851e-06,-5.49336e-06,-1.72329e-06,0.0357332,-0.01851603241084976,2.8585140854353597e-06,-5.493344911511322e-06,0.03917985387515732,-1.7232885151097221e-06,-0.01848570408768102
50,0.04018,-0.192554,567.753,-0.306055,0.0665516,-0.0413662,-0.097554,-0.0191682,0.0393936,-0.0191379,4.48736e-06,-6.81655e-06,-3.71863e-06,0.0366796,-0.01898565824731091,4.487370068195773e-06,-6.816526767372544e-06,0.04017981786421143,-3.7186230859020952e-06,-0.018955933062421604
51,0.04118,-0.173125,571.157,-0.267776,0.0581312,-0.0386869,-0.08873,-0.0196457,0.0403545,-0.0196147,4.67282e-06,-7.05739e-06,-3.97584e-06,0.0376245,-0.019453980774596147,4.672830917540338e-06,-7.057365096652113e-06,0.041179807019043224,-3.975832096325682e-06,-0.019423583376842912
52,0.04218,0.143623,574.855,0.203496,-0.0325884,0.0381231,0.0236708,-0.0201223,0.0413145,-0.0200894,3.38043e-06,-5.99258e-06,-2.38272e-06,0.0385681,-0.019921197660731083,3.380435713573604e-06,-5.992562044476735e-06,0.04217981956300165,-2.3827171613532983e-06,-0.01988895253770473
53,0.04318,-0.157535,577.718,-0.252642,0.0562481,-0.0329553,-0.0841616,-0.0205997,0.0422736,-0.0205672,4.76896e-06,-7.1192e-06,-4.07434e-06,0.0395126,-0.020388975613486182,4.768971371582609e-06,-7.119174658565264e-06,0.04317985371766464,-4.0743316999103385e-06,-0.020357137737830988
54,0.04418,0.286306,581.446,0.421117,-0.0741318,0.0740365,0.0774456,-0.0210754,0.0432317,-0.0210403,2.7804e-06,-5.50185e-06,-1.60915e-06,0.0404547,-0.02085486575703066,2.7804038653655994e-06,-5.501834864807265e-06,0.044179803284859265,-1.609148705283836e-06,-0.020820497159653395
55,0.04518,-0.289478,583.832,-0.458339,0.0963372,-0.0640315,-0.133693,-0.0215523,0.044189,-0.0215188,5.38087e-06,-7.60861e-06,-4.83194e-06,0.0413986,-0.021321708743992862,5.380884476879899e-06,-7.608581054641128e-06,0.04517987521860101,-4.831928326232138e-06,-0.021288922472068816
56,0.04618,-0.242322,586.941,-0.379184,0.07995,-0.0545547,-0.115017,-0.0220277,0.0451453,-0.0219936,5.56282e-06,-7.82464e-06,-5.08875e-06,0.0423404,-0.021786861828007376,5.562835472483485e-06,-7.824609387530046e-06,0.04617985879921371,-5.088737052294512e-06,-0.021753504191251216
57,0.04718,0.162307,590.432,0.237236,-0.0401048,0.0428875,0.0331258,-0.0225022,0.0461007,-0.0224658,3.87181e-06,-6.47525e-06,-3.01542e-06,0.0432808,-0.022250913857019272,3.871817495504359e-06,-6.475229035629582e-06,0.04717985665922253,-3.01541545366657e-06,-0.022215323142536603
58,0.04818,-0.205294,592.891,-0.329592,0.0707843,-0.0446378,-0.102779,-0.0229776,0.0470552,-0.022942,5.59763e-06,-7.8482e-06,-5.1443e-06,0.0442223,-0.02271562530190896,5.597645666766127e-06,-7.848169202961941e-06,0.048179867011421074,-5.144286768121731e-06,-0.02268083335887683
59,0.04918,0.335333,596.437,0.501438,-0.0909488,0.0867227,0.0985149,-0.0234512,0.0480088,-0.0234126,3.14686e-06,-5.86788e-06,-2.10145e-06,0.0451611,-0.023178357598109156,3.1468649512866875e-06,-5.867862784003641e-06,0.049179888066861466,-2.1014477920022756e-06,-0.023140651554990455
60,0.05018,0.176381,599.057,0.286148,-0.051059,0.0417731,0.0440009,-0.0239257,0.0489614,-0.0238864,3.40698e-06,-6.29816e-06,-2.51777e-06,0.0461009,-0.02364174951900122,3.4069858037000245e-06,-6.2981401666162284e-06,0.05017981301687269,-2.5177668304676715e-06,-0.023603377885759613
61,0.05118,0.0423788,601.611,0.0282894,0.00106645,0.0163962,-0.0189681,-0.0243995,0.0499132,-0.0243602,4.06569e-06,-6.60208e-06,-3.33805e-06,0.04704,-0.02410423848579102,4.065698264943407e-06,-6.602058206350847e-06,0.051179850005008465,-3.338044428757847e-06,-0.024065885028722978
62,0.05218,0.109985,604.407,0.169089,-0.0244711,0.0321198,0.0200842,-0.0248728,0.0508641,-0.0248321,3.63393e-06,-6.31898e-06,-2.70105e-06,0.047978,-0.024566020660343635,3.6339366027426934e-06,-6.318960035334165e-06,0.05217989231914233,-2.7010463521381922e-06,-0.024526319689475162
63,0.05318,-0.0307939,606.854,-0.0764538,0.0217792,-0.0011913,-0.0427226,-0.0253458,0.051814,-0.0253051,4.31523e-06,-6.80074e-06,-3.63177e-06,0.0489159,-0.02502729183333885,4.3152393105483355e-06,-6.800716874977297e-06,0.05317983284542116,-3.631763405120836e-06,-0.024987609636589303
64,0.05418,0.144658,609.673,0.217413,-0.0347166,0.0401025,0.0304661,-0.025818,0.0527631,-0.0257757,3.44994e-06,-6.16034e-06,-2.52343e-06,0.0498523,-0.025487565267025114,3.449945951139455e-06,-6.160321025183713e-06,0.05417988032223553,-2.5234268161700157e-06,-0.025446342519180876
65,0.05518,-0.0928333,611.896,-0.167501,0.0398405,-0.0170079,-0.06492,-0.0262904,0.0537112,-0.0262484,4.56746e-06,-7.00839e-06,-3.96484e-06,0.0507891,-0.025947816221358333,4.567470430760778e-06,-7.008365441318887e-06,0.055179822214319385,-3.964832140046504e-06,-0.02590690517051364
66,0.05618,0.215125,614.775,0.323731,-0.0560013,0.0575917,0.0560558,-0.0267615,0.0546585,-0.0267174,3.11401e-06,-5.87176e-06,-2.14539e-06,0.0517239,-0.02640658413386998,3.1140148484265495e-06,-5.871742761232035e-06,0.05617986765664207,-2.145387698604395e-06,-0.026363647717489225
67,0.05718,-0.183985,616.694,-0.306469,0.0674608,-0.0395247,-0.0986858,-0.0272334,0.0556048,-0.0271902,4.96778e-06,-7.31757e-06,-4.4836e-06,0.0526598,-0.026865914479298203,4.967792339494181e-06,-7.3175432266925355e-06,0.05717980371053044,-4.4835899486450614e-06,-0.02682387417873966
68,0.05818,0.328597,619.732,0.49882,-0.090853,0.0857598,0.0987183,-0.0277034,0.0565503,-0.0276573,2.57703e-06,-5.42143e-06,-1.51913e-06,0.0535928,-0.02732318003367007,2.5770333205166196e-06,-5.421415304129873e-06,0.05817983990755082,-1.519128846161344e-06,-0.02727833859868256
69,0.05918,-0.326714,621.23,-0.527532,0.111314,-0.0746674,-0.152881,-0.0281749,0.0574949,-0.0281308,5.61161e-06,-7.81109e-06,-5.3137e-06,0.054528,-0.027781689052288727,5.61162574519436e-06,-7.811059493545436e-06,0.05917986882362647,-5.313685882302188e-06,-0.02773881327937211
70,0.06018,-0.241752,623.63,-0.385001,0.0824252,-0.0558034,-0.11794,-0.0286446,0.0584386,-0.0285997,5.62163e-06,-7.87597e-06,-5.36219e-06,0.0554607,-0.028238232765256388,5.621645801312525e-06,-7.875938984658326e-06,0.060179888650975455,-5.362175623524479e-06,-0.02819459968235216
71,0.06118,0.135003,626.348,0.198227,-0.0332673,0.0368208,0.0245576,-0.0291136,0.0593814,-0.0290665,4.02624e-06,-6.60607e-06,-3.4252e-06,0.056392,-0.02869388217595059,4.0262481053598975e-06,-6.606048179924606e-06,0.061179897580131426,-3.4251941339880076e-06,-0.02864813258040655
72,0.06218,-0.170301,628.154,-0.279502,0.0619873,-0.0373739,-0.0916729,-0.0295833,0.0603233,-0.0295367,5.4963e-06,-7.74596e-06,-5.24682e-06,0.0573243,-0.02914999753241554,5.4963151046028e-06,-7.745930000080392e-06,0.0621798937999507,-5.2468062354815714e-06,-0.02910475486815467
73,0.06318,0.272906,630.87,0.411219,-0.0747696,0.0726914,0.0782967,-0.0300514,0.0612643,-0.0300023,3.4542e-06,-6.09926e-06,-2.73016e-06,0.0582542,-0.029604346069999066,3.4542059657027835e-06,-6.0992413996041606e-06,0.0631798754976165,-2.7301562731674167e-06,-0.029556698473652165
74,0.06418,-0.263742,632.293,-0.428055,0.0918637,-0.059722,-0.127794,-0.0305206,0.0622044,-0.030473,5.94821e-06,-8.06036e-06,-5.8361e-06,0.0591857,-0.030059548911885225,5.948227690621977e-06,-8.060327515435617e-06,0.06417984085864337,-5.836082970001044e-06,-0.03001337864756992
75,0.06518,-0.194422,634.452,-0.309657,0.0673537,-0.0448813,-0.0991129,-0.0309884,0.0631437,-0.03094,5.93895e-06,-8.1166e-06,-5.87435e-06,0.0601151,-0.03051318094209976,5.938967635676917e-06,-8.116567060456603e-06,0.06517989458486673,-5.8743327460142325e-06,-0.030466256644498535
76,0.06618,0.116877,636.869,0.168547,-0.0278495,0.0329213,0.0181447,-0.0314555,0.064082,-0.0314052,4.62596e-06,-7.04615e-06,-4.28796e-06,0.0610432,-0.030965922489261666,4.62597069983417e-06,-7.046125175991236e-06,0.06617982192250427,-4.287950806758367e-06,-0.0309171788492707
77,0.06718,-0.130542,638.537,-0.217011,0.049661,-0.0275734,-0.0755595,-0.0319231,0.0650195,-0.0318731,5.81486e-06,-7.96358e-06,-5.75452e-06,0.0619719,-0.031418936900882044,5.814876906429234e-06,-7.96354829080137e-06,0.06717983418806295,-5.754503442756409e-06,-0.0313705066369806
78,0.06818,0.224,640.932,0.335041,-0.0603542,0.0611247,0.0606272,-0.0323893,0.0659561,-0.0323371,4.17566e-06,-6.63423e-06,-3.74823e-06,0.0628986,-0.03187038415196808,4.1756687181315755e-06,-6.634207993516661e-06,0.0681798230424433,-3.7482229754415286e-06,-0.03181984646699865
79,0.06918,-0.198918,642.296,-0.327074,0.0718744,-0.0439983,-0.10249,-0.0328564,0.0668919,-0.0328053,6.145e-06,-8.17653e-06,-6.201e-06,0.0638264,-0.032322491897546546,6.145018880632236e-06,-8.176496572254166e-06,0.0691798935808694,-6.200980773862774e-06,-0.0322730423134564
80,0.07018,0.330206,644.838,0.502716,-0.0938963,0.0878394,0.10222,-0.0333216,0.0678267,-0.0332675,3.66431e-06,-6.19437e-06,-3.16009e-06,0.0647512,-0.03277255078250263,3.664316713614113e-06,-6.194350814947569e-06,0.07017983024296837,-3.1600850068924657e-06,-0.03272022236202898
81,0.07118,-0.321221,645.833,-0.520659,0.110629,-0.074434,-0.150659,-0.0337882,0.0687607,-0.0337361,6.70479e-06,-8.5771e-06,-6.94463e-06,0.0656782,-0.03322375383644893,6.704812477220656e-06,-8.57706321677476e-06,0.07117984513867404,-6.944605886127775e-06,-0.033173383481887475
82,0.07218,-0.220482,647.758,-0.353689,0.0763723,-0.0513524,-0.109612,-0.0342531,0.0696938,-0.0342002,6.60421e-06,-8.54604e-06,-6.868e-06,0.0666027,-0.033673103653832026,6.604231807871841e-06,-8.546003482656772e-06,0.07217982952233215,-6.867976415358967e-06,-0.033621983608902006
83,0.07318,0.11262,649.938,0.164571,-0.0276074,0.0319956,0.0182617,-0.0347173,0.0706261,-0.0346624,5.18429e-06,-7.40715e-06,-5.15508e-06,0.0675259,-0.03412156850237158,5.1843034385434805e-06,-7.407122567082425e-06,0.07317988888263027,-5.155066712614342e-06,-0.03406854032087214
84,0.07418,-0.136147,651.339,-0.227658,0.0516317,-0.0292199,-0.0779045,-0.0351821,0.0715574,-0.0351275,6.39841e-06,-8.33091e-06,-6.66112e-06,0.0684498,-0.03457040447977,6.398430469900518e-06,-8.330875298057094e-06,0.07417980685267866,-6.6610978147751965e-06,-0.03451769058477838
85,0.07518,0.222571,653.485,0.335574,-0.0611806,0.0611684,0.0620251,-0.0356456,0.072488,-0.0355887,4.72573e-06,-6.98026e-06,-4.61276e-06,0.0693715,-0.03501777741060774,4.725741166389241e-06,-6.980235638054388e-06,0.07517990385389539,-4.612749361254664e-06,-0.034962868359994737
86,0.07618,-0.196882,654.599,-0.325894,0.0716598,-0.0437841,-0.101916,-0.0361098,0.0734176,-0.036054,6.69544e-06,-8.50865e-06,-7.06993e-06,0.0702945,-0.03546561820644323,6.695462414496589e-06,-8.508613801527787e-06,0.0761798557981721,-7.069905008094679e-06,-0.035411795686304814
87,0.07718,0.321153,656.884,0.491589,-0.0925664,0.0861859,0.10093,-0.0365722,0.0743464,-0.0365135,4.24736e-06,-6.55947e-06,-4.07153e-06,0.0712144,-0.03591151580511487,4.2473690200495184e-06,-6.559448486709307e-06,0.07717987598572207,-4.07152171133518e-06,-0.03585492215008512
88,0.07818,-0.307031,657.663,-0.500943,0.106922,-0.0713978,-0.14567,-0.037036,0.0752743,-0.0369792,7.19983e-06,-8.85754e-06,-7.74903e-06,0.0721365,-0.036358556367364514,7.199855918793574e-06,-8.857500772063709e-06,0.07817985506119296,-7.748999976353588e-06,-0.036303819978867446
89,0.07918,-0.204698,659.355,-0.329796,0.0716336,-0.0478624,-0.103412,-0.0374981,0.0762014,-0.0374404,7.05868e-06,-8.79546e-06,-7.62546e-06,0.073056,-0.03680375220804599,7.058704912576985e-06,-8.795421320040298e-06,0.07917989910360657,-7.625430926250232e-06,-0.03674817418113774
90,0.08018,0.102073,661.27,0.148072,-0.0247326,0.0296538,0.0150623,-0.0379596,0.0771276,-0.0379,5.74766e-06,-7.73642e-06,-6.04928e-06,0.0739743,-0.037248164720327104,5.747676517842137e-06,-7.736390074009059e-06,0.08017989855441487,-6.049261703111597e-06,-0.037190783000986216
91,0.08118,-0.118386,662.48,-0.200121,0.0461045,-0.0249314,-0.0705302,-0.0384215,0.0780529,-0.0383622,6.82912e-06,-8.55139e-06,-7.39043e-06,0.0748932,-0.03769275710652664,6.829143318398678e-06,-8.551353436914155e-06,0.08117985157146568,-7.390402690821141e-06,-0.0376356905950177
92,0.08218,0.198147,664.351,0.298256,-0.0543059,0.0554065,0.0538175,-0.0388822,0.0789774,-0.0388208,5.34476e-06,-7.35012e-06,-5.58056e-06,0.0758101,-0.03813598994680345,5.344774283155829e-06,-7.350092987912227e-06,0.08217986452900727,-5.580544428673839e-06,-0.03807692968345466
93,0.08318,-0.165506,665.317,-0.277235,0.0619286,-0.0362211,-0.0894327,-0.0393436,0.079901,-0.039283,7.06046e-06,-8.67184e-06,-7.72337e-06,0.0767279,-0.03857969163119179,7.060484925158761e-06,-8.671802399717876e-06,0.08317982756373188,-7.72334017484777e-06,-0.03852142779512824
94,0.08418,0.277804,667.295,0.425003,-0.0799111,0.0757255,0.0855943,-0.0398033,0.0808238,-0.0397401,4.95163e-06,-6.99287e-06,-5.14849e-06,0.0776431,-0.03902155497687754,4.95164225933209e-06,-6.992845549946836e-06,0.08417984724672456,-5.148476746597019e-06,-0.03896081921992234
95,0.08518,-0.252371,667.99,-0.416066,0.0900328,-0.0581449,-0.124289,-0.0402641,0.0817457,-0.0402025,7.45623e-06,-8.92944e-06,-8.27112e-06,0.0785599,-0.03946427183454648,7.4562577978554145e-06,-8.929400132640097e-06,0.0851798135115287,-8.271085794375743e-06,-0.03940510101124883
96,0.08618,-0.168878,669.454,-0.272568,0.0600588,-0.0394874,-0.0889311,-0.0407235,0.0826668,-0.040661,7.32773e-06,-8.8851e-06,-8.16975e-06,0.0794744,-0.03990544060384038,7.327756847974598e-06,-8.885060527652477e-06,0.08617983312608413,-8.169716627648427e-06,-0.03984543281865438
97,0.08718,0.0915121,671.108,0.13022,-0.0214357,0.0273269,0.0112973,-0.0411822,0.0835871,-0.0411181,6.21772e-06,-7.96678e-06,-6.84214e-06,0.0803879,-0.04034573498899807,6.217739330072192e-06,-7.966748265308965e-06,0.08717990453878621,-6.842116592631342e-06,-0.04028421917905023
98,0.08818,-0.0929243,672.17,-0.159466,0.0379893,-0.0186143,-0.0597925,-0.0416413,0.0845064,-0.0415772,7.11955e-06,-8.64155e-06,-7.95644e-06,0.0813017,-0.04078621114302683,7.119575344161078e-06,-8.64151266188884e-06,0.08817980856049301,-7.956408347609134e-06,-0.04072472356850532
99,0.08918,0.168022,673.776,0.250856,-0.045213,0.0480838,0.0428083,-0.0420993,0.085425,-0.0420334,5.89129e-06,-7.64003e-06,-6.47131e-06,0.0822137,-0.041225430469419844,5.891307353733666e-06,-7.640000814990167e-06,0.08917986979043646,-6.471289061171781e-06,-0.04116224514335409
100,0.09018,-0.1273,674.643,-0.216825,0.0497868,-0.0268579,-0.0739631,-0.0425578,0.0863427,-0.0424924,7.28715e-06,-8.70841e-06,-8.21691e-06,0.0831263,-0.04166492784707643,7.287176551296071e-06,-8.708372081889237e-06,0.0901798689363702,-8.21687624130707e-06,-0.04160225068383672
101,0.09118,0.228028,676.323,0.34715,-0.0647235,0.0634214,0.0670813,-0.0430148,0.0872595,-0.0429473,5.58736e-06,-7.35084e-06,-6.15214e-06,0.0840366,-0.042102786916632384,5.587375609295009e-06,-7.350812982642729e-06,0.09117980414046967,-6.152121075575501e-06,-0.04203812667249052
102,0.09218,-0.19156,676.979,-0.320295,0.0708095,-0.0431699,-0.100064,-0.0434727,0.0881756,-0.0434062,7.57672e-06,-8.87811e-06,-8.63617e-06,0.0849481,-0.04254130764352071,7.5767487033306935e-06,-8.8780705896907e-06,0.09217989197933463,-8.63613270840613e-06,-0.042477634523371166
103,0.09318,0.305901,678.796,0.472271,-0.0901972,0.0833293,0.09856,-0.0439288,0.0890907,-0.0438594,5.19123e-06,-6.98923e-06,-5.72308e-06,0.0858566,-0.04297790497951337,5.191243474422791e-06,-6.989205575402835e-06,0.09317980323810349,-5.7230636232308285e-06,-0.042911485341384115
104,0.09418,-0.282129,679.186,-0.465509,0.100363,-0.0661819,-0.136687,-0.0443861,0.0900051,-0.0443186,7.99016e-06,-9.14232e-06,-9.21015e-06,0.0867671,-0.04341545113101353,7.990191921436463e-06,-9.142278209139931e-06,0.09417986400828693,-9.210107586699046e-06,-0.04335087949469674
105,0.09518,-0.177791,680.455,-0.288734,0.0635448,-0.0419492,-0.0927089,-0.0448418,0.0909186,-0.0447734,7.78361e-06,-9.0294e-06,-9.01152e-06,0.0876751,-0.043851267401654015,7.783640292302607e-06,-9.029359235079859e-06,0.09517985398994333,-9.011479396359157e-06,-0.043785864591593726
106,0.09618,0.0845582,681.896,0.120731,-0.0198143,0.02558,0.00972282,-0.045297,0.0918313,-0.0452269,6.65731e-06,-8.10668e-06,-7.6665e-06,0.088582,-0.044286407259387484,6.657332159987206e-06,-8.106647140904144e-06,0.09617988093555607,-7.666470612455178e-06,-0.04421940938828839
107,0.09718,-0.0898909,682.755,-0.155576,0.0371552,-0.0180953,-0.0585036,-0.0457525,0.0927431,-0.0456824,7.52219e-06,-8.74455e-06,-8.73951e-06,0.0894892,-0.04472163567008525,7.5222182918111e-06,-8.744511766578533e-06,0.09717983356011639,-8.739471810570443e-06,-0.0446546683095671
108,0.09818,0.159097,684.138,0.238442,-0.0431139,0.0459627,0.0405935,-0.0462069,0.0936541,-0.0461351,6.34173e-06,-7.78396e-06,-7.31362e-06,0.0903947,-0.04515561555114045,6.341750108829203e-06,-7.783929705018622e-06,0.09817981981306878,-7.313593255564577e-06,-0.04508705526305212
109,0.09918,-0.11717,684.822,-0.201661,0.0467336,-0.0245604,-0.0698531,-0.0466618,0.0945643,-0.0465905,7.65752e-06,-8.78111e-06,-8.96258e-06,0.0913008,-0.045589875481716446,7.657549318862422e-06,-8.781071446195554e-06,0.09917983812435627,-8.962539836177008e-06,-0.04552182361381796
110,0.1002,0.211346,686.269,0.32254,-0.0602294,0.0594164,0.0619002,-0.0471154,0.0954737,-0.0470419,6.07404e-06,-7.51895e-06,-7.04267e-06,0.0922046,-0.04602269774268786,6.07405844710307e-06,-7.518921732785344e-06,0.1001798869224142,-7.042645200461273e-06,-0.0459525778340969
111,0.1012,-0.171103,686.774,-0.288917,0.0645555,-0.0383386,-0.091958,-0.0475696,0.0963822,-0.0474971,7.89931e-06,-8.90881e-06,-9.32527e-06,0.0931094,-0.04645589584663645,7.899341199602006e-06,-8.908770316673476e-06,0.10117985451618394,-9.325226519751872e-06,-0.04638676139299169
112,0.1022,0.276274,688.336,0.427313,-0.0816601,0.076105,0.0883829,-0.0480222,0.0972899,-0.047947,5.73829e-06,-7.20137e-06,-6.69109e-06,0.0940115,-0.0468873722576989,5.7383064639981995e-06,-7.2013440701734766e-06,0.10217984924907819,-6.691067614750246e-06,-0.04681569549308007
113,0.1032,-0.245527,688.62,-0.408771,0.0890699,-0.0573719,-0.122306,-0.0484759,0.0981968,-0.0484023,8.23768e-06,-9.11011e-06,-9.80838e-06,0.0949152,-0.04731970137562913,8.237713929881707e-06,-9.110068503126456e-06,0.103179869545025,-9.808331898009115e-06,-0.04724958152527159
114,0.1042,0.362787,690.354,0.566846,-0.110261,0.0984177,0.12363,-0.0489274,0.0991028,-0.0488504,5.29707e-06,-6.80036e-06,-6.21207e-06,0.0958154,-0.04774973944205918,5.29708402940976e-06,-6.800336877610391e-06,0.10417980340847444,-6.2120507051677265e-06,-0.047676413348977875
115,0.1052,-0.34499,690.359,-0.568875,0.121846,-0.0827996,-0.162911,-0.0493806,0.100008,-0.049306,8.69692e-06,-9.40242e-06,-1.04434e-05,0.0967182,-0.04818120148346061,8.696957818354889e-06,-9.402375797384899e-06,0.10517975947835789,-1.0443345467847642e-05,-0.048110193152513525
116,0.1062,-0.201628,691.456,-0.32994,0.0722737,-0.0481341,-0.10281,-0.0498319,0.100913,-0.0497563,8.35738e-06,-9.17439e-06,-1.00763e-05,0.0976181,-0.04861066039253925,8.35741492299924e-06,-9.174347915363867e-06,0.10618039988217265,-1.0076249234214352e-05,-0.048538732639630155
117,0.1072,0.0767597,692.703,0.110747,-0.0180773,0.0234754,0.00808681,-0.0502827,0.101816,-0.0502053,7.15004e-06,-8.20666e-06,-8.63434e-06,0.0985169,-0.049039450050383904,7.150065561623009e-06,-8.206626325502064e-06,0.10717973191377306,-8.634302724241927e-06,-0.04896584285525607
118,0.1082,-0.0924028,693.355,-0.160952,0.0381691,-0.0190642,-0.0596062,-0.0507338,0.102719,-0.0506566,8.00723e-06,-8.82775e-06,-9.70482e-06,0.0994161,-0.04946833161295694,8.00726205785196e-06,-8.827711035497288e-06,0.10817996674975294,-9.704772908403214e-06,-0.04939494773557618
119,0.1092,0.154455,694.529,0.233327,-0.0424763,0.0448589,0.0402717,-0.051184,0.103621,-0.051105,6.82669e-06,-7.87289e-06,-8.27603e-06,0.100314,-0.04989616465762026,6.826713301988363e-06,-7.872859008828392e-06,0.10917999602516226,-8.275995753703747e-06,-0.049821103489751106
120,0.1102,-0.113171,695.018,-0.196453,0.0456849,-0.0238351,-0.0682227,-0.0516345,0.104522,-0.051556,8.11448e-06,-8.83771e-06,-9.89368e-06,0.101212,-0.05032409003801275,8.114512922485773e-06,-8.83767094750354e-06,0.11017981755354134,-9.893631057744656e-06,-0.05024953755293404
121,0.1112,0.201528,696.249,0.309097,-0.0579762,0.0571018,0.0595643,-0.0520837,0.105422,-0.0520031,6.58433e-06,-7.62349e-06,-8.03936e-06,0.102107,-0.05075058865800608,6.584351676774958e-06,-7.623460941297289e-06,0.1111794291470829,-8.03932768445037e-06,-0.05067407607203611
122,0.1122,-0.159283,696.584,-0.271312,0.0610687,-0.035696,-0.0872626,-0.0525336,0.106322,-0.052454,8.32039e-06,-8.93365e-06,-1.02137e-05,0.103004,-0.05117755991378292,8.320424614627342e-06,-8.933610095018807e-06,0.11217994079602267,-1.0213647840373596e-05,-0.05110203064152685
123,0.1132,0.256861,697.916,0.398692,-0.0764003,0.071414,0.0823092,-0.052982,0.107221,-0.0528997,6.29372e-06,-7.33828e-06,-7.74616e-06,0.103898,-0.05160291652383864,6.29373980554071e-06,-7.338253074862244e-06,0.11318024012997885,-7.746129998542628e-06,-0.051524860231896175
124,0.1142,-0.221595,698.066,-0.372071,0.0817899,-0.0517397,-0.112883,-0.0534313,0.108119,-0.0533505,8.60262e-06,-9.08756e-06,-1.0629e-05,0.104794,-0.05202893562108757,8.602657002532155e-06,-9.087518708206233e-06,0.11418032495649655,-1.0628943512336342e-05,-0.051952336464521465
125,0.1152,0.328275,699.542,0.514378,-0.10023,0.0899357,0.111671,-0.0538786,0.109016,-0.0537947,5.9236e-06,-6.99077e-06,-7.3567e-06,0.105686,-0.05245286825858164,5.9236175444787875e-06,-6.990745564650069e-06,0.11518019308179483,-7.356672939495823e-06,-0.05237336571914364
126,0.1162,-0.302605,699.464,-0.503052,0.108742,-0.0725895,-0.146239,-0.0543274,0.109912,-0.0542455,8.97584e-06,-9.30966e-06,-1.11584e-05,0.106581,-0.05287803199742769,8.975880283035309e-06,-9.309616665231779e-06,0.11617984231077272,-1.1158337745231783e-05,-0.052800459531699206
127,0.1172,-0.174133,700.366,-0.285893,0.0633494,-0.0416968,-0.0914997,-0.0547744,0.110808,-0.0546916,8.64776e-06,-9.09643e-06,-1.08092e-05,0.107472,-0.05330130090947527,8.647797391958534e-06,-9.096388627560792e-06,0.11718038762684713,-1.080914158080315e-05,-0.05322291101189358
128,0.1182,0.0687002,701.394,0.0972273,-0.0154945,0.0215536,0.00530451,-0.055221,0.111702,-0.0551366,7.59476e-06,-8.23858e-06,-9.55701e-06,0.108363,-0.05372400215227591,7.594788840270539e-06,-8.238546063021879e-06,0.11817959347184814,-9.556964331913775e-06,-0.0536441330876305
129,0.1192,-0.0742609,701.91,-0.131615,0.0322572,-0.0145854,-0.0516731,-0.0556678,0.112596,-0.0555834,8.3202e-06,-8.75767e-06,-1.04617e-05,0.109254,-0.054146703829527576,8.320234613057309e-06,-8.757631651756803e-06,0.11917969300629427,-1.0461645276627074e-05,-0.05406687044240921
130,0.1202,0.132962,702.866,0.199422,-0.0358615,0.0394416,0.0324263,-0.0561137,0.113489,-0.0560277,7.32426e-06,-7.9469e-06,-9.26581e-06,0.110144,-0.05456836579776769,7.324286822374404e-06,-7.94686842342518e-06,0.12017956684937414,-9.265767072497155e-06,-0.0544870551809199
131,0.1212,-0.0877089,703.254,-0.155592,0.0373663,-0.0175816,-0.0575082,-0.0565599,0.114382,-0.0564742,8.39014e-06,-8.73714e-06,-1.06084e-05,0.111034,-0.054990123291854376,8.390175197270366e-06,-8.737101831357563e-06,0.12118033397858863,-1.0608343731122183e-05,-0.0549091324750135
132,0.1222,0.16841,704.249,0.257002,-0.0476702,0.0486862,0.0471737,-0.057005,0.115273,-0.0569174,7.13604e-06,-7.73879e-06,-9.09719e-06,0.111921,-0.055410653592016024,7.136065461654795e-06,-7.738760055664429e-06,0.1221797508302529,-9.097148620740292e-06,-0.055327903940888934
133,0.1232,-0.121183,704.52,-0.210438,0.0486769,-0.0262367,-0.0715338,-0.0574505,0.116164,-0.0573636,8.53641e-06,-8.78423e-06,-1.08562e-05,0.11281,-0.055831374423317315,8.536446435281064e-06,-8.78419141880915e-06,0.1231800585591587,-1.0856141071657888e-05,-0.055749322604654816
134,0.1242,0.208394,705.586,0.322208,-0.0611217,0.0590638,0.0638242,-0.0578947,0.117054,-0.0578056,6.91916e-06,-7.50959e-06,-8.89547e-06,0.113696,-0.05625068099191499,6.919183937359463e-06,-7.509561803065168e-06,0.12418013377873582,-8.895430435473806e-06,-0.05616658918135686
135,0.1252,-0.165679,705.721,-0.282818,0.0636244,-0.0377632,-0.0900109,-0.0583396,0.117943,-0.0582515,8.73438e-06,-8.87082e-06,-1.11681e-05,0.114583,-0.05667046167680423,8.734418144751288e-06,-8.870780654368637e-06,0.12517997428091876,-1.1168037637010464e-05,-0.05658735068349241
136,0.1262,0.258674,706.888,0.404119,-0.0780538,0.072147,0.0847239,-0.0587829,0.118831,-0.0586922,6.65115e-06,-7.24049e-06,-8.63196e-06,0.115468,-0.05708854698568744,6.6511721188433626e-06,-7.240463787749896e-06,0.12617957785638168,-8.631922744695153e-06,-0.05700302103835597
137,0.1272,-0.22219,706.859,-0.374633,0.0826012,-0.0524045,-0.113474,-0.0592272,0.119719,-0.0591379,8.99121e-06,-9.00155e-06,-1.15534e-05,0.116354,-0.05750738949150902,8.991250421086505e-06,-9.001509486128434e-06,0.12718006947405214,-1.1553333259750609e-05,-0.05742322114332976
138,0.1282,0.32225,708.16,0.507651,-0.099486,0.0887346,0.111125,-0.0596695,0.120606,-0.0595772,6.31754e-06,-6.92026e-06,-8.28908e-06,0.117237,-0.0579241617971471,6.317559955615337e-06,-6.920236055085738e-06,0.1281803217419759,-8.289045645648585e-06,-0.05783720418424887
139,0.1292,-0.293349,707.931,-0.490266,0.106514,-0.0708288,-0.143063,-0.0601132,0.121492,-0.060023,9.32016e-06,-9.18594e-06,-1.20294e-05,0.118122,-0.058342068127182345,9.320203432805485e-06,-9.185897809405041e-06,0.1291803324463643,-1.202932764710063e-05,-0.05825712675092887
140,0.1302,-0.163242,708.672,-0.269252,0.0601182,-0.0393191,-0.0870987,-0.0605553,0.122377,-0.060464,8.96095e-06,-8.9493e-06,-1.16423e-05,0.119004,-0.058758283087767094,8.96099014946472e-06,-8.949259955093325e-06,0.13018009937219044,-1.1642232228714633e-05,-0.05867234379594399
141,0.1312,0.0612932,709.517,0.0857092,-0.0132635,0.0196447,0.00299983,-0.0609969,0.123261,-0.0609041,7.98433e-06,-8.15057e-06,-1.04841e-05,0.119885,-0.059173843667426285,7.984361874768808e-06,-8.150536784157225e-06,0.13117962030319674,-1.0484045042002954e-05,-0.059086530948871174
142,0.1322,-0.063895,709.898,-0.115051,0.0289105,-0.0121407,-0.0470844,-0.0614387,0.124145,-0.0613458,8.6253e-06,-8.60188e-06,-1.12846e-05,0.120767,-0.05958940885818398,8.625337198031602e-06,-8.60184300388589e-06,0.13218002520136207,-1.1284536329148054e-05,-0.05950204065607678
143,0.1332,0.118521,710.669,0.177212,-0.0315444,0.0357282,0.0274699,-0.0618797,0.125028,-0.0617853,7.74311e-06,-7.8818e-06,-1.02307e-05,0.121647,-0.06000403849632252,7.74313997786713e-06,-7.88176893873338e-06,0.1331801816677105,-1.023064766658699e-05,-0.05991529868910361
144,0.1342,-0.0718136,710.944,-0.130143,0.0321789,-0.0137552,-0.050716,-0.0623209,0.12591,-0.0622267,8.66839e-06,-8.55934e-06,-1.13999e-05,0.122527,-0.060418673239387655,8.668427570635018e-06,-8.559303368960158e-06,0.1341800874815844,-1.13998350214084e-05,-0.06033016050952267
145,0.1352,0.146418,711.743,0.22284,-0.0409283,0.0430383,0.0392235,-0.062761,0.126791,-0.0626652,7.59132e-06,-7.70094e-06,-1.01079e-05,0.123406,-0.06083209200182349,7.591348814228738e-06,-7.70091034785203e-06,0.1351797404211179,-1.010784891530836e-05,-0.060742115406427155
146,0.1362,-0.096785,711.929,-0.171418,0.0407249,-0.0202456,-0.0613282,-0.0632015,0.127672,-0.0631061,8.77504e-06,-8.57407e-06,-1.15996e-05,0.124284,-0.061245704360486486,8.775078500722344e-06,-8.57403324272532e-06,0.136180274442951,-1.1599532724893002e-05,-0.06115614292867011
147,0.1372,0.176253,712.78,0.271823,-0.0510686,0.0508131,0.0518012,-0.0636409,0.128551,-0.0635435,7.42412e-06,-7.50922e-06,-9.96796e-06,0.125161,-0.061658102387508795,7.424147558943162e-06,-7.509191805921134e-06,0.1371794159625528,-9.967910320041184e-06,-0.06156670343562465
148,0.1382,-0.129506,712.864,-0.224953,0.0518294,-0.0287724,-0.0750515,-0.0640807,0.12943,-0.063984,8.91775e-06,-8.61653e-06,-1.18435e-05,0.126039,-0.06207069441844071,8.917789763307482e-06,-8.616492877866477e-06,0.13817943611365213,-1.1843429866043031e-05,-0.06197999226921269
149,0.1392,0.2127,713.788,0.331543,-0.0634601,0.0603336,0.0671186,-0.0645191,0.130309,-0.0644203,7.22384e-06,-7.29183e-06,-9.78806e-06,0.126914,-0.06248179250672248,7.223866091976561e-06,-7.29180341463298e-06,0.13918033566890586,-9.788012097056153e-06,-0.06238916113190762
150,0.1402,-0.170044,713.753,-0.291146,0.0655726,-0.0393426,-0.0920302,-0.0649583,0.131186,-0.0648605,9.09902e-06,-8.68794e-06,-1.21354e-05,0.12779,-0.06289346009463381,9.09906139612282e-06,-8.68790225994065e-06,0.14017983503969966,-1.2135326366347066e-05,-0.06280180659324786
151,0.1412,0.257594,714.771,0.405032,-0.0787307,0.0720885,0.0859537,-0.0653959,0.132063,-0.0652955,6.98174e-06,-7.04209e-06,-9.55751e-06,0.128664,-0.06330344820455547,6.981764372415711e-06,-7.0420652045211085e-06,0.14118021135592596,-9.557464327181187e-06,-0.06320939914957158
152,0.1422,-0.219804,714.593,-0.372383,0.0824492,-0.0523123,-0.112889,-0.0658345,0.132939,-0.0657356,9.32616e-06,-8.79342e-06,-1.24846e-05,0.129539,-0.06371419322920435,9.326203488813078e-06,-8.793381337968142e-06,0.14218032320610896,-1.2484522067701675e-05,-0.06362158998375977
153,0.1432,0.312707,715.732,0.495242,-0.0974968,0.0865533,0.109065,-0.0662712,0.133814,-0.0661692,6.68878e-06,-6.75308e-06,-9.26535e-06,0.130411,-0.06412297997593852,6.6888023699807064e-06,-6.753057197994572e-06,0.14318016835737568,-9.265307076788964e-06,-0.06402751565129827
154,0.1442,-0.280599,715.385,-0.471675,0.103085,-0.068147,-0.138418,-0.0667092,0.134688,-0.0666092,9.60821e-06,-8.93944e-06,-1.29028e-05,0.131285,-0.06453280435261866,9.60825615892169e-06,-8.939400043317391e-06,0.14417974457569827,-1.290271675924437e-05,-0.06443925295556208
155,0.1452,0.380099,716.676,0.605591,-0.120476,0.104284,0.137326,-0.0671449,0.135562,-0.0670413,6.33441e-06,-6.41663e-06,-8.89895e-06,0.132155,-0.0649402986306874,6.334430062482355e-06,-6.416609413473218e-06,0.1451801948055227,-8.898910404453453e-06,-0.06484342142747312
156,0.1462,-0.354578,716.126,-0.592573,0.128218,-0.0873966,-0.169546,-0.0675824,0.136435,-0.0674814,9.95578e-06,-9.13356e-06,-1.34037e-05,0.133028,-0.06534929777494991,9.955829558982998e-06,-9.13351828912834e-06,0.14618037363012282,-1.3403610170770186e-05,-0.06525489328667877
157,0.1472,-0.183386,716.763,-0.304861,0.0678857,-0.0447092,-0.0960102,-0.0680179,0.137307,-0.0679158,9.44181e-06,-8.77023e-06,-1.28201e-05,0.133898,-0.06575624953559123,9.441854573966069e-06,-8.770191541662697e-06,0.14718027881122797,-1.2820017822878782e-05,-0.06566085837903313
158,0.1482,0.051513,717.468,0.0721676,-0.0105881,0.0168766,0.000256826,-0.0684531,0.138178,-0.0683494,8.40883e-06,-7.94762e-06,-1.15934e-05,0.134767,-0.0661627439561916,8.408865354248007e-06,-7.947588417711593e-06,0.14817990810943527,-1.1593332796766553e-05,-0.06606590001146806
159,0.1492,-0.0641797,717.709,-0.116472,0.0291917,-0.0125679,-0.0472403,-0.0688885,0.139049,-0.0687847,9.01945e-06,-8.3672e-06,-1.2362e-05,0.135636,-0.06656924819507837,9.01949067544372e-06,-8.367164995082277e-06,0.14918040846405134,-1.2361923590775703e-05,-0.06647235305427024
160,0.1502,0.11168,718.323,0.168215,-0.0298973,0.0338707,0.0259355,-0.0693231,0.139918,-0.0692179,8.16078e-06,-7.67203e-06,-1.13331e-05,0.136504,-0.06697482906070695,8.160813299351588e-06,-7.672000570058124e-06,0.15017948027283579,-1.1333035780713985e-05,-0.06687666964962968
161,0.1512,-0.0666347,718.466,-0.12238,0.0306165,-0.0127118,-0.0484398,-0.0697579,0.140787,-0.0696528,9.03919e-06,-8.30554e-06,-1.24467e-05,0.137371,-0.06738042022312285,9.039230853602476e-06,-8.305505509120792e-06,0.15117942065236134,-1.244662254018536e-05,-0.0672823967542453
162,0.1522,0.135785,719.103,0.20752,-0.0380199,0.0402657,0.0361117,-0.0701917,0.141656,-0.070085,8.02979e-06,-7.50581e-06,-1.12364e-05,0.138238,-0.06778490285820349,8.02982223890858e-06,-7.505781831507186e-06,0.15218023035774442,-1.1236336871944808e-05,-0.0676854302005665
163,0.1532,-0.0860923,719.174,-0.15466,0.0373456,-0.0178034,-0.0567722,-0.0706258,0.142523,-0.0705195,9.12106e-06,-8.30059e-06,-1.26152e-05,0.139104,-0.06818948960996485,9.121101596898384e-06,-8.300555550233568e-06,0.1531796037832429,-1.2615120428716153e-05,-0.06809043288793881
164,0.1542,0.159361,719.853,0.246345,-0.0461005,0.0464486,0.0461231,-0.0710588,0.14339,-0.0709507,7.89444e-06,-7.33813e-06,-1.1136e-05,0.139969,-0.06859287622145971,7.894471161229433e-06,-7.338103075960056e-06,0.15417984404121898,-1.1135937994954936e-05,-0.06849218566915305
165,0.1552,-0.111339,719.847,-0.196136,0.045998,-0.0244275,-0.0674484,-0.0714922,0.144256,-0.0713847,9.22949e-06,-8.31607e-06,-1.28163e-05,0.140834,-0.06899646060585196,9.229532591970013e-06,-8.316035421618295e-06,0.15517979670316806,-1.2816217871525204e-05,-0.06889637234571955
166,0.1562,0.18706,720.583,0.291952,-0.0556099,0.0537231,0.0578794,-0.0719244,0.145121,-0.0718149,7.73795e-06,-7.15436e-06,-1.10099e-05,0.141697,-0.06939875339384438,7.73797993791625e-06,-7.154334407677432e-06,0.15617945951915302,-1.100983939128497e-05,-0.0692968469780666
167,0.1572,-0.14171,720.486,-0.245964,0.0563988,-0.0324005,-0.0802846,-0.0723572,0.145986,-0.0722485,9.36348e-06,-8.35066e-06,-1.30492e-05,0.142561,-0.0698014304677711,9.363523837624399e-06,-8.350625133379808e-06,0.1571799874175681,-1.3049114859553512e-05,-0.06970031238759489
168,0.1582,0.220106,721.293,0.346343,-0.0669641,0.0624185,0.0718924,-0.0727885,0.14685,-0.0726776,7.55472e-06,-6.95023e-06,-1.08513e-05,0.143422,-0.07020253860562264,7.554748536975353e-06,-6.9502058471782036e-06,0.15818022296623147,-1.0851241124876232e-05,-0.07009941834924138
169,0.1592,-0.177871,721.093,-0.305299,0.0687895,-0.0418903,-0.0955853,-0.0732207,0.147713,-0.0731109,9.52669e-06,-8.40684e-06,-1.33185e-05,0.144285,-0.070604310239333,9.526735379017381e-06,-8.406804662630663e-06,0.15918016391110856,-1.3318411309137801e-05,-0.07050225698997648
170,0.1602,0.259451,721.987,0.411104,-0.0804956,0.0727913,0.0885726,-0.0736512,0.148575,-0.0735388,7.33993e-06,-6.72202e-06,-1.06544e-05,0.145145,-0.07100432897356446,7.339956937357783e-06,-6.721997407255209e-06,0.16017980799710263,-1.065434324210024e-05,-0.07089990399156709
171,0.1612,-0.220745,721.666,-0.375685,0.0834924,-0.0531354,-0.113756,-0.0740827,0.149437,-0.0739718,9.72378e-06,-8.4879e-06,-1.36303e-05,0.146006,-0.07140510413215351,9.723827276042485e-06,-8.487863977890697e-06,0.16118031414779543,-1.3630207107873105e-05,-0.07130211724768454
172,0.1622,0.306134,722.667,0.48797,-0.0965701,0.0851227,0.108366,-0.0745124,0.150297,-0.0743984,7.08817e-06,-6.46563e-06,-1.04126e-05,0.146865,-0.07180403564233473,7.088195121074392e-06,-6.465609097894287e-06,0.1621793587455651,-1.0412545789040273e-05,-0.07169821527075138
173,0.1632,-0.271398,722.206,-0.458896,0.100878,-0.0664114,-0.135264,-0.0749433,0.151158,-0.0748314,9.96007e-06,-8.59762e-06,-1.39913e-05,0.147725,-0.07220390912444752,9.960119601748474e-06,-8.597583040614865e-06,0.16318042607108607,-1.3991202122198843e-05,-0.07210008293291137
174,0.1642,0.361338,723.335,0.578908,-0.115603,0.0997342,0.131778,-0.0753721,0.152017,-0.0752566,6.79328e-06,-6.1763e-06,-1.01187e-05,0.148581,-0.07260166280373148,6.7933030742928224e-06,-6.176280926695199e-06,0.16418002732435388,-1.0118648806178854e-05,-0.07249454210968431
175,0.1652,-0.331038,722.711,-0.556934,0.121367,-0.0820295,-0.160637,-0.0758025,0.152875,-0.0756895,1.02416e-05,-8.74021e-06,-1.44094e-05,0.14944,-0.07300072916281986,1.0241652445452942e-05,-8.740171804522134e-06,0.16517932242409206,-1.4409296185124987e-05,-0.07289597232656553
176,0.1662,-0.16554,723.217,-0.276607,0.0622704,-0.0405842,-0.0886712,-0.0762311,0.153733,-0.0761169,9.71493e-06,-8.37152e-06,-1.38104e-05,0.150297,-0.07339795591852616,9.714977190045104e-06,-8.371484958913378e-06,0.16617947528695387,-1.3810304636874271e-05,-0.07329213192265693
177,0.1672,0.0440948,723.769,0.0602495,-0.00815474,0.0149087,-0.00224421,-0.0766593,0.15459,-0.0765437,8.79011e-06,-7.6311e-06,-1.27152e-05,0.151152,-0.07379464197725549,8.790148633197603e-06,-7.631070883196145e-06,0.1671793194693123,-1.2715119162232114e-05,-0.07368756644902175
178,0.1682,-0.0520428,723.916,-0.0965775,0.0251831,-0.00964618,-0.0417557,-0.0770877,0.155447,-0.0769719,9.30379e-06,-7.97604e-06,-1.33628e-05,0.152008,-0.07419134337312627,9.303833280460694e-06,-7.976008191468154e-06,0.16818002088540718,-1.3362710718167747e-05,-0.07408412852306889
179,0.1692,0.0960632,724.378,0.143797,-0.0249918,0.0297357,0.0202875,-0.0775154,0.156303,-0.0773983,8.57546e-06,-7.38425e-06,-1.24961e-05,0.152862,-0.07458722706980225,8.575496769358537e-06,-7.384222736495083e-06,0.16918041108920723,-1.2496021924102152e-05,-0.07447885488902484
180,0.1702,-0.0503886,724.448,-0.0957845,0.0251749,-0.00876877,-0.0412991,-0.0779431,0.157157,-0.0778261,9.30302e-06,-7.89986e-06,-1.34227e-05,0.153716,-0.07498294148322493,9.303063273291556e-06,-7.899828796231745e-06,0.1701793176326616,-1.3422609915991757e-05,-0.07487470815585229
181,0.1712,0.113705,724.923,0.172824,-0.0310012,0.0344398,0.0278548,-0.0783701,0.158012,-0.0782516,8.47674e-06,-7.24385e-06,-1.24383e-05,0.154569,-0.07537783945049548,8.47677592763496e-06,-7.243823763380952e-06,0.1711802487863303,-1.243822264462846e-05,-0.07526826523232621
182,0.1722,-0.0631862,724.943,-0.117321,0.0296818,-0.0121335,-0.0468993,-0.0787971,0.158865,-0.0786789,9.35428e-06,-7.87172e-06,-1.35526e-05,0.155421,-0.07577256883232952,9.354323751376015e-06,-7.87168901805746e-06,0.17217969174036463,-1.3552508163927612e-05,-0.07566331869340948
183,0.1732,0.12952,725.446,0.199115,-0.0364893,0.0386023,0.0346814,-0.0792233,0.159718,-0.0791035,8.38114e-06,-7.10731e-06,-1.23857e-05,0.156273,-0.07616639063410591,8.381175121918716e-06,-7.107284743179676e-06,0.17317998758294406,-1.2385623297528348e-05,-0.07605570873799061
184,0.1742,-0.0797797,725.413,-0.144794,0.0354403,-0.0165152,-0.0540057,-0.0796497,0.16057,-0.0795302,9.42249e-06,-7.8569e-06,-1.3703e-05,0.157124,-0.07656022931276607,9.422534391845261e-06,-7.85686913462591e-06,0.17417996286134274,-1.370290611435454e-05,-0.0764498716664308
185,0.1752,0.147422,725.953,0.228828,-0.0427069,0.0433208,0.0423895,-0.0800751,0.161421,-0.079954,8.27465e-06,-6.9626e-06,-1.23199e-05,0.157974,-0.07695297704785031,8.274684234921281e-06,-6.962575761160217e-06,0.17517961530152193,-1.23198241103184e-05,-0.07684118928475836
186,0.1762,-0.0992019,725.862,-0.176855,0.0421663,-0.02165,-0.0623005,-0.0805009,0.162272,-0.0803802,9.50491e-06,-7.85281e-06,-1.38708e-05,0.158824,-0.07734592680528296,9.504955171824037e-06,-7.852779166817037e-06,0.176180118808005,-1.3870703800877848e-05,-0.07723455573753968
187,0.1772,0.168131,726.446,0.263153,-0.0498994,0.0487889,0.0512862,-0.0809255,0.163122,-0.080803,8.15413e-06,-6.80734e-06,-1.22371e-05,0.159672,-0.07773760256611295,8.15416324506657e-06,-6.807316830115262e-06,0.17718029692447224,-1.2237025126982104e-05,-0.07762461850229474
188,0.1782,-0.121642,726.29,-0.213881,0.0499382,-0.0275824,-0.0718864,-0.0813506,0.163971,-0.0812288,9.60283e-06,-7.8602e-06,-1.40578e-05,0.160521,-0.07812957299204537,9.602876107406288e-06,-7.86016910869769e-06,0.1781801473730189,-1.4057701189562621e-05,-0.07801728233567362
189,0.1792,0.192049,726.927,0.302778,-0.0582106,0.0551153,0.0615532,-0.0817744,0.164819,-0.0816505,8.01751e-06,-6.64e-06,-1.21345e-05,0.161368,-0.07852017890377239,8.017542140414946e-06,-6.639977955247289e-06,0.17917966787478723,-1.2134426377263807e-05,-0.07840600048073132
190,0.1802,-0.147456,726.696,-0.256486,0.0588842,-0.0344044,-0.0829263,-0.0821989,0.165667,-0.0820759,9.71812e-06,-7.88034e-06,-1.42664e-05,0.162216,-0.07891126407412752,9.718167221173246e-06,-7.880308950158899e-06,0.18018003632942237,-1.426629823542136e-05,-0.07879796319174714
191,0.1812,0.219581,727.395,0.348392,-0.0677859,0.0624095,0.0733699,-0.0826219,0.166514,-0.0824966,7.86265e-06,-6.45899e-06,-1.20097e-05,0.163061,-0.07930080221629876,7.862680910797337e-06,-6.458969140754611e-06,0.1811800722756305,-1.2009627883835527e-05,-0.07918543137898448
192,0.1822,-0.177052,727.081,-0.30536,0.0691493,-0.0422226,-0.0956029,-0.0830458,0.16736,-0.0829217,9.85286e-06,-7.91469e-06,-1.44993e-05,0.163907,-0.07969100389715,9.852908539498273e-06,-7.914658678886966e-06,0.1821797734307391,-1.4499194885608802e-05,-0.07957678646368849
193,0.1832,0.251169,727.854,0.400743,-0.0787834,0.0707918,0.08693,-0.083468,0.168206,-0.0833413,7.68719e-06,-6.26254e-06,-1.18598e-05,0.164751,-0.08007947634300083,7.687219546470558e-06,-6.262520390376558e-06,0.18318032069087686,-1.1859729672880626e-05,-0.07996291502865016
194,0.1842,-0.210878,727.444,-0.361255,0.0808917,-0.0511537,-0.110115,-0.0838913,0.16905,-0.083766,1.00093e-05,-7.96484e-06,-1.47593e-05,0.165596,-0.08046879629528358,1.000935009320969e-05,-7.964808280691571e-06,0.18417934641109035,-1.4759191082069911e-05,-0.08035357181679659
195,0.1852,0.287299,728.303,0.460644,-0.0913759,0.0803945,0.102444,-0.0843127,0.169895,-0.0841845,7.48856e-06,-6.0487e-06,-1.16818e-05,0.166438,-0.08085620511175418,7.488588039228361e-06,-6.048681706616321e-06,0.18518040084474108,-1.1681731768020676e-05,-0.08073836332375228
196,0.1862,-0.24942,727.787,-0.424986,0.0942828,-0.0613244,-0.12668,-0.0847353,0.170738,-0.084609,1.019e-05,-8.03246e-06,-1.50497e-05,0.167282,-0.08124455321573998,1.0190051918268495e-05,-8.032427739834702e-06,0.18617992916464732,-1.5049586753801414e-05,-0.08112850707465158
197,0.1872,0.328497,728.744,0.528979,-0.105752,0.0913623,0.12014,-0.0851559,0.171581,-0.0850263,7.26396e-06,-5.81531e-06,-1.14723e-05,0.168123,-0.08163090050212762,7.263986382621823e-06,-5.815293091071538e-06,0.18718030044218392,-1.1472234193399267e-05,-0.08151187215396227
198,0.1882,-0.293202,728.108,-0.497429,0.109507,-0.0728703,-0.145529,-0.085578,0.172423,-0.0854506,1.03974e-05,-8.11937e-06,-1.5374e-05,0.168965,-0.0820184622983543,1.0397454053068245e-05,-8.119337038037244e-06,0.18818032720734235,-1.5373881820712754e-05,-0.08190150400036567
199,0.1892,0.375333,729.178,0.606705,-0.122115,0.103853,0.140264,-0.0859978,0.173264,-0.0858666,7.01031e-06,-5.55998e-06,-1.12278e-05,0.169804,-0.08240375007031975,7.010334572177257e-06,-5.559964543322415e-06,0.1891800071690264,-1.1227736968488777e-05,-0.08228335354448957
200,0.1902,-0.342786,728.408,-0.579524,0.126763,-0.0859363,-0.166914,-0.0864193,0.174104,-0.0862908,1.06345e-05,-8.22742e-06,-1.57359e-05,0.170646,-0.08279043539000908,1.063455654648493e-05,-8.227386154913141e-06,0.19017933803525167,-1.5735776191405648e-05,-0.08267256638803544
201,0.1912,-0.162193,728.829,-0.272989,0.0619163,-0.0401098,-0.0876782,-0.0868389,0.174944,-0.0867093,1.0024e-05,-7.79652e-06,-1.50299e-05,0.171485,-0.08317521579074583,1.0024050240531324e-05,-7.796489607247992e-06,0.19117950869206712,-1.5029787051590304e-05,-0.08305638759881173
202,0.1922,0.0346525,729.261,0.0459194,-0.00514492,0.0122633,-0.00537057,-0.0872583,0.175783,-0.0871273,9.14864e-06,-7.10373e-06,-1.39939e-05,0.172323,-0.08355965148344335,9.148681848980544e-06,-7.103704768529617e-06,0.19217932766526946,-1.399380208588763e-05,-0.08343958993392786
203,0.1932,-0.0444838,729.328,-0.0843661,0.0227558,-0.00797808,-0.0383315,-0.0876778,0.176622,-0.0875465,9.58422e-06,-7.38637e-06,-1.45462e-05,0.173161,-0.0839440175832199,9.584265928674895e-06,-7.386342720794303e-06,0.19317998583858564,-1.4546094204592741e-05,-0.08382373153612233
204,0.1942,0.0832255,729.664,0.124336,-0.0210237,0.0262302,0.0158823,-0.0880966,0.17746,-0.0879641,8.95011e-06,-6.87226e-06,-1.37938e-05,0.173997,-0.0843275815047646,8.9501500524225e-06,-6.8722363860684865e-06,0.19418028973551316,-1.379370486598308e-05,-0.08420624687107203
205,0.1952,-0.0387978,729.668,-0.0767417,0.02131,-0.00604507,-0.036103,-0.0885154,0.178297,-0.0883829,9.56504e-06,-7.29824e-06,-1.45814e-05,0.174834,-0.0847109848233717,9.565085745233404e-06,-7.298213367867845e-06,0.19518023705759835,-1.458129369191763e-05,-0.08458970099398455
206,0.1962,0.0962862,730.009,0.145889,-0.0254971,0.02975,0.0215425,-0.0889336,0.179133,-0.0887998,8.8764e-06,-6.75237e-06,-1.37652e-05,0.175669,-0.08509367866265927,8.876439395288926e-06,-6.752347202820808e-06,0.19617982550553226,-1.3765105260077348e-05,-0.08497125600697131
207,0.1972,-0.0465007,729.978,-0.0899148,0.0240842,-0.00808195,-0.0395559,-0.0893518,0.179969,-0.089218,9.59382e-06,-7.2545e-06,-1.46815e-05,0.176505,-0.08547621249284343,9.593866020729536e-06,-7.2544736862134584e-06,0.19718024995881045,-1.4681392227267054e-05,-0.08535384102360632
208,0.1982,0.106387,730.337,0.162828,-0.0290459,0.0324216,0.0259721,-0.0897692,0.180804,-0.0896341,8.81178e-06,-6.64087e-06,-1.37488e-05,0.177339,-0.08585785506740273,8.811818823950546e-06,-6.640847949435091e-06,0.19818031293571314,-1.3748705485649992e-05,-0.0857343461207809
209,0.1992,-0.0567435,730.274,-0.107006,0.0276894,-0.0108078,-0.0439998,-0.0901867,0.181638,-0.0900518,9.63346e-06,-7.2195e-06,-1.47944e-05,0.178173,-0.08623942975365373,9.633506401929282e-06,-7.219473939445997e-06,0.19918001213332137,-1.4794290563391321e-05,-0.08611615513804172
210,0.2002,0.117229,730.656,0.180986,-0.0328609,0.0352912,0.0307169,-0.0906034,0.182471,-0.090467,8.74303e-06,-6.52642e-06,-1.37274e-05,0.179005,-0.08662011446210793,8.743068220296024e-06,-6.526398703021741e-06,0.20017934524788505,-1.3727305779642762e-05,-0.0864955209486361
211,0.2012,-0.068359,730.557,-0.126306,0.0317642,-0.0139046,-0.0490178,-0.0910203,0.183304,-0.0908842,9.68007e-06,-7.18987e-06,-1.49157e-05,0.179838,-0.08700082317214397,9.680116852095466e-06,-7.189844152932778e-06,0.20117951115374266,-1.4915588761543752e-05,-0.08687655552795637
212,0.2022,0.129294,730.965,0.201156,-0.037105,0.0384895,0.035982,-0.0914362,0.184136,-0.0912986,8.6682e-06,-6.40754e-06,-1.36986e-05,0.180669,-0.08738046057871574,8.668237569064985e-06,-6.407519471784973e-06,0.20217930836498876,-1.369850617460866e-05,-0.08725487549003541
213,0.2032,-0.0812969,730.827,-0.147786,0.0363018,-0.0173544,-0.0546049,-0.0918525,0.184968,-0.0917152,9.73369e-06,-7.16548e-06,-1.50456e-05,0.181501,-0.08776030502287002,9.733737372563667e-06,-7.165454327995313e-06,0.2031799377536525,-1.5045486815523645e-05,-0.08763504591390858
214,0.2042,0.142718,731.265,0.223581,-0.0418285,0.0420539,0.0418337,-0.0922677,0.185799,-0.0921287,8.5866e-06,-6.28374e-06,-1.36613e-05,0.18233,-0.08813898832413103,8.586636864871267e-06,-6.283720257349579e-06,0.20418019583159563,-1.366120668488957e-05,-0.08801223083406662
215,0.2052,-0.0956378,731.086,-0.171601,0.0413343,-0.0211776,-0.0608035,-0.0926833,0.186629,-0.0925448,9.7948e-06,-7.14663e-06,-1.51846e-05,0.183161,-0.08851787902164299,9.794847969146758e-06,-7.146604462882067e-06,0.20518008028878398,-1.5184484714492186e-05,-0.08839163000534489
216,0.2062,0.157607,731.557,0.248452,-0.0470711,0.0460131,0.0483225,-0.0930978,0.187458,-0.0929575,8.49763e-06,-6.15459e-06,-1.3615e-05,0.183989,-0.08889561007062041,8.49766610500069e-06,-6.154571060568159e-06,0.20617958881438514,-1.3614907316328306e-05,-0.08876777315716355
217,0.2072,-0.111482,731.332,-0.197926,0.0468988,-0.0254007,-0.0676614,-0.0935127,0.188287,-0.0933731,9.86393e-06,-7.13366e-06,-1.53335e-05,0.184818,-0.08927354887317596,9.863978648771976e-06,-7.1336345555117475e-06,0.20717992627610093,-1.5333382442528354e-05,-0.08914640258599427
218,0.2082,0.174071,731.841,0.275956,-0.0528728,0.0503965,0.0554976,-0.0939265,0.189115,-0.0937849,8.40071e-06,-6.01968e-06,-1.35588e-05,0.185645,-0.08965032951736063,8.400745286074596e-06,-6.019661881739857e-06,0.20817988518091446,-1.3558708079841608e-05,-0.0895214148770791
219,0.2092,-0.128937,731.566,-0.226946,0.053034,-0.0300516,-0.0752274,-0.0943408,0.189942,-0.0942,9.94164e-06,-7.12694e-06,-1.5493e-05,0.186472,-0.09002740926837749,9.941689418369037e-06,-7.126914603472478e-06,0.20917946321450587,-1.5492879984146946e-05,-0.08989927610723958
220,0.2102,0.192219,732.118,0.306282,-0.059274,0.0552347,0.0634089,-0.0947539,0.190769,-0.094611,8.29521e-06,-5.87854e-06,-1.3492e-05,0.187298,-0.09040324131215538,8.295244405376323e-06,-5.878522721380897e-06,0.21017986824104562,-1.3491908983365164e-05,-0.09027325064772718
221,0.2112,-0.148109,731.789,-0.258844,0.059779,-0.0351588,-0.0835509,-0.0951675,0.191595,-0.0950256,1.00285e-05,-7.12686e-06,-1.56638e-05,0.188124,-0.09077937274220704,1.0028550285534621e-05,-7.126834604020971e-06,0.21117988976424407,-1.5663677323307645e-05,-0.0906503451809102
222,0.2122,0.212165,732.389,0.339623,-0.066316,0.0605587,0.0721068,-0.0955799,0.19242,-0.0954356,8.18051e-06,-5.73071e-06,-1.34139e-05,0.188948,-0.0911542580222302,8.180543460412082e-06,-5.730693579564239e-06,0.2121795254663288,-1.3413810034057505e-05,-0.091023102118992
223,0.2132,-0.169107,732.0,-0.293805,0.0671732,-0.0407508,-0.0926817,-0.0959929,0.193245,-0.0958499,1.0125e-05,-7.13378e-06,-1.58466e-05,0.189773,-0.09152953381388185,1.012505125808083e-05,-7.133754554633498e-06,0.2131799862081496,-1.5846474443304004e-05,-0.09139961324811818
224,0.2142,0.234021,732.653,0.376172,-0.0740403,0.0663999,0.0816418,-0.0964045,0.194069,-0.0962589,8.05598e-06,-5.57572e-06,-1.33238e-05,0.190596,-0.09190338331425896,8.056012449575434e-06,-5.5757044556958846e-06,0.21418005848997979,-1.3323711238522051e-05,-0.09177115482086873
225,0.2152,-0.192041,732.201,-0.332013,0.0752559,-0.0468562,-0.102669,-0.0968169,0.194892,-0.0966728,1.02319e-05,-7.14806e-06,-1.60423e-05,0.19142,-0.09227780514789141,1.0231952346062556e-05,-7.1480344526753115e-06,0.21517973999062834,-1.6042171323005228e-05,-0.0921469929548211
226,0.2162,0.2579,732.912,0.416122,-0.0824886,0.0727901,0.0920642,-0.0972278,0.195715,-0.0970809,7.92098e-06,-5.41309e-06,-1.32209e-05,0.192241,-0.09265071157888316,7.921011371037068e-06,-5.413075349292029e-06,0.2161802445678016,-1.3220812604242127e-05,-0.09251741217781284
227,0.2172,-0.217015,732.39,-0.373651,0.0840657,-0.0535028,-0.113563,-0.0976396,0.196537,-0.0974944,1.03495e-05,-7.17004e-06,-1.62515e-05,0.193064,-0.09302428109261296,1.0349553556165958e-05,-7.170014295287963e-06,0.21718035571820593,-1.625136794514148e-05,-0.09289257865686218
228,0.2182,0.283915,733.165,0.459664,-0.091702,0.0797604,0.103424,-0.0980497,0.197358,-0.0979015,7.77488e-06,-5.24231e-06,-1.31045e-05,0.193883,-0.09339615557686198,7.774910224522813e-06,-5.24229625908923e-06,0.2181800711172679,-1.3104414136377862e-05,-0.0932617869306478
229,0.2192,-0.244134,732.569,-0.418893,0.0936401,-0.0607176,-0.12541,-0.098461,0.198178,-0.0983146,1.04784e-05,-7.20005e-06,-1.6475e-05,0.194705,-0.09376896506454646,1.0478454898654732e-05,-7.2000240797232e-06,0.2191793884396911,-1.6474864287907565e-05,-0.09363628312895123
230,0.2202,0.312173,733.414,0.506984,-0.101721,0.0873419,0.115769,-0.0988703,0.198998,-0.0987207,7.61704e-06,-5.06291e-06,-1.29739e-05,0.195523,-0.09413980952864875,7.617069009757671e-06,-5.062897183494286e-06,0.22017952553838116,-1.297381583931223e-05,-0.09400428270700079
231,0.2212,-0.273496,732.737,-0.467911,0.104015,-0.0685261,-0.138257,-0.099281,0.199817,-0.0991335,1.06192e-05,-7.23837e-06,-1.67134e-05,0.196343,-0.09451176992158039,1.061925638401462e-05,-7.238343803117608e-06,0.2211792619059576,-1.6713260331924218e-05,-0.0943782005571453
232,0.2222,0.34278,733.658,0.558263,-0.112584,0.0955643,0.129146,-0.0996896,0.200636,-0.0995386,7.44684e-06,-4.87439e-06,-1.28284e-05,0.19716,-0.0948816768352615,7.446867727800566e-06,-4.8743781201343594e-06,0.22217981739300274,-1.2828317716429005e-05,-0.0947449936491428
233,0.2232,-0.305195,732.894,-0.520863,0.115226,-0.0769526,-0.152148,-0.1001,0.201454,-0.0999511,1.07723e-05,-7.28527e-06,-1.69675e-05,0.197979,-0.09525306118180776,1.0772358021382544e-05,-7.285243462495927e-06,0.2231799694900689,-1.6967356052832727e-05,-0.09511833433245265
234,0.2242,0.375835,733.899,0.613671,-0.124329,0.104456,0.1436,-0.100507,0.202271,-0.100355,7.26369e-06,-4.67628e-06,-1.26674e-05,0.198794,-0.09562121826085912,7.263716380601082e-06,-4.676269066195005e-06,0.2241797158659269,-1.2667319768788765e-05,-0.09548374223812173
235,0.2252,-0.339318,733.041,-0.577898,0.127303,-0.0860188,-0.167125,-0.100917,0.203088,-0.100767,1.09381e-05,-7.34096e-06,-1.72379e-05,0.199612,-0.09599193755872293,1.09381598212277e-05,-7.340933055210996e-06,0.22518027936832463,-1.723775142825623e-05,-0.0958563261787575
236,0.2262,-0.151013,733.39,-0.256378,0.0589368,-0.0376754,-0.0833859,-0.101325,0.203904,-0.101174,1.02595e-05,-6.86445e-06,-1.64438e-05,0.200427,-0.09636069761603183,1.0259552628788526e-05,-6.86442643971219e-06,0.22618043448407987,-1.644366480146875e-05,-0.09622423777891342
237,0.2272,0.0245926,733.713,0.0302896,-0.00173229,0.0094211,-0.00888056,-0.101732,0.204719,-0.10158,9.47158e-06,-6.24698e-06,-1.55123e-05,0.201242,-0.09672840397878146,9.471624855539318e-06,-6.2469604876769225e-06,0.22718017887868736,-1.5512179684873395e-05,-0.09659109626106399
238,0.2282,-0.0343764,733.725,-0.0675782,0.0194545,-0.00565243,-0.0336855,-0.10214,0.205533,-0.101987,9.80992e-06,-6.45514e-06,-1.59442e-05,0.202056,-0.09709686361908021,9.809968117391321e-06,-6.4551191656381235e-06,0.2281795102169697,-1.5944072891960204e-05,-0.09695870887064517
239,0.2292,0.0679175,733.949,0.100743,-0.0160747,0.0219962,0.010352,-0.102547,0.206347,-0.102393,9.29624e-06,-6.0386e-06,-1.53386e-05,0.20287,-0.09746427042323091,9.296283210113998e-06,-6.038581767731088e-06,0.22917965534212792,-1.5338482364235517e-05,-0.09732526921805795
240,0.2302,-0.0254149,733.912,-0.054292,0.0167859,-0.0028721,-0.0299931,-0.102954,0.20716,-0.1028,9.77583e-06,-6.35966e-06,-1.5958e-05,0.203683,-0.09783152772323844,9.775877783502196e-06,-6.359639777353543e-06,0.2301793847368543,-1.5957872671834572e-05,-0.09769258308004491
241,0.2312,0.07648,734.134,0.114959,-0.0190264,0.0243331,0.0141235,-0.10336,0.207973,-0.103205,9.24825e-06,-5.94101e-06,-1.53382e-05,0.204495,-0.09819773377812324,9.248292765162702e-06,-5.940992352182484e-06,0.23117992724206315,-1.533808237041967e-05,-0.09805794359339948
242,0.2322,-0.0285653,734.078,-0.0599292,0.0179833,-0.00370854,-0.0314955,-0.103766,0.208785,-0.103612,9.78553e-06,-6.30436e-06,-1.60309e-05,0.205307,-0.09856379118352776,9.78557787845169e-06,-6.304340127605279e-06,0.23218005133841468,-1.6030771505803898e-05,-0.09842495931759077
243,0.2332,0.0815227,734.307,0.123556,-0.0208296,0.0256718,0.016398,-0.104172,0.209596,-0.104016,9.21297e-06,-5.85425e-06,-1.53545e-05,0.206117,-0.09892969999979129,9.213012439612811e-06,-5.854232863922171e-06,0.23317975468496321,-1.5354382120302823e-05,-0.09878912206819779
244,0.2342,-0.0333649,734.235,-0.0680454,0.0197111,-0.0049997,-0.0336199,-0.104578,0.210407,-0.104422,9.80182e-06,-6.2546e-06,-1.61113e-05,0.206928,-0.09929546028722891,9.80186803789529e-06,-6.2545804400127025e-06,0.23418026911977785,-1.611117021371733e-05,-0.09915493941869091
245,0.2352,0.0864741,734.475,0.131986,-0.0226048,0.0269855,0.0186267,-0.104983,0.211217,-0.104826,9.17788e-06,-5.76777e-06,-1.53709e-05,0.207737,-0.09966017176675279,9.17792211696522e-06,-5.767753366470174e-06,0.2351803601199398,-1.537078186830687e-05,-0.09951880731690121
246,0.2362,-0.0386245,734.387,-0.0768628,0.0215909,-0.00641984,-0.0359257,-0.105388,0.212026,-0.105231,9.82044e-06,-6.20683e-06,-1.61943e-05,0.208547,-0.10002473556803437,9.820488220624313e-06,-6.206810737707791e-06,0.23618002534133709,-1.6194168872996073e-05,-0.09988342835919295
247,0.2372,0.0916945,734.638,0.140845,-0.0244744,0.0283727,0.0209648,-0.105792,0.212834,-0.105634,9.14159e-06,-5.68054e-06,-1.53858e-05,0.209355,-0.10038825213957314,9.141631784448379e-06,-5.680523865736475e-06,0.2371792624392366,-1.5385681639168425e-05,-0.10024610225386588
248,0.2382,-0.0442053,734.532,-0.0861983,0.0235829,-0.00792766,-0.0383668,-0.106197,0.213642,-0.106038,9.84095e-06,-6.1606e-06,-1.62794e-05,0.210163,-0.10075252112800737,9.840998422383507e-06,-6.1605810235398906e-06,0.23817930724698222,-1.6279267491259297e-05,-0.1006095294113265
249,0.2392,0.0972151,734.795,0.150198,-0.0264507,0.0298421,0.0234319,-0.1066,0.21445,-0.106441,9.10396e-06,-5.59247e-06,-1.53989e-05,0.21097,-0.10111484484885924,9.104001441162524e-06,-5.592454362157717e-06,0.23918016041746681,-1.53987814375256e-05,-0.10097191074623024
250,0.2402,-0.0500862,734.671,-0.0960329,0.0256825,-0.00951674,-0.0409394,-0.107004,0.215256,-0.106845,9.86329e-06,-6.11581e-06,-1.63666e-05,0.211776,-0.10147792110519827,9.863338642501773e-06,-6.1157912984999285e-06,0.240179342242947,-1.636646606795189e-05,-0.10133504473628363
251,0.2412,0.103034,734.947,0.16005,-0.0285346,0.0313931,0.0260304,-0.107407,0.216062,-0.107246,9.06499e-06,-5.50356e-06,-1.54102e-05,0.212582,-0.10183995254875722,9.065031087107656e-06,-5.503544855400833e-06,0.24117932973361778,-1.5410081263489417e-05,-0.10169533713988954
252,0.2422,-0.0562597,734.805,-0.106361,0.0278881,-0.0111849,-0.0436429,-0.10781,0.216868,-0.10765,9.88743e-06,-6.07244e-06,-1.64558e-05,0.213387,-0.10220183812303907,9.887478880754585e-06,-6.0724215628082945e-06,0.24218012353910745,-1.645566460406478e-05,-0.10205817892470936
253,0.2432,0.109146,735.095,0.170399,-0.030725,0.0330243,0.0287596,-0.108213,0.217672,-0.10805,9.02468e-06,-5.41384e-06,-1.54197e-05,0.214192,-0.10256357788681725,9.024720722505819e-06,-5.413825345246259e-06,0.2431792379486053,-1.5419581117059877e-05,-0.10241728382737081
254,0.2442,-0.0627193,734.933,-0.117175,0.030198,-0.0129302,-0.0464757,-0.108615,0.218477,-0.108453,9.91336e-06,-6.03045e-06,-1.6547e-05,0.214996,-0.10292427482356492,9.913409137585205e-06,-6.030431816905768e-06,0.24418040014887454,-1.6546863099153875e-05,-0.10277893678402306
255,0.2452,0.115545,735.239,0.181234,-0.03302,0.0347337,0.0316174,-0.109017,0.21928,-0.108853,8.98306e-06,-5.32332e-06,-1.54273e-05,0.215799,-0.10328482678928519,8.983100347803585e-06,-5.323305831139713e-06,0.24517987824694454,-1.542718099978302e-05,-0.1031377534411938
256,0.2462,-0.0694571,735.057,-0.128463,0.0326099,-0.0147507,-0.0494348,-0.109419,0.220083,-0.109256,9.94104e-06,-5.98981e-06,-1.66403e-05,0.216602,-0.10364523384224467,9.941089412324189e-06,-5.989792061122934e-06,0.24618015924824954,-1.6640161551007004e-05,-0.10349911610708906
257,0.2472,0.122221,735.378,0.192542,-0.0354168,0.0365192,0.0346005,-0.10982,0.220885,-0.109655,8.94016e-06,-5.23204e-06,-1.54333e-05,0.217403,-0.10400460004573464,8.940199963447526e-06,-5.232026312862459e-06,0.24717999661715995,-1.5433180907242772e-05,-0.10385674860733396
258,0.2482,-0.0764631,735.175,-0.14021,0.0351203,-0.0166436,-0.0525165,-0.110221,0.221686,-0.110057,9.97041e-06,-5.95048e-06,-1.67354e-05,0.218205,-0.10436382217226625,9.970459704744528e-06,-5.9504622959005715e-06,0.2481793879972638,-1.6735259963929217e-05,-0.10421692579392872
259,0.2492,0.129163,735.512,0.204307,-0.0379117,0.038378,0.0377044,-0.110621,0.222487,-0.110456,8.89603e-06,-5.14003e-06,-1.54375e-05,0.219005,-0.10472200500205564,8.896069569885867e-06,-5.140016790083912e-06,0.24917958021055409,-1.543738084242019e-05,-0.10457427194523894
260,0.2502,-0.083725,735.289,-0.152396,0.0377253,-0.0186057,-0.0557158,-0.111022,0.223287,-0.110857,1.00014e-05,-5.9124e-06,-1.68324e-05,0.219806,-0.1050809395068718,1.0001450014174296e-05,-5.912382521788828e-06,0.25017932371880613,-1.6832258335930383e-05,-0.10493326567913475
261,0.2512,0.136359,735.643,0.216506,-0.0405004,0.0403065,0.0409237,-0.111422,0.224087,-0.111255,8.85074e-06,-5.04734e-06,-1.54401e-05,0.220605,-0.1054388355470891,8.850779168012579e-06,-5.0473272622530985e-06,0.25117986734186815,-1.5439980802223197e-05,-0.10528943135772284
262,0.2522,-0.0912281,735.398,-0.164996,0.0404197,-0.020633,-0.0590264,-0.111822,0.224886,-0.111655,1.0034e-05,-5.87552e-06,-1.69312e-05,0.221404,-0.10579658845751816,1.003405034083471e-05,-5.875502739116634e-06,0.25217995953950223,-1.6931056668001432e-05,-0.10564724401787695
263,0.2532,0.143793,735.77,0.229115,-0.0431773,0.0423006,0.0442516,-0.112221,0.225684,-0.112053,8.80436e-06,-4.95403e-06,-1.54412e-05,0.222202,-0.10615330444915083,8.804398758499588e-06,-4.9540177288198706e-06,0.25317959794989275,-1.54410807853278e-05,-0.10600312558962732
264,0.2542,-0.0989553,735.502,-0.177983,0.0431976,-0.0227211,-0.062441,-0.11262,0.226482,-0.112453,1.0068e-05,-5.83976e-06,-1.70317e-05,0.223,-0.10650987813949375,1.006805068248795e-05,-5.839742948654525e-06,0.25418003439010617,-1.7031554961466355e-05,-0.1063606528291765
265,0.2552,0.151446,735.893,0.242101,-0.0459361,0.0443555,0.0476803,-0.113019,0.227279,-0.112849,8.75697e-06,-4.86014e-06,-1.54409e-05,0.223796,-0.10686630958531396,8.757008342463735e-06,-4.8601281895654935e-06,0.25518001431658277,-1.5440780789965913e-05,-0.10671446395143036
266,0.2562,-0.106887,735.603,-0.191324,0.0460522,-0.0248646,-0.0659513,-0.113417,0.228075,-0.113249,1.01034e-05,-5.80505e-06,-1.71337e-05,0.224593,-0.10722170606550818,1.0103451039578104e-05,-5.805033150729777e-06,0.25617953536457994,-1.713355321897314e-05,-0.1070717067125343
267,0.2572,0.159297,736.013,0.255432,-0.0487696,0.0464657,0.0512008,-0.113815,0.228871,-0.113644,8.70868e-06,-4.76577e-06,-1.54394e-05,0.225388,-0.10757696112604753,8.708717920580256e-06,-4.765758643721085e-06,0.2571798523480715,-1.5439280813045464e-05,-0.10742434373798526
268,0.2582,-0.115,735.699,-0.204983,0.0489756,-0.0270577,-0.0695475,-0.114213,0.229666,-0.114043,1.01401e-05,-5.77129e-06,-1.7237e-05,0.226184,-0.10793207482320599,1.0140151410986675e-05,-5.771273346111272e-06,0.25817970772053767,-1.7236851443724888e-05,-0.10778041038481401
269,0.2592,0.167323,736.129,0.269067,-0.0516695,0.0486249,0.0548029,-0.11461,0.230461,-0.114439,8.6596e-06,-4.67098e-06,-1.54367e-05,0.226977,-0.10828615549983633,8.659637494412564e-06,-4.670969090958543e-06,0.25918035829407526,-1.5436580854788495e-05,-0.10813365939438147
270,0.2602,-0.123271,735.791,-0.218917,0.0519591,-0.0292937,-0.0732191,-0.115008,0.231254,-0.114837,1.01778e-05,-5.73838e-06,-1.73416e-05,0.227772,-0.1086409869937962,1.0177851794024306e-05,-5.738363535567892e-06,0.2601792843400319,-1.7341449635277506e-05,-0.10848855156971482
271,0.2612,0.175499,736.242,0.282965,-0.0546268,0.0508262,0.0584755,-0.115404,0.232048,-0.115231,8.60987e-06,-4.57588e-06,-1.5433e-05,0.228564,-0.1089938952824937,8.609907065082467e-06,-4.5758695307318575e-06,0.2611802640281464,-1.5432880911880886e-05,-0.10883973789214785
272,0.2622,-0.131672,735.88,-0.233081,0.0549933,-0.0315654,-0.0769542,-0.115801,0.23284,-0.115629,1.02166e-05,-5.70622e-06,-1.74473e-05,0.229357,-0.10934755450006695,1.021665218958745e-05,-5.706203719535452e-06,0.2621795144481902,-1.7447147796723073e-05,-0.1091943491041546
273,0.2632,0.183795,736.351,0.297078,-0.0576315,0.0530622,0.0622062,-0.116197,0.233632,-0.116023,8.55961e-06,-4.48056e-06,-1.54286e-05,0.230148,-0.1097001830434251,8.559646633488072e-06,-4.4805499622713185e-06,0.26317955658804637,-1.5428480979795545e-05,-0.10954525739713439
274,0.2642,-0.140175,735.965,-0.247428,0.0580678,-0.033865,-0.08074,-0.116593,0.234424,-0.11642,1.02561e-05,-5.67469e-06,-1.75539e-05,0.230941,-0.11005267197352542,1.025615259386825e-05,-5.674673899003224e-06,0.26418039107500535,-1.7553745931153664e-05,-0.10989869776739203
275,0.2652,0.192182,736.457,0.311354,-0.0606727,0.0553247,0.0659818,-0.116989,0.235214,-0.116813,8.509e-06,-4.38513e-06,-1.54236e-05,0.23173,-0.11040502134564378,8.509036201642672e-06,-4.385120385363983e-06,0.26517948817534776,-1.542348105687541e-05,-0.11024843885054525
276,0.2662,-0.148747,736.046,-0.261904,0.0611713,-0.0361841,-0.0845627,-0.117384,0.236004,-0.11721,1.02963e-05,-5.64367e-06,-1.76611e-05,0.232521,-0.11075634197182072,1.0296353007088754e-05,-5.643654074516391e-06,0.26617937487425003,-1.7660944043651483e-05,-0.11060160011317244
277,0.2672,0.200628,736.56,0.325741,-0.063739,0.0576048,0.0697879,-0.117779,0.236794,-0.117602,8.45819e-06,-4.28971e-06,-1.54182e-05,0.23331,-0.111107523853754,8.458225770668903e-06,-4.289700799242624e-06,0.267180051795741,-1.5418081140139428e-05,-0.11095017596059842
278,0.2682,-0.157355,736.125,-0.276453,0.064292,-0.0385138,-0.0884076,-0.118174,0.237583,-0.117999,1.0337e-05,-5.61302e-06,-1.77688e-05,0.234099,-0.11145856704623702,1.0337053427011966e-05,-5.61300424706257e-06,0.26818025138345813,-1.776864213576257e-05,-0.11130305868888568
279,0.2692,0.209096,736.66,0.340178,-0.0668179,0.0598935,0.0736093,-0.118568,0.238371,-0.11839,8.40736e-06,-4.19443e-06,-1.54126e-05,0.234887,-0.11180858341306854,8.407395341913926e-06,-4.194421203362886e-06,0.2691799712594487,-1.5412481226495522e-05,-0.11165047126935279
280,0.2702,-0.165965,736.2,-0.291016,0.0674174,-0.0408447,-0.0922592,-0.118962,0.239159,-0.118786,1.0378e-05,-5.58261e-06,-1.78767e-05,0.235675,-0.11215846190061562,1.0378053851622937e-05,-5.5825944172971376e-06,0.27018047922516786,-1.787654021279117e-05,-0.1120021880382136
281,0.2712,0.217553,736.757,0.354607,-0.0698966,0.0621809,0.0774302,-0.119356,0.239945,-0.119177,8.35669e-06,-4.09941e-06,-1.54071e-05,0.236461,-0.11250820256319194,8.35672491716899e-06,-4.099401597401631e-06,0.27117923354086604,-1.5406981311194556e-05,-0.11234932731253999
282,0.2722,-0.174539,736.272,-0.305532,0.0705344,-0.0431669,-0.0961011,-0.11975,0.240732,-0.119572,1.04191e-05,-5.55229e-06,-1.79846e-05,0.237248,-0.11285780545508972,1.0419154278906717e-05,-5.552274586095862e-06,0.2721800453654597,-1.7984438278051407e-05,-0.11269988008952014
283,0.2732,0.225959,736.85,0.368964,-0.0729616,0.0644569,0.0812339,-0.120142,0.241518,-0.119962,8.30639e-06,-4.0048e-06,-1.54019e-05,0.238033,-0.1132054970433477,8.306424498227827e-06,-4.004791980816158e-06,0.27318037195796796,-1.5401781391366498e-05,-0.11304585966588254
284,0.2742,-0.18304,736.342,-0.319936,0.0736293,-0.0454705,-0.0999166,-0.120536,0.242303,-0.120357,1.04601e-05,-5.52192e-06,-1.80923e-05,0.238819,-0.11355482525533589,1.0460154707070402e-05,-5.521904754224316e-06,0.2741802109354099,-1.809213633530149e-05,-0.11339613736691423
285,0.2752,0.234277,736.941,0.383183,-0.0759989,0.0667109,0.0850033,-0.120928,0.243087,-0.120746,8.25665e-06,-3.91073e-06,-1.53973e-05,0.239603,-0.1139022436653786,8.256684086216382e-06,-3.910722353062113e-06,0.27517955991439513,-1.5397181462151188e-05,-0.11374095919728433
286,0.2762,-0.191429,736.409,-0.334164,0.0766882,-0.0477449,-0.103688,-0.12132,0.243871,-0.12114,1.05007e-05,-5.49134e-06,-1.81994e-05,0.240387,-0.11424952591409399,1.0500755132536455e-05,-5.491324922668461e-06,0.27617969269018783,-1.8199234391946817e-05,-0.11409007647873981
287,0.2772,0.242467,737.029,0.397197,-0.0789941,0.0689323,0.0887207,-0.121712,0.244654,-0.121529,8.20768e-06,-3.81735e-06,-1.53935e-05,0.24117,-0.1145966720548467,8.20771368315043e-06,-3.817342713929861e-06,0.2771793326975549,-1.5393381520678595e-05,-0.1144346284192923
288,0.2782,-0.199666,736.473,-0.348148,0.0796968,-0.0499795,-0.107398,-0.122104,0.245437,-0.121923,1.05408e-05,-5.46041e-06,-1.83057e-05,0.241953,-0.11494368214098072,1.0540855554408424e-05,-5.460395091971826e-06,0.2781797557295618,-1.83055324517456e-05,-0.11478347244890852
289,0.2792,0.250488,737.114,0.410938,-0.0819328,0.0711101,0.0923681,-0.122494,0.246219,-0.122311,8.15969e-06,-3.72482e-06,-1.53907e-05,0.242734,-0.11528878680516208,8.159723290379617e-06,-3.72481306287753e-06,0.2791796832192339,-1.539058156374562e-05,-0.11512686983819675
290,0.2802,-0.207712,736.535,-0.36182,0.0826407,-0.0521637,-0.111029,-0.122886,0.247001,-0.122704,1.05802e-05,-5.42896e-06,-1.84111e-05,0.243517,-0.11563552563548352,1.0580255970449315e-05,-5.428945263230567e-06,0.2801803929580229,-1.8410930516687962e-05,-0.11547455665341622
291,0.2812,0.2583,737.197,0.424337,-0.0848,0.0732332,0.0959275,-0.123276,0.247781,-0.123091,8.1129e-06,-3.63329e-06,-1.53894e-05,0.244296,-0.11598036053330985,8.1129329096985e-06,-3.6332833995844638e-06,0.2811793231966775,-1.5389281583844117e-05,-0.1158168017712895
292,0.2822,-0.215527,736.595,-0.375113,0.0855054,-0.0542867,-0.114562,-0.123667,0.248562,-0.123484,1.06186e-05,-5.39685e-06,-1.85151e-05,0.245078,-0.11632594464624446,1.0618656377525681e-05,-5.396835436988212e-06,0.28218031508454566,-1.8514928596613522e-05,-0.11616421749653194
293,0.2832,0.265863,737.276,0.437325,-0.0875812,0.0752906,0.0993808,-0.124056,0.249341,-0.12387,8.06753e-06,-3.5429e-06,-1.53896e-05,0.245856,-0.11666962700322481,8.067562542679596e-06,-3.5428937239512237e-06,0.28317952269082913,-1.538948158075204e-05,-0.11650531227305128
294,0.2842,-0.22307,736.653,-0.387959,0.0882764,-0.056338,-0.117979,-0.124447,0.25012,-0.124263,1.06559e-05,-5.36393e-06,-1.86175e-05,0.246636,-0.11701494166565074,1.0655956774296982e-05,-5.363915614120529e-06,0.28417950898309674,-1.8617326695391512e-05,-0.11685245746682937
295,0.2852,0.273136,737.353,0.449835,-0.0902616,0.0772713,0.10271,-0.124836,0.250899,-0.124648,8.02379e-06,-3.45381e-06,-1.53917e-05,0.247414,-0.11735835605491363,8.023822190672547e-06,-3.4538040356579813e-06,0.2851802745681813,-1.539158154839626e-05,-0.11719240382683127
296,0.2862,-0.230304,736.709,-0.400292,0.0909396,-0.0583069,-0.121264,-0.125226,0.251676,-0.12504,1.06917e-05,-5.33004e-06,-1.8718e-05,0.248193,-0.1177025191798805,1.0691757156511272e-05,-5.330025795391435e-06,0.2861792476923204,-1.871782481932538e-05,-0.1175383965855199
297,0.2872,0.28008,737.427,0.4618,-0.0928269,0.0791646,0.105897,-0.125614,0.252454,-0.125425,7.98189e-06,-3.36618e-06,-1.5396e-05,0.248969,-0.11804478419873121,7.981921855471086e-06,-3.366174334384908e-06,0.28718028449985056,-1.5395881482249685e-05,-0.1178780789097913
298,0.2882,-0.237189,736.763,-0.412047,0.093481,-0.0601833,-0.124397,-0.126003,0.25323,-0.125816,1.0726e-05,-5.29505e-06,-1.88165e-05,0.249746,-0.11838779805715705,1.0726057523724464e-05,-5.295035981234264e-06,0.2881795240554268,-1.881632297073832e-05,-0.11822292115988431
299,0.2892,0.286657,737.499,0.473153,-0.095263,0.08096,0.108925,-0.12639,0.254006,-0.126201,7.94205e-06,-3.28014e-06,-1.54026e-05,0.250521,-0.11872891596873558,7.942081538203638e-06,-3.280134620364805e-06,0.28917953932183504,-1.540248138054423e-05,-0.11856233999291987
300,0.2902,-0.243689,736.816,-0.42316,0.0958871,-0.0619573,-0.127364,-0.126779,0.254782,-0.126592,1.07585e-05,-5.25881e-06,-1.89126e-05,0.251298,-0.1190716637516579,1.075855787280311e-05,-5.258796172524782e-06,0.2901803309012605,-1.891242115792391e-05,-0.11890691474922788
301,0.2912,0.292831,737.568,0.483832,-0.0975562,0.0826473,0.111778,-0.127166,0.255556,-0.126975,7.90446e-06,-3.19583e-06,-1.54119e-05,0.252071,-0.11941251705841704,7.904491240218192e-06,-3.1958248933872113e-06,0.29117931703513955,-1.541178123731779e-05,-0.11924430878579662
302,0.2922,-0.249769,736.867,-0.433573,0.098145,-0.0636194,-0.130146,-0.127554,0.256331,-0.127365,1.0789e-05,-5.22121e-06,-1.90061e-05,0.252847,-0.1197541187267892,1.0789058201510215e-05,-5.221196369475933e-06,0.29218036886332044,-1.900591938519547e-05,-0.11958773653260657
303,0.2932,0.298567,737.634,0.493777,-0.0996938,0.0842169,0.114439,-0.12794,0.257104,-0.127748,7.86932e-06,-3.11341e-06,-1.5424e-05,0.253619,-0.12009382806883973,7.869350963085608e-06,-3.1134051533543428e-06,0.29317961044556706,-1.5423881050691257e-05,-0.11992486986436035
304,0.2942,-0.255396,736.917,-0.443227,0.100242,-0.0651608,-0.13273,-0.128328,0.257877,-0.128138,1.08173e-05,-5.1821e-06,-1.90968e-05,0.254393,-0.12043516543981692,1.0817358507164698e-05,-5.182086572963485e-06,0.29417962474017156,-1.909661765731041e-05,-0.12026803224409965
305,0.2952,0.303831,737.697,0.502932,-0.101663,0.0856597,0.116893,-0.128714,0.25865,-0.12852,7.83681e-06,-3.03298e-06,-1.54393e-05,0.255164,-0.1207746119485662,7.836840707931003e-06,-3.032975400496518e-06,0.2951804123446715,-1.5439180814591502e-05,-0.12060402567695094
306,0.2962,-0.260539,736.965,-0.452069,0.102168,-0.0665729,-0.1351,-0.129101,0.259421,-0.12891,1.08433e-05,-5.14139e-06,-1.91844e-05,0.255938,-0.1211148063418811,1.0843358788870106e-05,-5.141376783091012e-06,0.2961793814957112,-1.9184215980572183e-05,-0.1209469232375664
307,0.2972,0.308593,737.758,0.511244,-0.103454,0.0869674,0.119127,-0.129486,0.260193,-0.129291,7.80711e-06,-2.95469e-06,-1.54578e-05,0.256707,-0.1214531120134189,7.807140475657448e-06,-2.954685634937171e-06,0.29718041832872677,-1.545768052879648e-05,-0.12128177866580314
308,0.2982,-0.265169,737.013,-0.460051,0.103911,-0.0678483,-0.137244,-0.129872,0.260963,-0.12968,1.08668e-05,-5.09897e-06,-1.92688e-05,0.257479,-0.12179216567061613,1.0866859043945354e-05,-5.0989570002935025e-06,0.2981796318986949,-1.9268614357859093e-05,-0.12162353357826206
309,0.2992,0.312826,737.817,0.518666,-0.105054,0.088132,0.121128,-0.130256,0.261733,-0.130061,7.78037e-06,-2.87863e-06,-1.54798e-05,0.258248,-0.12212933273877846,7.780400267165533e-06,-2.87862585679477e-06,0.2991796151594046,-1.5479680188557055e-05,-0.12195813126706145
310,0.3002,-0.269261,737.059,-0.467128,0.105462,-0.0689799,-0.139149,-0.130642,0.262503,-0.130449,1.08877e-05,-5.05475e-06,-1.93498e-05,0.259019,-0.12246812542514629,1.0887759271271946e-05,-5.054737224785555e-06,0.3001803687037463,-1.9349612793817528e-05,-0.12229874542870944
311,0.3012,0.316504,737.873,0.525153,-0.106456,0.0891469,0.122883,-0.131026,0.263271,-0.130829,7.75673e-06,-2.8049e-06,-1.55055e-05,0.259786,-0.12280503297459355,7.756760083577063e-06,-2.8048960662996336e-06,0.30117929076388283,-1.550537979033706e-05,-0.12263220854344203
312,0.3022,-0.272793,737.104,-0.473261,0.106812,-0.0699616,-0.140805,-0.131411,0.26404,-0.131217,1.09058e-05,-5.00865e-06,-1.94271e-05,0.260556,-0.12314268803412864,1.0905859468390844e-05,-5.008637456782594e-06,0.3021802824704627,-1.9426911295084004e-05,-0.12297256121383926
313,0.3032,0.319607,737.927,0.530669,-0.10765,0.0900059,0.124384,-0.131795,0.264807,-0.131597,7.73634e-06,-2.73361e-06,-1.55349e-05,0.261322,-0.12347933660126187,7.736369925570585e-06,-2.7336062636829084e-06,0.30317943787423207,-1.5534779334025473e-05,-0.12330576832721685
314,0.3042,-0.275745,737.149,-0.478416,0.107954,-0.0707883,-0.142203,-0.132179,0.265574,-0.131984,1.09211e-05,-4.96061e-06,-1.95007e-05,0.262091,-0.12381585592016264,1.0921159635524091e-05,-4.960597696168634e-06,0.30417935992416756,-1.95005098625467e-05,-0.12364498335253316
315,0.3052,0.322117,737.978,0.535182,-0.10863,0.0907039,0.125622,-0.132562,0.266341,-0.132363,7.71929e-06,-2.66482e-06,-1.55683e-05,0.262856,-0.12415137019226075,7.719319793819679e-06,-2.6648164493936477e-06,0.30518004920851216,-1.5568178814651112e-05,-0.12397705897153777
316,0.3062,-0.278102,737.192,-0.482566,0.108882,-0.0714555,-0.143334,-0.132946,0.267107,-0.132749,1.09334e-05,-4.91057e-06,-1.95704e-05,0.263623,-0.12448763149980391,1.0933459769768561e-05,-4.910557943160754e-06,0.30618020013510683,-1.9570208500963027e-05,-0.12431513857321397
317,0.3072,0.324019,738.026,0.538666,-0.10939,0.0912368,0.126589,-0.133328,0.267872,-0.133128,7.70567e-06,-2.5986e-06,-1.56057e-05,0.264387,-0.12482201335357068,7.70569968877588e-06,-2.598596623659688e-06,0.3071798102903449,-1.5605578231658868e-05,-0.12464696025151478
318,0.3082,-0.279851,737.235,-0.485688,0.109592,-0.0719599,-0.144194,-0.133711,0.268637,-0.133514,1.09427e-05,-4.8585e-06,-1.96362e-05,0.265153,-0.1251571423411585,1.0942759871568342e-05,-4.858488197534427e-06,0.30818018543992465,-1.963600721111014e-05,-0.12498478132119673
319,0.3092,0.325301,738.073,0.541101,-0.109925,0.0916016,0.12728,-0.134093,0.269401,-0.133892,7.69557e-06,-2.535e-06,-1.56472e-05,0.265916,-0.12549126849062653,7.695599610890724e-06,-2.5349967869292556e-06,0.3091800169886194,-1.5647077583169633e-05,-0.1253154745688959
320,0.3102,-0.280983,737.277,-0.487767,0.110078,-0.0722991,-0.144776,-0.134476,0.270164,-0.134277,1.09489e-05,-4.80437e-06,-1.96979e-05,0.266681,-0.12582614120257685,1.0948959939360847e-05,-4.804358459065128e-06,0.3101793025205326,-1.969770599763443e-05,-0.1256521632944484
321,0.3112,0.325959,738.117,0.542475,-0.110233,0.091796,0.127692,-0.134857,0.270927,-0.134654,7.68904e-06,-2.47405e-06,-1.56929e-05,0.267442,-0.12615913800286005,7.689069560834483e-06,-2.4740469395378994e-06,0.3111793507982572,-1.569277686708226e-05,-0.1259817303016021
322,0.3122,-0.281495,737.319,-0.488793,0.110341,-0.0724717,-0.14508,-0.135239,0.27169,-0.135039,1.0952e-05,-4.74817e-06,-1.97556e-05,0.268206,-0.12649288146308357,1.0952059973368122e-05,-4.748158727418961e-06,0.3121801624039906,-1.9755404859433945e-05,-0.12631816256806905
323,0.3132,0.325987,738.159,0.542781,-0.110313,0.0918192,0.127822,-0.135619,0.272452,-0.135416,7.6861e-06,-2.41578e-06,-1.57428e-05,0.268967,-0.12682475110890135,7.686129538164721e-06,-2.4157770820432134e-06,0.3131804247392924,-1.574267608273061e-05,-0.1266474785408196
324,0.3142,-0.281385,737.359,-0.488764,0.110378,-0.0724773,-0.145102,-0.136001,0.273213,-0.1358,1.0952e-05,-4.68991e-06,-1.98091e-05,0.26973,-0.12715824035347678,1.0952059973368122e-05,-4.689899002374709e-06,0.31418013538417333,-1.9808903801044053e-05,-0.12698278152676645
325,0.3152,0.325388,738.198,0.542019,-0.110163,0.0916712,0.127671,-0.136381,0.273973,-0.136176,7.68676e-06,-2.36019e-06,-1.57968e-05,0.270489,-0.12748985721094908,7.686789543326356e-06,-2.3601872147782643e-06,0.3151792919184555,-1.579667523121664e-05,-0.12731097429680505
326,0.3162,-0.280656,737.4,-0.487683,0.11019,-0.0723165,-0.144846,-0.136762,0.274733,-0.13656,1.0949e-05,-4.62961e-06,-1.98586e-05,0.27125,-0.12782222025617107,1.0949059940479344e-05,-4.629599283378916e-06,0.3161792081003334,-1.9858402819261656e-05,-0.12764602254929347
327,0.3172,0.324165,738.235,0.540197,-0.109786,0.0913531,0.127241,-0.137141,0.275493,-0.136935,7.69102e-06,-2.30727e-06,-1.58551e-05,0.272008,-0.12815271300236253,7.691049575875297e-06,-2.3072673382973363e-06,0.31717988450735835,-1.5854974308560088e-05,-0.127973093961115
328,0.3182,-0.279314,737.44,-0.48556,0.109779,-0.071991,-0.144312,-0.137522,0.276252,-0.137318,1.09428e-05,-4.5673e-06,-1.99039e-05,0.272769,-0.12848482354763235,1.0942859872686839e-05,-4.567289569878952e-06,0.3181800035368587,-1.990370191873314e-05,-0.128307016315915
329,0.3192,0.322328,738.271,0.537326,-0.109183,0.0908671,0.126533,-0.1379,0.27701,-0.137693,7.69886e-06,-2.257e-06,-1.59174e-05,0.273526,-0.12881419402938843,7.69888963625398e-06,-2.2569974529318415e-06,0.31917956276462767,-1.591727331884396e-05,-0.1286338399015443
330,0.3202,-0.277371,737.479,-0.482411,0.109149,-0.0715033,-0.143504,-0.13828,0.277768,-0.138076,1.09336e-05,-4.50303e-06,-1.99452e-05,0.274285,-0.12914518174400857,1.0933659772005555e-05,-4.5030198613238426e-06,0.32017987994551933,-1.994500109581132e-05,-0.12896750923910505
331,0.3212,0.319889,738.304,0.533427,-0.10836,0.0902165,0.125553,-0.138658,0.278525,-0.13845,7.7102e-06,-2.20935e-06,-1.59838e-05,0.275041,-0.1294743026575379,7.710229723567608e-06,-2.2093475593454315e-06,0.3211796344739848,-1.5983672259745063e-05,-0.129293214479973
332,0.3222,-0.274839,737.519,-0.478259,0.108303,-0.070857,-0.142429,-0.139038,0.279282,-0.138832,1.09215e-05,-4.43685e-06,-1.99826e-05,0.275799,-0.12980503957853318,1.0921559639776035e-05,-4.436840157162614e-06,0.3221801461031548,-1.9982400349172202e-05,-0.1296257609516217
333,0.3232,0.316862,738.335,0.528526,-0.107321,0.0894053,0.124309,-0.139415,0.280038,-0.139206,7.725e-06,-2.16425e-06,-1.60542e-05,0.276553,-0.13013304124641278,7.725029837812869e-06,-2.1642476579764036e-06,0.3231800922256176,-1.6054071132032277e-05,-0.12995122005238036
334,0.3242,-0.271736,737.557,-0.473132,0.107249,-0.0700565,-0.141094,-0.139794,0.280793,-0.139587,1.09066e-05,-4.36885e-06,-2.00161e-05,0.277311,-0.13046265835739224,1.0906659477116776e-05,-4.368840456625556e-06,0.3241794704130412,-2.0015899679259874e-05,-0.13028264549698398
335,0.3252,0.313269,738.364,0.522654,-0.106073,0.0884387,0.122806,-0.140171,0.281548,-0.139961,7.74315e-06,-2.12165e-06,-1.61283e-05,0.278064,-0.13079041214971976,7.74317997831453e-06,-2.12164774926471e-06,0.32517960341590313,-1.6128169939677583e-05,-0.13060785896885807
336,0.3262,-0.268082,737.596,-0.467062,0.105993,-0.0691072,-0.139507,-0.140549,0.282303,-0.140341,1.08888e-05,-4.29909e-06,-2.00459e-05,0.27882,-0.13111891128367936,1.0888859283131325e-05,-4.299080758940477e-06,0.32618049180430453,-2.0045699082316126e-05,-0.13093816522028745
337,0.3272,0.30913,738.392,0.515848,-0.104623,0.0873228,0.121057,-0.140925,0.283056,-0.140714,7.76455e-06,-2.08147e-06,-1.62062e-05,0.279572,-0.1314455491612675,7.764580144176136e-06,-2.0814678337588433e-06,0.3271794817871587,-1.6206068680246766e-05,-0.1312622648363243
338,0.3282,-0.263901,737.633,-0.46009,0.104542,-0.0680152,-0.137679,-0.141303,0.283809,-0.141094,1.08685e-05,-4.22768e-06,-2.00721e-05,0.280327,-0.13177380070023526,1.086855906229367e-05,-4.227671063339322e-06,0.32817922429275903,-2.007189855679492e-05,-0.13159232246076613
339,0.3292,0.304472,738.417,0.508149,-0.102981,0.0860643,0.11907,-0.141679,0.284562,-0.141467,7.78907e-06,-2.04361e-06,-1.62876e-05,0.281078,-0.1321001923856897,7.789100334942844e-06,-2.043607911783596e-06,0.3291797198879691,-1.6287467357711805e-05,-0.13191617812165268
340,0.3302,-0.259218,737.671,-0.452257,0.102907,-0.0667873,-0.135621,-0.142056,0.285314,-0.141846,1.08456e-05,-4.15472e-06,-2.00949e-05,0.281832,-0.1324273289440444,1.084565881370736e-05,-4.154711369164232e-06,0.3301796389597742,-2.0094698098827024e-05,-0.13224511955180618
341,0.3312,0.299322,738.441,0.499606,-0.101157,0.0846708,0.116859,-0.142431,0.286066,-0.142218,7.81659e-06,-2.00797e-06,-1.63724e-05,0.282582,-0.1327526077021114,7.816620549716546e-06,-2.007967983996828e-06,0.33118031025352157,-1.6372265972952604e-05,-0.13256786433308165
342,0.3322,-0.254063,737.708,-0.443613,0.101097,-0.0654312,-0.133346,-0.142808,0.286817,-0.142596,1.08204e-05,-4.08032e-06,-2.01145e-05,0.283334,-0.13307949834624955,1.0820458540727884e-05,-4.08031167553613e-06,0.3321804021540262,-2.011429770476525e-05,-0.1328956917170847
343,0.3332,0.293711,738.464,0.490268,-0.0991614,0.0831506,0.114436,-0.143182,0.287567,-0.142968,7.84693e-06,-1.97445e-06,-1.64604e-05,0.284083,-0.13340366599073994,7.846960787150081e-06,-1.974448050723332e-06,0.33317991222506627,-1.6460264528395108e-05,-0.13321819453052353
344,0.3342,-0.248466,737.745,-0.434209,0.0991233,-0.0639549,-0.130866,-0.143558,0.288317,-0.143346,1.07931e-05,-4.0046e-06,-2.0131e-05,0.284835,-0.13372944496204275,1.0793158245814283e-05,-4.004591981576766e-06,0.3341801722098421,-2.013079737273049e-05,-0.13354577613616703
345,0.3352,0.28767,738.484,0.480191,-0.0970055,0.0815125,0.111816,-0.143932,0.289066,-0.143717,7.87994e-06,-1.94292e-06,-1.65513e-05,0.285582,-0.13405336957194913,7.879971046786949e-06,-1.9429181125074635e-06,0.335179847490485,-1.6551163028011295e-05,-0.13386717103078116
346,0.3362,-0.24246,737.781,-0.424099,0.0969973,-0.0623671,-0.128198,-0.144308,0.289815,-0.144094,1.07637e-05,-3.92768e-06,-2.01446e-05,0.286333,-0.13437890430062582,1.076375792874451e-05,-3.927672286629935e-06,0.3361802718083926,-2.0144397098853517e-05,-0.13419364156374036
347,0.3372,0.281235,738.504,0.469431,-0.094702,0.0797658,0.109013,-0.144681,0.290563,-0.144465,7.91544e-06,-1.91326e-06,-1.66449e-05,0.287079,-0.13470172076030917,7.915471327279988e-06,-1.9132581696723605e-06,0.3371801085440267,-1.6644761474449155e-05,-0.13451479614486173
348,0.3382,-0.236079,737.817,-0.413342,0.0947316,-0.0606771,-0.125355,-0.145056,0.29131,-0.144842,1.07325e-05,-3.84971e-06,-2.01557e-05,0.287828,-0.13502614678134328,1.0732557593540193e-05,-3.849702589930892e-06,0.3381793552572907,-2.015549687528484e-05,-0.1348410225691703
349,0.3392,0.274442,738.522,0.45805,-0.0922636,0.0779202,0.106045,-0.145429,0.292057,-0.145212,7.95324e-06,-1.88532e-06,-1.6741e-05,0.288574,-0.1353487218646009,7.953271627059166e-06,-1.8853182227607235e-06,0.3391793486867134,-1.674085987024565e-05,-0.13516107217799078
350,0.3402,-0.22936,737.853,-0.401998,0.0923387,-0.0588943,-0.122355,-0.145803,0.292804,-0.145588,1.06997e-05,-3.77081e-06,-2.01643e-05,0.289322,-0.13567204097818053,1.0699757241994234e-05,-3.7708028904903657e-06,0.3401800893903,-2.0164096701913437e-05,-0.1354861904887792
351,0.3412,0.267327,738.538,0.44611,-0.0897038,0.0759859,0.102926,-0.146176,0.29355,-0.145957,7.99315e-06,-1.85897e-06,-1.68394e-05,0.290067,-0.13599437518782842,7.993181945220584e-06,-1.858968272094863e-06,0.3411802367455654,-1.683925821804877e-05,-0.13580513723519505
352,0.3422,-0.222338,737.888,-0.390128,0.0898321,-0.0570284,-0.119213,-0.146549,0.294295,-0.146333,1.06654e-05,-3.69112e-06,-2.01708e-05,0.290813,-0.13631658918923628,1.0665456875669221e-05,-3.6911131878758496e-06,0.3421797883086668,-2.0170596570778798e-05,-0.13613001342304387
353,0.3432,0.259927,738.553,0.433675,-0.0870361,0.073973,0.0996734,-0.146921,0.29504,-0.146702,8.03496e-06,-1.83407e-06,-1.69398e-05,0.291557,-0.13663781966548494,8.034992280414599e-06,-1.8340683181072848e-06,0.3431800848151396,-1.6939656522385604e-05,-0.13644872264262342
354,0.3442,-0.215042,737.923,-0.377791,0.0872233,-0.0550867,-0.115944,-0.147294,0.295784,-0.147077,1.06298e-05,-3.61058e-06,-2.01756e-05,0.292302,-0.13695979370685796,1.0629856496580103e-05,-3.6105734818603352e-06,0.3441797826397188,-2.0175396473920415e-05,-0.13677249366077238
355,0.3452,0.252271,738.568,0.420796,-0.0842717,0.0718886,0.0963018,-0.147666,0.296528,-0.147445,8.0785e-06,-1.8102e-06,-1.70423e-05,0.293045,-0.1372807849555251,8.078532631072832e-06,-1.8101983615403938e-06,0.3451802245162323,-1.704215478082194e-05,-0.1370901029394136
356,0.3462,-0.20753,737.957,-0.365057,0.0845286,-0.0530853,-0.112569,-0.148038,0.297271,-0.147819,1.05932e-05,-3.52944e-06,-2.01788e-05,0.293789,-0.13760165681765502,1.0593256108082372e-05,-3.529433771576329e-06,0.3461800648177231,-2.017859640934816e-05,-0.13741277089824477
357,0.3472,0.244421,738.581,0.407566,-0.0814303,0.0697514,0.0928345,-0.148409,0.298013,-0.148187,8.1235e-06,-1.78743e-06,-1.71462e-05,0.294531,-0.13792154725962946,8.123532995618632e-06,-1.7874284025110043e-06,0.3471793010966322,-1.714605300473515e-05,-0.13773014459821176
358,0.3482,-0.199828,737.99,-0.351994,0.081762,-0.0510309,-0.109103,-0.148781,0.298755,-0.148561,1.05558e-05,-3.44794e-06,-2.01807e-05,0.295274,-0.13824218080251238,1.0555855712635065e-05,-3.4479340558224436e-06,0.3481792790839999,-2.018049637109165e-05,-0.13805257322622033
359,0.3492,0.2364,738.593,0.394035,-0.0785229,0.0675662,0.089285,-0.149151,0.299497,-0.148929,8.1698e-06,-1.76569e-06,-1.72514e-05,0.296015,-0.13856097221556718,8.169833372928537e-06,-1.7656884411243468e-06,0.34917999933037813,-1.7251251195449235e-05,-0.13836971152224753
360,0.3502,-0.191974,738.024,-0.338661,0.0789359,-0.0489337,-0.105564,-0.149523,0.300238,-0.149302,1.05178e-05,-3.36623e-06,-2.01814e-05,0.296757,-0.138881367936604,1.0517855312253133e-05,-3.366224334278023e-06,0.3501801122059405,-2.0181196356938713e-05,-0.13869103968842122
361,0.3512,0.228247,738.604,0.380269,-0.0755633,0.065344,0.0856705,-0.149893,0.300978,-0.149669,8.21717e-06,-1.74481e-06,-1.73575e-05,0.297496,-0.13919992289416616,8.217203760985115e-06,-1.7448084778104445e-06,0.35117961525949215,-1.735734935948141e-05,-0.1390070820795295
362,0.3522,-0.184004,738.056,-0.325121,0.0760638,-0.0468035,-0.101969,-0.150263,0.301718,-0.150041,1.04793e-05,-3.28442e-06,-2.01812e-05,0.298237,-0.1395183600081964,1.0479354908055072e-05,-3.2844146062860347e-06,0.35217985821903475,-2.0180996360918968e-05,-0.1393273118785605
363,0.3532,0.22,738.614,0.36633,-0.0725652,0.063095,0.0820079,-0.150633,0.302457,-0.150408,8.26543e-06,-1.72464e-06,-1.74644e-05,0.298975,-0.13983667932228871,8.26546415866325e-06,-1.724638512778931e-06,0.3531794884521364,-1.7464247498266694e-05,-0.13964312080061914
364,0.3542,-0.175956,738.088,-0.311436,0.0731591,-0.0446502,-0.0983324,-0.151003,0.303196,-0.150779,1.04406e-05,-3.20267e-06,-2.01804e-05,0.299715,-0.14015488088002115,1.044065450317433e-05,-3.202664871415628e-06,0.35417985768500726,-2.0180196377062032e-05,-0.13996225399993312
365,0.3552,0.211694,738.624,0.35228,-0.0695417,0.0608293,0.0783133,-0.151372,0.303934,-0.151146,8.31438e-06,-1.70506e-06,-1.75719e-05,0.300452,-0.14047210519749043,8.314414564614125e-06,-1.7050585463529444e-06,0.3551796112836809,-1.7571745615119205e-05,-0.14027782994098792
366,0.3562,-0.167864,738.119,-0.297665,0.0702345,-0.0424833,-0.0946719,-0.151741,0.304672,-0.151517,1.04018e-05,-3.12109e-06,-2.01791e-05,0.301191,-0.14078921248078058,1.0401854098951446e-05,-3.12108512945386e-06,0.3561801029728322,-2.0178896403377777e-05,-0.14059672770688647
367,0.3572,0.203365,738.633,0.33818,-0.0665058,0.0585564,0.0746025,-0.152109,0.305409,-0.151883,8.36381e-06,-1.68591e-06,-1.76795e-05,0.301927,-0.14110534387884277,8.363844976821966e-06,-1.6859085788523132e-06,0.35717997611671826,-1.7679343718546292e-05,-0.14091121175045518
368,0.3582,-0.159762,738.15,-0.283866,0.0673025,-0.0403119,-0.0910023,-0.152479,0.306145,-0.152253,1.03631e-05,-3.03981e-06,-2.01777e-05,0.302665,-0.1414230761175187,1.0363153697179328e-05,-3.039805379745353e-06,0.358179228258821,-2.0177496431572628e-05,-0.1412290158047319
369,0.3592,0.195046,738.641,0.324085,-0.0634697,0.0562854,0.0708909,-0.152846,0.306881,-0.152618,8.41355e-06,-1.66707e-06,-1.77873e-05,0.3034,-0.14173811603522268,8.413585393940437e-06,-1.667068610489153e-06,0.35917921612121195,-1.7787141806890894e-05,-0.1415424100160403
370,0.3602,-0.151683,738.18,-0.270095,0.0643749,-0.0381449,-0.0873386,-0.153215,0.307617,-0.152988,1.03248e-05,-2.95895e-06,-2.01763e-05,0.304137,-0.14205475624669373,1.0324853300991421e-05,-2.9589456223000354e-06,0.360179940245581,-2.01760964598785e-05,-0.14185998057015892
371,0.3612,0.186769,738.649,0.310051,-0.0604452,0.054025,0.0671927,-0.153582,0.308352,-0.153353,8.46342e-06,-1.64841e-06,-1.78948e-05,0.304871,-0.14236956438032533,8.463455814844423e-06,-1.64840864136373e-06,0.3611800399932956,-1.7894639888993424e-05,-0.14217314452135288
372,0.3622,-0.143657,738.209,-0.256405,0.0614632,-0.0359904,-0.0836947,-0.15395,0.309086,-0.153722,1.02869e-05,-2.87861e-06,-2.01751e-05,0.305606,-0.14268511431588415,1.0286952910387726e-05,-2.878605856793115e-06,0.36217951290433636,-2.0174896484093097e-05,-0.14248962423692602
373,0.3632,0.178563,738.656,0.29613,-0.0574435,0.0517835,0.063522,-0.154317,0.30982,-0.154087,8.51325e-06,-1.6298e-06,-1.8002e-05,0.306339,-0.14299969115055022,8.5132862377435e-06,-1.629798671909377e-06,0.3631797196977957,-1.8001837964964906e-05,-0.14280255841011869
374,0.3642,-0.135713,738.238,-0.242845,0.0585781,-0.0338565,-0.080084,-0.154684,0.310553,-0.154455,1.02496e-05,-2.79891e-06,-2.01744e-05,0.307073,-0.14331415255670032,1.024965252738319e-05,-2.7989060830124757e-06,0.36417929673256233,-2.017419649813501e-05,-0.14311794903318986
375,0.3652,0.170458,738.662,0.282369,-0.054475,0.0495685,0.0598913,-0.15505,0.311286,-0.154819,8.56288e-06,-1.61114e-06,-1.81086e-05,0.307805,-0.14362764220475954,8.562916661514208e-06,-1.6111387021178203e-06,0.3651796067258919,-1.8108436040331632e-05,-0.14342979733990668
376,0.3662,-0.127877,738.266,-0.229461,0.0557295,-0.0317505,-0.0765188,-0.155417,0.312018,-0.155187,1.02131e-05,-2.71993e-06,-2.01743e-05,0.308538,-0.14394187319515672,1.0213152153992766e-05,-2.7199263009647368e-06,0.3661792840352729,-2.0174096500125138e-05,-0.14374495718151803
377,0.3672,0.162478,738.669,0.268813,-0.0515493,0.0473872,0.0563129,-0.155783,0.31275,-0.155551,8.61216e-06,-1.59232e-06,-1.82144e-05,0.30927,-0.14425513313950056,8.612197084811868e-06,-1.592318732313025e-06,0.36717969337633516,-1.8214234118851813e-05,-0.14405657729880195
378,0.3682,-0.120176,738.293,-0.216296,0.0529267,-0.029679,-0.0730108,-0.156149,0.313481,-0.155918,1.01776e-05,-2.64177e-06,-2.0175e-05,0.310001,-0.14456827845168374,1.0177651792009357e-05,-2.64176651054715e-06,0.3681794671049712,-2.0174796486083224e-05,-0.14437065089890244
379,0.3692,0.154648,738.675,0.255504,-0.0486754,0.0452461,0.0527976,-0.156514,0.314212,-0.156281,8.66095e-06,-1.57324e-06,-1.83194e-05,0.310732,-0.14488045405453553,8.660987506070583e-06,-1.5732387624867172e-06,0.36917997193538765,-1.8319232200858515e-05,-0.1446811879867348
380,0.3702,-0.112631,738.32,-0.20339,0.0501782,-0.0276485,-0.0695703,-0.15688,0.314942,-0.156648,1.0143e-05,-2.5645e-06,-2.01767e-05,0.311462,-0.14519337054114145,1.0143051440314466e-05,-2.5644967116544848e-06,0.37017983822169276,-2.017649645180697e-05,-0.1449950323967718
381,0.3712,0.14699,738.68,0.242479,-0.0458614,0.0431512,0.0493556,-0.157245,0.315672,-0.157011,8.70914e-06,-1.55382e-06,-1.84233e-05,0.312191,-0.1455053180270145,8.709177924615119e-06,-1.5538187928543223e-06,0.3711804346768659,-1.8423130292100076e-05,-0.14530534287525254
382,0.3722,-0.105263,738.345,-0.190778,0.0474917,-0.0256645,-0.0662069,-0.15761,0.316401,-0.157376,1.01096e-05,-2.4882e-06,-2.01794e-05,0.312921,-0.14581715167283227,1.0109651102263584e-05,-2.488196904404383e-06,0.37218038965304934,-2.0179196397296373e-05,-0.1456172494986815
383,0.3732,0.139522,738.686,0.229772,-0.0431145,0.0411078,0.0459959,-0.157974,0.317129,-0.157739,8.7566e-06,-1.53397e-06,-1.8526e-05,0.313649,-0.1461280176485834,8.756638339102452e-06,-1.533968823519416e-06,0.3731797006817963,-1.8525828394677646e-05,-0.1459273341533437
384,0.3742,-0.0980908,738.37,-0.178492,0.0448742,-0.023732,-0.0629293,-0.158338,0.317857,-0.158104,1.00775e-05,-2.41293e-06,-2.01835e-05,0.314378,-0.1464387704897111,1.007755077808703e-05,-2.4129270889128307e-06,0.374179739473846,-2.0183296314479904e-05,-0.1462390137913835
385,0.3752,0.132262,738.691,0.217413,-0.0404413,0.0391205,0.0427266,-0.158702,0.318585,-0.158466,8.80324e-06,-1.51362e-06,-1.86274e-05,0.315105,-0.14674941023738886,8.803278748636956e-06,-1.5136188544762064e-06,0.3751805065592029,-1.862722651102544e-05,-0.14654801933501316
386,0.3762,-0.0911297,738.395,-0.166561,0.0423317,-0.0218555,-0.059745,-0.159066,0.319311,-0.158831,1.00467e-05,-2.33874e-06,-2.01889e-05,0.315832,-0.1470599369327753,1.0046750468228893e-05,-2.3387372651839655e-06,0.3761792501070047,-2.0188696205569734e-05,-0.14685947246430198
387,0.3772,0.125225,738.696,0.205427,-0.0378475,0.0371935,0.0395546,-0.159429,0.320038,-0.159192,8.84897e-06,-1.49271e-06,-1.87273e-05,0.316558,-0.1473694979869381,8.849009152323006e-06,-1.4927088859417736e-06,0.3771800961853007,-1.872712464523474e-05,-0.14716740061036782
388,0.3782,-0.0843939,738.418,-0.155007,0.0398696,-0.020039,-0.0566604,-0.159793,0.320764,-0.159556,1.00173e-05,-2.26569e-06,-2.01957e-05,0.317285,-0.14767979901145822,1.0017350173363582e-05,-2.265687433333774e-06,0.37818029196226655,-2.019549606824267e-05,-0.1474777751849462
389,0.3792,0.118423,738.701,0.193837,-0.0353377,0.0353303,0.0364861,-0.160155,0.321489,-0.159917,8.89371e-06,-1.47119e-06,-1.88258e-05,0.31801,-0.14798828308523004,8.893749549265806e-06,-1.4711889178009585e-06,0.3791798349644955,-1.88256227957595e-05,-0.14778548016401394
390,0.3802,-0.0778952,738.441,-0.143853,0.0374923,-0.0182856,-0.0536813,-0.160518,0.322214,-0.160281,9.98936e-06,-2.19381e-06,-2.02041e-05,0.318735,-0.14829750721089574,9.989409893718104e-06,-2.193807593586783e-06,0.38018010289815685,-2.0203895898518454e-05,-0.14809562979857638
391,0.3812,0.111868,738.706,0.182661,-0.0329162,0.0335337,0.033526,-0.16088,0.322938,-0.160641,8.93739e-06,-1.44902e-06,-1.89226e-05,0.319459,-0.14860576771476786,8.937429938571384e-06,-1.4490189501614736e-06,0.38117971510861093,-1.892242096868113e-05,-0.1484022601750694
392,0.3822,-0.071643,738.463,-0.133114,0.0352036,-0.016598,-0.0508121,-0.161243,0.323662,-0.161004,9.96298e-06,-2.12313e-06,-2.02141e-05,0.320183,-0.14891476773419088,9.963029630633002e-06,-2.123127746167519e-06,0.38218005130035504,-2.021389569650811e-05,-0.1487113340543229
393,0.3832,0.105566,738.71,0.171915,-0.0305861,0.0318062,0.0306785,-0.161604,0.324385,-0.161364,8.97997e-06,-1.42614e-06,-1.90178e-05,0.320906,-0.14922195405257233,8.980010320014387e-06,-1.4261389830183546e-06,0.3831797288173209,-1.901761916278666e-05,-0.14901774281717683
394,0.3842,-0.0656448,738.484,-0.122805,0.0330065,-0.0149784,-0.0480565,-0.161966,0.325108,-0.161727,9.93818e-06,-2.05368e-06,-2.02257e-05,0.321629,-0.1495298799672521,9.938229383887887e-06,-2.053677891189487e-06,0.3841801293624747,-2.0225495461878573e-05,-0.1493265933167771
395,0.3852,0.0995252,738.715,0.161608,-0.02835,0.0301493,0.0279467,-0.162327,0.32583,-0.162086,9.0214e-06,-1.40255e-06,-1.91113e-05,0.322351,-0.1498368442701935,9.021440692924543e-06,-1.4025490164826238e-06,0.38517986827819395,-1.9111117380288256e-05,-0.14963193025851607
396,0.3862,-0.0599063,738.504,-0.112935,0.0309032,-0.0134284,-0.0454173,-0.162689,0.326552,-0.162448,9.915e-06,-1.98548e-06,-2.02391e-05,0.323073,-0.15014454763489848,9.915049153708111e-06,-1.9854780289874085e-06,0.38618032926604706,-2.023889519076061e-05,-0.1499397077886685
397,0.3872,0.0937492,738.719,0.151751,-0.0262097,0.0285645,0.025333,-0.163049,0.327273,-0.162807,9.06165e-06,-1.3782e-06,-1.92031e-05,0.323794,-0.15045044053372447,9.061691056855281e-06,-1.3781990503280994e-06,0.3871801256667391,-1.9202915621630012e-05,-0.15024482466181666
398,0.3882,-0.0544311,738.524,-0.103511,0.0288952,-0.0119491,-0.0428964,-0.16341,0.327993,-0.163168,9.89345e-06,-1.91853e-06,-2.02542e-05,0.324515,-0.1507570725742784,9.893498940316547e-06,-1.918528159672306e-06,0.3881792550006169,-2.0253994885033322e-05,-0.1505515309163039
399,0.3892,0.0882408,738.724,0.142347,-0.0241663,0.0270523,0.0228387,-0.16377,0.328714,-0.163527,9.1007e-06,-1.3531e-06,-1.92931e-05,0.325235,-0.15106274500381311,9.100741411582902e-06,-1.353099084555609e-06,0.3891804931464502,-1.9292913889357166e-05,-0.15085642818437073
400,0.3902,-0.049221,738.543,-0.0945372,0.0269835,-0.010541,-0.0404949,-0.16413,0.329433,-0.163887,9.87355e-06,-1.85284e-06,-2.02711e-05,0.325955,-0.15136830741107832,9.873598743714851e-06,-1.852838283467051e-06,0.39017967308316504,-2.0270894542595563e-05,-0.1511620648523232
401,0.3912,0.0830009,738.728,0.133399,-0.0222203,0.0256132,0.0204646,-0.16449,0.330152,-0.164246,9.13854e-06,-1.32723e-06,-1.93813e-05,0.326674,-0.1516737598356751,9.13858175666249e-06,-1.32722911927452e-06,0.39117957168858464,-1.9381112183802784e-05,-0.1514667429780454
402,0.3922,-0.0442763,738.561,-0.0860144,0.0251684,-0.00920444,-0.0382131,-0.16485,0.330871,-0.164606,9.85531e-06,-1.7884e-06,-2.02897e-05,0.327393,-0.1519791023171898,9.855358563681804e-06,-1.7883984008149056e-06,0.39218018947961797,-2.028949416543746e-05,-0.15177215997221583
403,0.3932,0.0780286,738.733,0.124906,-0.0203717,0.0242469,0.0182105,-0.165209,0.331589,-0.164964,9.17516e-06,-1.30059e-06,-1.94677e-05,0.328111,-0.15228348717910611,9.17520209187117e-06,-1.3005891542627879e-06,0.39318013379271477,-1.946751050552198e-05,-0.15207577118929527
404,0.3942,-0.0395958,738.578,-0.0779408,0.0234495,-0.00793905,-0.0360506,-0.165568,0.332306,-0.165323,9.83871e-06,-1.72521e-06,-2.03101e-05,0.328829,-0.15258776278646935,9.838758400215752e-06,-1.7252085118268923e-06,0.3941794021435385,-2.030989375134684e-05,-0.15238012135331513
405,0.3952,0.073322,738.737,0.116864,-0.0186197,0.0229528,0.0160759,-0.165927,0.333023,-0.16568,9.21058e-06,-1.27319e-06,-1.95524e-05,0.329546,-0.15289192917849492,9.210622417432646e-06,-1.27318918952124e-06,0.3951793872266878,-1.9552208853079733e-05,-0.15268266764226612
406,0.3962,-0.0351768,738.595,-0.0703125,0.0218261,-0.00674421,-0.0340064,-0.166285,0.33374,-0.166039,9.82375e-06,-1.66326e-06,-2.03323e-05,0.330263,-0.1531951395899469,9.823798253094651e-06,-1.6632586168352503e-06,0.3961800895562435,-2.0332093300212684e-05,-0.15298679996956344
407,0.3972,0.0688774,738.742,0.109269,-0.0169633,0.02173,0.0140592,-0.166643,0.334456,-0.166396,9.2448e-06,-1.24503e-06,-1.96353e-05,0.330978,-0.1534982414714997,9.244842733346914e-06,-1.245029224938854e-06,0.39718011246584517,-1.9635107228799242e-05,-0.1532891297129041
408,0.3982,-0.0310153,738.611,-0.0631231,0.0202968,-0.00561893,-0.0320789,-0.167001,0.335171,-0.166754,9.81041e-06,-1.60252e-06,-2.03562e-05,0.331694,-0.15380123486199992,9.810458122316845e-06,-1.60251871594852e-06,0.39817945346809247,-2.0355992813914092e-05,-0.15359219795201529
409,0.3992,0.0646902,738.747,0.102112,-0.0154009,0.0205774,0.0121585,-0.167359,0.335886,-0.167111,9.27786e-06,-1.21613e-06,-1.97166e-05,0.332409,-0.1541041198002805,9.277903039395241e-06,-1.2161292605172846e-06,0.3991795092546615,-1.971640562914434e-05,-0.1538943116068503
410,0.4002,-0.0271063,738.626,-0.0563644,0.01886,-0.0045619,-0.030266,-0.167717,0.336601,-0.167468,9.79866e-06,-1.54297e-06,-2.03818e-05,0.333124,-0.15440689632516036,9.798708006991674e-06,-1.5429688096091354e-06,0.4001802803368055,-2.038159229256209e-05,-0.15419631742636042
411,0.4012,0.0607546,738.751,0.0953844,-0.0139305,0.0194933,0.0103716,-0.168074,0.337315,-0.167825,9.30976e-06,-1.18652e-06,-1.97961e-05,0.333838,-0.15470871918458617,9.309803336021716e-06,-1.1865192960369697e-06,0.401180366045077,-1.979590405853937e-05,-0.15449821544903575
412,0.4022,-0.0234437,738.641,-0.0500264,0.0175136,-0.00357154,-0.028565,-0.168431,0.338028,-0.168182,9.78847e-06,-1.48459e-06,-2.04091e-05,0.334551,-0.15501043431248251,9.7885179073387e-06,-1.4845888980374866e-06,0.40217976388906007,-2.0408891735712587e-05,-0.15480000571335295
413,0.4032,0.0570639,738.756,0.0890749,-0.0125497,0.0184759,0.00869544,-0.168787,0.338741,-0.168537,9.34056e-06,-1.1562e-06,-1.9874e-05,0.335264,-0.15531119705892193,9.340603623231303e-06,-1.1561993316089314e-06,0.4031798745577977,-1.9873802513337147e-05,-0.15509999845946176
414,0.4042,-0.0200205,738.655,-0.0440975,0.0162551,-0.00264603,-0.026973,-0.169144,0.339453,-0.168894,9.77981e-06,-1.42735e-06,-2.0438e-05,0.335977,-0.15561269714060522,9.779857822467264e-06,-1.4273489813421136e-06,0.40417929437971867,-2.0437791145466733e-05,-0.15540157392558807
415,0.4052,0.0536107,738.76,0.083171,-0.0112559,0.0175233,0.00712691,-0.1695,0.340165,-0.169249,9.37027e-06,-1.12521e-06,-1.99503e-05,0.336689,-0.15591324551963748,9.37031390102483e-06,-1.1252093669034124e-06,0.4051794260419377,-1.995010099409278e-05,-0.15570135315288336
416,0.4062,-0.016829,738.669,-0.038565,0.0150819,-0.00178333,-0.0254865,-0.169856,0.340877,-0.169605,9.77263e-06,-1.37121e-06,-2.04684e-05,0.3374,-0.15621368692248971,9.772677752373227e-06,-1.3712090598527737e-06,0.40618027005146606,-2.0468190523703633e-05,-0.15600186997599252
417,0.4072,0.0503869,738.765,0.0776591,-0.0100463,0.0166333,0.00566242,-0.170212,0.341588,-0.16996,9.39896e-06,-1.09358e-06,-2.0025e-05,0.338111,-0.1565140213872387,9.399004170296266e-06,-1.0935794020339173e-06,0.4071804197345519,-2.0024799501028312e-05,-0.15630143613601166
418,0.4082,-0.013861,738.682,-0.0334149,0.0139909,-0.000981229,-0.024102,-0.170567,0.342298,-0.170315,9.7669e-06,-1.31615e-06,-2.05004e-05,0.338822,-0.15681340576577485,9.766947696387973e-06,-1.316149133900879e-06,0.4081798725963439,-2.0500189868211116e-05,-0.15660089596891802
419,0.4092,0.0473837,738.77,0.0725247,-0.00891773,0.0158034,0.00429817,-0.170922,0.343008,-0.170669,9.42665e-06,-1.06133e-06,-2.00983e-05,0.339532,-0.1571126838817194,9.426694431047267e-06,-1.0613294367800563e-06,0.4091800353216397,-2.009809803049656e-05,-0.15689940641227917
420,0.4102,-0.0111077,738.694,-0.0286324,0.0129792,-0.000237388,-0.0228154,-0.171277,0.343717,-0.171024,9.76256e-06,-1.26213e-06,-2.05339e-05,0.340241,-0.15741185577278882,9.762607653840405e-06,-1.26212920348312e-06,0.4101794982344178,-2.0533689180868286e-05,-0.1571986540034127
421,0.4112,0.044592,738.774,0.0677523,-0.00786688,0.0150312,0.00303014,-0.171632,0.344426,-0.171378,9.4534e-06,-1.0285e-06,-2.01701e-05,0.34095,-0.1577109214766862,9.453444683504841e-06,-1.028499471145139e-06,0.411179670017666,-2.0169896584931735e-05,-0.15749695287787957
422,0.4122,-0.00855976,738.706,-0.0242021,0.0120433,0.000450659,-0.0216228,-0.171987,0.345134,-0.171732,9.75957e-06,-1.20911e-06,-2.05687e-05,0.341659,-0.15800988103110136,9.759617624727213e-06,-1.209109269040276e-06,0.41217913899430636,-2.056848846576642e-05,-0.15779514617323354
423,0.4132,0.0420023,738.779,0.063326,-0.00689037,0.0143142,0.00185411,-0.172341,0.345842,-0.172086,9.47925e-06,-9.95121e-07,-2.02406e-05,0.342367,-0.15830789278202428,9.479294928338433e-06,-9.951205048874812e-07,0.41317931584554013,-2.0240395160464608e-05,-0.15809323392684282
424,0.4142,-0.00620776,738.717,-0.0201078,0.0111798,0.00108546,-0.0205198,-0.172695,0.34655,-0.172439,9.75788e-06,-1.15705e-06,-2.06049e-05,0.343074,-0.15860579905545802,9.75792760815608e-06,-1.1570493305690377e-06,0.41418020107272024,-2.0604687720471304e-05,-0.15839037456685823
425,0.4152,0.039605,738.784,0.0592294,-0.0059847,0.0136497,0.000765793,-0.173048,0.347257,-0.172792,9.50426e-06,-9.61232e-07,-2.03097e-05,0.343781,-0.1589027587919143,9.504305165553006e-06,-9.612315380325143e-07,0.4151803799964666,-2.0309493759418373e-05,-0.15868741033473865
426,0.4162,-0.00404201,738.728,-0.0163331,0.0103853,0.00166961,-0.0195022,-0.173402,0.347963,-0.173145,9.75743e-06,-1.10591e-06,-2.06424e-05,0.344488,-0.15920045452004927,9.7574776039e-06,-1.1059093885101845e-06,0.4161798501161822,-2.0642186947084085e-05,-0.1589843412674975
427,0.4172,0.0373903,738.788,0.0554458,-0.0051463,0.0130351,-0.000239209,-0.173755,0.348669,-0.173498,9.52848e-06,-9.26865e-07,-2.03776e-05,0.345194,-0.1594972043801719,9.528525396040877e-06,-9.268645704274547e-07,0.4171800261109466,-2.0377392378145842e-05,-0.15928116740213505
428,0.4182,-0.00205273,738.738,-0.0128616,0.00965616,0.00220574,-0.0185655,-0.174108,0.349374,-0.17385,9.75817e-06,-1.05567e-06,-2.06811e-05,0.345899,-0.15979384950608055,9.758217611066655e-06,-1.0556694427510394e-06,0.41817949029908474,-2.0680886147483868e-05,-0.15957704835310704
429,0.4192,0.0353482,738.793,0.0519585,-0.00437159,0.0124677,-0.00116532,-0.174461,0.350079,-0.174202,9.55197e-06,-8.92056e-07,-2.04443e-05,0.346604,-0.16009038993474,9.552015620251098e-06,-8.920556021640991e-07,0.4191796593579129,-2.0444091016758037e-05,-0.1598728251723125
430,0.4202,-0.000230118,738.748,-0.00967649,0.00898889,0.0026965,-0.0177053,-0.174813,0.350784,-0.174555,9.76006e-06,-1.00626e-06,-2.07209e-05,0.347309,-0.1603859860895076,9.760107629430692e-06,-1.0062594937298996e-06,0.4201805337845408,-2.072068532366078e-05,-0.16016933772748176
431,0.4212,0.0334689,738.798,0.0487508,-0.00365699,0.0119447,-0.00201695,-0.175165,0.351487,-0.174906,9.57477e-06,-8.56842e-07,-2.051e-05,0.348013,-0.16068147821273937,9.574815838186979e-06,-8.568416328680328e-07,0.42117927171504177,-2.0509789671385725e-05,-0.16046406656200296
432,0.4222,0.00143556,738.758,-0.00676129,0.00837993,0.00314452,-0.0169172,-0.175517,0.352191,-0.175258,9.76302e-06,-9.57671e-07,-2.07619e-05,0.348716,-0.1609768663410479,9.763067658541402e-06,-9.576705414238162e-07,0.42218013418458145,-2.076168447329163e-05,-0.16075953120574515
433,0.4232,0.0317428,738.802,0.045806,-0.00299894,0.0114637,-0.0027985,-0.175869,0.352894,-0.175609,9.59693e-06,-8.21256e-07,-2.05745e-05,0.349419,-0.16127215051103305,9.596976050740835e-06,-8.2125566280844e-07,0.4231802783283898,-2.057428834645325e-05,-0.16105405291870745
434,0.4242,0.00295393,738.767,-0.00409958,0.00782576,0.0035524,-0.016197,-0.17622,0.353596,-0.17596,9.76703e-06,-9.09848e-07,-2.08038e-05,0.350122,-0.16156649232619313,9.767077697508952e-06,-9.09847586050283e-07,0.4241797016403155,-2.080358360245782e-05,-0.16134847127268914
435,0.4252,0.0301601,738.807,0.0431079,-0.00239394,0.0110219,-0.0035143,-0.176572,0.354298,-0.17631,9.61851e-06,-7.85335e-07,-2.06381e-05,0.350824,-0.16186156898435577,9.618556257917632e-06,-7.853346916109061e-07,0.4251798267937237,-2.063788703587921e-05,-0.1616419479463299
436,0.4262,0.00433443,738.775,-0.00167528,0.00732293,0.00392268,-0.0155402,-0.176923,0.354999,-0.176661,9.77201e-06,-8.62758e-07,-2.08467e-05,0.351525,-0.16215570394993595,9.772057746326723e-06,-8.627576277842053e-07,0.42617922810153885,-2.08464827090582e-05,-0.16193615998536737
437,0.4272,0.0287116,738.812,0.0406405,-0.00183854,0.0106168,-0.00416857,-0.177273,0.3557,-0.177011,9.63957e-06,-7.49111e-07,-2.07008e-05,0.352226,-0.16244889814157693,9.639616460832556e-06,-7.491107194557145e-07,0.42717933023528176,-2.0700585739885646e-05,-0.16222943100395038
438,0.4282,0.00558627,738.783,0.000527323,0.00686808,0.00425788,-0.0149427,-0.177624,0.356401,-0.177361,9.77793e-06,-8.16364e-07,-2.08905e-05,0.352927,-0.16274282699079845,9.777977804104054e-06,-8.163636667779528e-07,0.4281801336864033,-2.0890281794971877e-05,-0.16252259939563773
439,0.4292,0.0273881,738.816,0.0383881,-0.00132941,0.0102459,-0.00476546,-0.177974,0.357101,-0.177711,9.66014e-06,-7.12619e-07,-2.07626e-05,0.353627,-0.1630358157253322,9.660186659266046e-06,-7.126187461237166e-07,0.4291802097657751,-2.0762384458694605e-05,-0.16281566519634239
440,0.4302,0.00671837,738.791,0.00252351,0.00645792,0.0045604,-0.0144006,-0.178324,0.3578,-0.17806,9.78473e-06,-7.70631e-07,-2.09351e-05,0.354327,-0.16332870193175242,9.784777870613937e-06,-7.706307030286297e-07,0.43017955596320734,-2.0934880862299998e-05,-0.16310779155017496
441,0.4312,0.0261808,738.821,0.0363358,-0.000863316,0.00990687,-0.00530897,-0.178674,0.358499,-0.178409,9.68028e-06,-6.7589e-07,-2.08236e-05,0.355026,-0.16362148564593748,9.680326854111243e-06,-6.758897715952727e-07,0.43117960094782903,-2.0823383190315958e-05,-0.16339981596969877
442,0.4322,0.00773936,738.799,0.00432802,0.00608929,0.0048326,-0.0139097,-0.179023,0.359198,-0.178759,9.79237e-06,-7.25525e-07,-2.09805e-05,0.355724,-0.16391333081750226,9.792417945408971e-06,-7.255247368442852e-07,0.43218034520826354,-2.098027991082052e-05,-0.16369257479832577
443,0.4332,0.0250812,738.826,0.034469,-0.000437122,0.00959734,-0.00580296,-0.179372,0.359896,-0.179107,9.70003e-06,-6.38956e-07,-2.08839e-05,0.356422,-0.16420507415287378,9.700077045371458e-06,-6.389557958286218e-07,0.4331803560524028,-2.08836819328706e-05,-0.1639835591480825
444,0.4342,0.00865754,738.806,0.00595504,0.00575913,0.00507672,-0.0134664,-0.179721,0.360593,-0.179456,9.8008e-06,-6.81012e-07,-2.10266e-05,0.35712,-0.1644967156875864,9.800848028040932e-06,-6.810117680888794e-07,0.4341796309674244,-2.1026378942634594e-05,-0.16427527797804298
445,0.4352,0.0240812,738.83,0.0327737,-4.78345e-05,0.0093151,-0.00625113,-0.18007,0.36129,-0.179804,9.71944e-06,-6.01844e-07,-2.09434e-05,0.357817,-0.16478825545716247,9.719487233939006e-06,-6.018438188926112e-07,0.4351796026198467,-2.0943180688570706e-05,-0.16456605958237291
446,0.4362,0.00948082,738.813,0.00741816,0.00546453,0.00529491,-0.0130671,-0.180419,0.361987,-0.180152,9.80998e-06,-6.37063e-07,-2.10733e-05,0.358514,-0.16507969349711182,9.81002811806242e-06,-6.370627970708753e-07,0.4361802714954648,-2.1073077959621322e-05,-0.16485674001230988
447,0.4372,0.0231731,738.834,0.0312367,0.000307409,0.00905805,-0.00665703,-0.180767,0.362683,-0.1805,9.73856e-06,-5.64585e-07,-2.10024e-05,0.35921,-0.16537019521354446,9.738607420040069e-06,-5.64584840656579e-07,0.43718020089949294,-2.1002179451112823e-05,-0.16514731930305648
448,0.4382,0.0102168,738.819,0.00873032,0.00520271,0.00548924,-0.0127082,-0.181115,0.363378,-0.180847,9.81987e-06,-5.93645e-07,-2.11207e-05,0.359906,-0.16566059585296822,9.819918215026036e-06,-5.936448237431335e-07,0.43817938831652614,-2.1120476959568535e-05,-0.16543696292718324
449,0.4392,0.0223494,738.839,0.0298453,0.000631334,0.00882416,-0.00702402,-0.181463,0.364073,-0.181195,9.75741e-06,-5.27204e-07,-2.10608e-05,0.360601,-0.16595089545055164,9.7574576036763e-06,-5.272038610115715e-07,0.43917927041018623,-2.106057822293117e-05,-0.16572734033548497
450,0.4402,0.0108725,738.826,0.00990381,0.00497101,0.00566166,-0.0123866,-0.18181,0.364768,-0.181542,9.83042e-06,-5.50732e-07,-2.11687e-05,0.361295,-0.16624026028212846,9.830468318705599e-06,-5.507318483477519e-07,0.44017984766344154,-2.1168475944688403e-05,-0.16601678272722942
451,0.4412,0.0216031,738.843,0.0285875,0.00092652,0.00861153,-0.0073553,-0.182158,0.365462,-0.181888,9.77604e-06,-4.89726e-07,-2.11186e-05,0.36199,-0.16653035819158646,9.776087785740017e-06,-4.897258800706794e-07,0.4411796793791958,-2.1118377003914723e-05,-0.16630529100559532
452,0.4422,0.0114548,738.832,0.0109502,0.00476693,0.00581399,-0.0120991,-0.182505,0.366156,-0.182235,9.8416e-06,-5.08295e-07,-2.12171e-05,0.362683,-0.16681952198447436,9.841648428654537e-06,-5.082948708601265e-07,0.44218020521899404,-2.121687491896118e-05,-0.16659453288324833
453,0.4432,0.0209278,738.847,0.0274521,0.0011954,0.00841836,-0.00765389,-0.182851,0.366849,-0.182581,9.7945e-06,-4.52176e-07,-2.11759e-05,0.363377,-0.16710775256310217,9.794547966235356e-06,-4.5217589772494904e-07,0.44317998248402124,-2.117567579218438e-05,-0.16688284129463926
454,0.4442,0.0119701,738.838,0.0118805,0.00458813,0.00594799,-0.0118427,-0.183198,0.367542,-0.182927,9.85338e-06,-4.6631e-07,-2.1266e-05,0.364069,-0.16739671603490092,9.853428544648324e-06,-4.6630989125606703e-07,0.44418045283481966,-2.12657738801747e-05,-0.16717104996857546
455,0.4452,0.0203172,738.852,0.0264284,0.00144028,0.00824298,-0.00792261,-0.183544,0.368234,-0.183273,9.8128e-06,-4.14575e-07,-2.12328e-05,0.364762,-0.16768474693893298,9.812848145607234e-06,-4.1457491406493574e-07,0.44518017157097,-2.1232574585750008e-05,-0.1674591589395601
456,0.4462,0.0124242,738.843,0.012705,0.00443238,0.00606528,-0.0116149,-0.18389,0.368925,-0.183619,9.86572e-06,-4.24753e-07,-2.13154e-05,0.365454,-0.16797267820151118,9.865768666461605e-06,-4.2475290984445024e-07,0.4461791361720462,-2.1315172828439977e-05,-0.16774716824208447
457,0.4472,0.0197655,738.856,0.0255065,0.00166329,0.00808379,-0.00816414,-0.184236,0.369617,-0.183964,9.83099e-06,-3.76944e-07,-2.12893e-05,0.366145,-0.1682605098571055,9.831038324303876e-06,-3.769439289591503e-07,0.4471802384757251,-2.128907338450059e-05,-0.1680342459452896
458,0.4482,0.0128229,738.849,0.0134332,0.00429762,0.00616738,-0.0114129,-0.184582,0.370308,-0.184309,9.87858e-06,-3.83601e-07,-2.13652e-05,0.366836,-0.16854824194017404,9.878628793424937e-06,-3.8360092646794186e-07,0.44818058560063956,-2.1364971765747143e-05,-0.16832122462376997
459,0.4492,0.0192674,738.86,0.0246771,0.00186644,0.00793932,-0.00838093,-0.184927,0.370998,-0.184654,9.84909e-06,-3.39303e-07,-2.13454e-05,0.367526,-0.16883504332062194,9.849138502548982e-06,-3.393029424092475e-07,0.44918017502339613,-2.1345172188547146e-05,-0.16860810431168316
460,0.4502,0.0131712,738.854,0.0140741,0.00418191,0.0062557,-0.0112344,-0.185272,0.371688,-0.184999,9.89195e-06,-3.42832e-07,-2.14153e-05,0.368216,-0.16912174577165973,9.891998925537493e-06,-3.428319412801528e-07,0.4501804544008614,-2.1415070694086324e-05,-0.16889488504317496
461,0.4512,0.0188178,738.864,0.0239315,0.0020516,0.00780821,-0.00857532,-0.185617,0.372377,-0.185343,9.86713e-06,-3.01669e-07,-2.14012e-05,0.368906,-0.16940834932741244,9.867178680345035e-06,-3.016689544832474e-07,0.45117997302856994,-2.140097099589955e-05,-0.1691807360335309
462,0.4522,0.013474,738.859,0.014636,0.00408347,0.00633158,-0.0110771,-0.185962,0.373066,-0.185688,9.9058e-06,-3.02428e-07,-2.14657e-05,0.369595,-0.1696948540219928,9.905849062574745e-06,-3.0242795423518487e-07,0.45218018056191345,-2.1465469613457522e-05,-0.16946731924115344
463,0.4532,0.0184121,738.868,0.0232617,0.00222049,0.00768917,-0.00874943,-0.186306,0.373754,-0.186031,9.88514e-06,-2.64058e-07,-2.14566e-05,0.370283,-0.16998042987034723,9.885188858138605e-06,-2.6405796516026925e-07,0.45317962429536096,-2.145636980876997e-05,-0.1697521431005694
464,0.4542,0.0137358,738.863,0.0151266,0.00400062,0.00639622,-0.0109391,-0.186651,0.374442,-0.186375,9.92009e-06,-2.62371e-07,-2.15164e-05,0.370971,-0.17026673723118235,9.92013920431134e-06,-2.623709656202067e-07,0.45417975588269166,-2.1516168523971757e-05,-0.17003769924487
465,0.4552,0.018046,738.871,0.0226603,0.00237472,0.00758104,-0.00890526,-0.186995,0.375129,-0.186719,9.90315e-06,-2.26487e-07,-2.15118e-05,0.371659,-0.17055211638554613,9.903199036376265e-06,-2.264869743973108e-07,0.4551791206174638,-2.151156862284509e-05,-0.17032315717475088
466,0.4562,0.0139607,738.868,0.015553,0.00393185,0.00645076,-0.0108184,-0.187338,0.375816,-0.187062,9.93481e-06,-2.22643e-07,-2.15674e-05,0.372346,-0.17083656822334692,9.93485935030236e-06,-2.2264297516727538e-07,0.45617917215169723,-2.1567167425295963e-05,-0.1706076875320941
467,0.4572,0.0177155,738.875,0.0221206,0.00251576,0.00748273,-0.00904462,-0.187682,0.376503,-0.187405,9.92117e-06,-1.88968e-07,-2.15668e-05,0.373032,-0.1711217513895612,9.92121921505884e-06,-1.88967982150956e-07,0.4571799109573853,-2.156656743823593e-05,-0.1708921203122602
468,0.4582,0.0141524,738.872,0.0159217,0.00387573,0.00649622,-0.0107133,-0.188025,0.377189,-0.187748,9.94994e-06,-1.83229e-07,-2.16186e-05,0.373719,-0.1714060078760602,9.949989500768197e-06,-1.832289832082168e-07,0.4581798793262375,-2.1618366319753335e-05,-0.1711764555487123
469,0.4592,0.0174171,738.879,0.0216362,0.00264496,0.00739324,-0.00916919,-0.188368,0.377875,-0.18809,9.93922e-06,-1.51515e-07,-2.16215e-05,0.374404,-0.17169016687930383,9.939269394187988e-06,-1.5151498855558998e-07,0.45918053390873514,-2.1621266257043636e-05,-0.17145986473518138
470,0.4602,0.0143144,738.876,0.0162388,0.00383098,0.00653356,-0.0106222,-0.188711,0.37856,-0.188432,9.96546e-06,-1.44115e-07,-2.16701e-05,0.375089,-0.1719742284327228,9.965509655263105e-06,-1.4411498960864577e-07,0.46018041499463713,-2.16698652051317e-05,-0.17174317701228115
471,0.4612,0.0171473,738.882,0.0212015,0.00276357,0.00731167,-0.00928052,-0.189053,0.379244,-0.188775,9.95733e-06,-1.14138e-07,-2.1676e-05,0.375774,-0.17225736482751552,9.957379574432323e-06,-1.1413799350101783e-07,0.4611795200534705,-2.1675765077167064e-05,-0.17202722038634255
472,0.4622,0.0144499,738.881,0.0165096,0.00379641,0.00656365,-0.0105435,-0.189396,0.379928,-0.189116,9.98134e-06,-1.05286e-07,-2.17217e-05,0.376458,-0.1725412318653997,9.981389813784602e-06,-1.0528599447834353e-07,0.46217930873393587,-2.1721464085633357e-05,-0.17230951097091063
473,0.4632,0.0169032,738.886,0.0208111,0.00287273,0.00723719,-0.00938,-0.189738,0.380612,-0.189458,9.97551e-06,-7.68484e-08,-2.17303e-05,0.377142,-0.1728241743781742,9.975559755570629e-06,-7.684839709032332e-08,0.4631797815037908,-2.1730063898717233e-05,-0.17259253271868114
474,0.4642,0.0145618,738.884,0.0167392,0.00377094,0.00658727,-0.010476,-0.19008,0.381295,-0.189799,9.99758e-06,-6.67326e-08,-2.17735e-05,0.377825,-0.17310702014115453,9.9976299758886e-06,-6.673259778100515e-08,0.4641794746509056,-2.1773262959046136e-05,-0.17287463056460783
475,0.4652,0.016682,738.889,0.0204603,0.00297345,0.00716903,-0.00946893,-0.190421,0.381978,-0.19014,9.99377e-06,-3.96553e-08,-2.17845e-05,0.378508,-0.17338894257677928,9.993819937825776e-06,-3.965529926652778e-08,0.4651798508216656,-2.1784262719481973e-05,-0.1731566322315684
476,0.4662,0.0146527,738.888,0.0169322,0.00375359,0.00660514,-0.0104185,-0.190763,0.38266,-0.190481,1.00141e-05,-2.84418e-08,-2.18255e-05,0.379191,-0.17367159522206055,1.0014150141346434e-05,-2.8441799582168414e-08,0.4661794443025584,-2.1825261825481057e-05,-0.17343853775235452
477,0.4672,0.0164812,738.893,0.0201447,0.00306669,0.00710652,-0.00954845,-0.191104,0.383342,-0.190822,1.00121e-05,-2.56703e-09,-2.18386e-05,0.379873,-0.17395332517040374,1.0012150121196939e-05,-2.5670300329849738e-09,0.4671797197387255,-2.1838361539461282e-05,-0.17372034715974616
478,0.4682,0.014725,738.892,0.0170926,0.00374346,0.00661793,-0.0103698,-0.191445,0.384023,-0.191162,1.0031e-05,9.5961e-09,-2.18776e-05,0.380554,-0.17423495906521247,1.0031050310610468e-05,9.596099914688239e-09,0.46817920941547553,-2.187736068703927e-05,-0.17400123448816018
479,0.4692,0.0162986,738.896,0.0198605,0.00315329,0.00704903,-0.00961962,-0.191785,0.384704,-0.191503,1.00306e-05,3.44089e-08,-2.18925e-05,0.381235,-0.17451567145531977,1.0030650306580569e-05,3.440890061767732e-08,0.46917937997651005,-2.1892260360978355e-05,-0.17428285204867677
480,0.4702,0.0147808,738.895,0.0172241,0.00373975,0.00662621,-0.0103289,-0.192126,0.385385,-0.191843,1.00483e-05,4.73904e-08,-2.19298e-05,0.381916,-0.17479711362273676,1.004835048434849e-05,4.739040115886439e-08,0.4701802318856696,-2.1929559543720778e-05,-0.17456354815793762
481,0.4712,0.016132,738.899,0.0196042,0.00323403,0.00699599,-0.0096834,-0.192466,0.386065,-0.192182,1.00492e-05,7.12658e-08,-2.19463e-05,0.382596,-0.1750776349127834,1.004925049330474e-05,7.126580259253501e-08,0.47118029442607967,-2.1946059181709998e-05,-0.17484332369047995
482,0.4722,0.014822,738.899,0.0173303,0.00374174,0.00663052,-0.010295,-0.192806,0.386744,-0.192522,1.00658e-05,8.49497e-08,-2.19821e-05,0.383275,-0.17535806084180372,1.0065850660323505e-05,8.494970371586419e-08,0.47217956505998315,-2.1981858395414555e-05,-0.17512382927177417
483,0.4732,0.0159796,738.902,0.0193724,0.00330958,0.00694691,-0.00974065,-0.193146,0.387423,-0.192861,1.0068e-05,1.07998e-07,-2.2e-05,0.383954,-0.17563839144221494,1.006805068248795e-05,1.0799800587157904e-07,0.4731795144290516,-2.1999758001767233e-05,-0.17540341490120936
484,0.4742,0.0148505,738.902,0.0174139,0.00374877,0.00663134,-0.0102671,-0.193485,0.388102,-0.1932,1.00836e-05,1.22282e-07,-2.20345e-05,0.384633,-0.17591780266463786,1.0083650839654013e-05,1.2228200740871387e-07,0.47418014299430267,-2.2034257242231625e-05,-0.17568290576717938
485,0.4752,0.0158399,738.905,0.0191623,0.00338059,0.00690132,-0.00979212,-0.193825,0.38878,-0.193539,1.00869e-05,1.446e-07,-2.20536e-05,0.385311,-0.17619794298517877,1.0086950873011702e-05,1.446000104099454e-07,0.47517997603635354,-2.205335682115006e-05,-0.17596230190180384
486,0.4762,0.0148677,738.905,0.0174779,0.00376024,0.00662909,-0.0102447,-0.194164,0.389458,-0.193878,1.01017e-05,1.59393e-07,-2.2087e-05,0.385989,-0.1764771645517772,1.0101751022340011e-05,1.5939301278855567e-07,0.47618048719506234,-2.2086756084060966e-05,-0.17624160333719097
487,0.4772,0.0157112,738.908,0.0189714,0.0034476,0.00685882,-0.00983853,-0.194503,0.390135,-0.194216,1.01059e-05,1.81067e-07,-2.21072e-05,0.386666,-0.17675629147830696,1.0105951064875995e-05,1.8106701649145407e-07,0.47718019974940984,-2.210695563764631e-05,-0.1765199866258369
488,0.4782,0.0148751,738.908,0.0175245,0.00377565,0.00662417,-0.0102271,-0.194841,0.390812,-0.194554,1.012e-05,1.96291e-07,-2.21396e-05,0.387343,-0.17703450083175787,1.0120051207263003e-05,1.9629101921658787e-07,0.4781805893383071,-2.2139354920902576e-05,-0.1767982758368314
489,0.4792,0.0155924,738.911,0.0187974,0.00351111,0.00681905,-0.00988048,-0.19518,0.391488,-0.194892,1.01251e-05,2.17396e-07,-2.21607e-05,0.38802,-0.17731343885330997,1.0125151258977283e-05,2.1739602362735866e-07,0.4791801772393447,-2.2160454453468148e-05,-0.1770764710019671
490,0.4802,0.014874,738.911,0.017556,0.00379451,0.0066169,-0.0102136,-0.195518,0.392164,-0.19523,1.01387e-05,2.32981e-07,-2.21922e-05,0.388696,-0.17759145992277003,1.0138751396882029e-05,2.329810271373134e-07,0.4801804410902488,-2.219195375496863e-05,-0.1773545721530263
491,0.4812,0.0154821,738.914,0.0186382,0.00357156,0.00678168,-0.00991853,-0.195856,0.392839,-0.195567,1.01445e-05,2.53582e-07,-2.22141e-05,0.389371,-0.17786938703698785,1.014455145553761e-05,2.535820322613347e-07,0.481179900167475,-2.2213853268726602e-05,-0.1776317569539484
492,0.4822,0.0148653,738.914,0.0175743,0.00381641,0.00660761,-0.0102038,-0.196193,0.393514,-0.195904,1.01576e-05,2.69468e-07,-2.22449e-05,0.390046,-0.17814639837452428,1.0157651588516003e-05,2.694680363291013e-07,0.4821800341073188,-2.2244652584046953e-05,-0.17790884835933074
493,0.4832,0.0153794,738.916,0.0184919,0.00362937,0.00674642,-0.00995316,-0.196531,0.394188,-0.196241,1.01641e-05,2.89624e-07,-2.22675e-05,0.390721,-0.17842413795124112,1.0164151654556974e-05,2.8962404186039237e-07,0.48317936018536467,-2.2267252081098476e-05,-0.17818584640064217
494,0.4842,0.0148502,738.917,0.0175811,0.00384098,0.00659655,-0.0101971,-0.196868,0.394862,-0.196578,1.01767e-05,3.05757e-07,-2.22976e-05,0.391395,-0.17870096236921718,1.0176751782831062e-05,3.0575704679236537e-07,0.48417936003622297,-2.229735141034972e-05,-0.17846275110934107
495,0.4852,0.0152833,738.919,0.0183571,0.00368486,0.00671302,-0.00998482,-0.197205,0.395536,-0.196915,1.01838e-05,3.25518e-07,-2.23208e-05,0.392068,-0.17897769351308201,1.0183851855138926e-05,3.255180529571078e-07,0.4851800341141699,-2.2320550892795943e-05,-0.17873956251687528
496,0.4862,0.0148294,738.92,0.0175779,0.0038679,0.00658397,-0.0101933,-0.197542,0.396209,-0.197251,1.01961e-05,3.41853e-07,-2.23504e-05,0.392742,-0.1792543314142636,1.0196151980501611e-05,3.4185305852751924e-07,0.48617989669314765,-2.2350150231664756e-05,-0.1790154596705522
497,0.4872,0.0151931,738.921,0.0182322,0.00373837,0.00668124,-0.0100139,-0.197878,0.396882,-0.197587,1.02037e-05,3.61263e-07,-2.23741e-05,0.393414,-0.1795300556346454,1.0203752057957871e-05,3.6126306524053575e-07,0.4871804324061253,-2.2373849701717852e-05,-0.1792912641383575
498,0.4882,0.0148038,738.922,0.0175661,0.00389686,0.00657008,-0.0101918,-0.198215,0.397554,-0.197923,1.02158e-05,3.77759e-07,-2.24033e-05,0.394087,-0.17980650742115412,1.0215852181527652e-05,3.7775907135717546e-07,0.4881801535253767,-2.2403049047992063e-05,-0.17956697595142845
499,0.4892,0.0151079,738.924,0.018116,0.00379015,0.00665089,-0.0100407,-0.198551,0.398226,-0.198258,1.02239e-05,3.96857e-07,-2.24274e-05,0.394759,-0.1800820461415633,1.0223952264354352e-05,3.968570787549197e-07,0.48918054668299993,-2.242714850775318e-05,-0.17984177498307707
500,0.4902,0.014774,738.925,0.0175468,0.00392761,0.00655507,-0.0101925,-0.198887,0.398897,-0.198594,1.02357e-05,4.13479e-07,-2.24561e-05,0.39543,-0.18035749229651432,1.023575238501273e-05,4.1347908541489176e-07,0.4901801221498894,-2.2455847863644962e-05,-0.18011730185557595
501,0.4912,0.0150271,738.926,0.0180074,0.00384046,0.0066218,-0.0100656,-0.199222,0.399568,-0.198929,1.02442e-05,4.32298e-07,-2.24806e-05,0.396101,-0.18063202654954025,1.0244252472091375e-05,4.322980935445031e-07,0.491180368556992,-2.2480347313225124e-05,-0.1803919165589234
502,0.4922,0.0147406,738.927,0.0175211,0.00395994,0.0065391,-0.010195,-0.199558,0.400238,-0.199264,1.02559e-05,4.49017e-07,-2.2509e-05,0.396771,-0.18090728794211597,1.0255952591853301e-05,4.4901710083422586e-07,0.49217979417412017,-2.250874667431013e-05,-0.18066643928175263
503,0.4932,0.0149502,738.929,0.0179054,0.00388951,0.0065938,-0.0100888,-0.199893,0.400908,-0.199599,1.02647e-05,4.67586e-07,-2.25338e-05,0.397442,-0.18118163804444742,1.0264752682287437e-05,4.675861093872413e-07,0.49317988963078285,-2.2533546115810488e-05,-0.18094087005487225
504,0.4942,0.0147042,738.929,0.0174899,0.00399364,0.00652231,-0.0101991,-0.200228,0.401577,-0.199933,1.02762e-05,4.84375e-07,-2.25619e-05,0.398111,-0.18145589625488745,1.0276252800256458e-05,4.843751173488897e-07,0.4941791611960149,-2.2561645482199744e-05,-0.18121439012387974
505,0.4952,0.0148767,738.931,0.0178091,0.00393748,0.00656676,-0.0101105,-0.200563,0.402247,-0.200267,1.02854e-05,5.02718e-07,-2.2587e-05,0.39878,-0.18173006260421443,1.0285452894942537e-05,5.027181264605218e-07,0.4951805966774405,-2.2586744915620294e-05,-0.1814878188524388
506,0.4962,0.0146652,738.932,0.017454,0.00402853,0.00650483,-0.0102046,-0.200897,0.402915,-0.200601,1.02969e-05,5.19556e-07,-2.26149e-05,0.399449,-0.18200331912692513,1.0296953013355647e-05,5.195561350035405e-07,0.4961797109830468,-2.2614644285101626e-05,-0.18176115627105216
507,0.4972,0.0148061,738.933,0.0177178,0.00398454,0.00654057,-0.010131,-0.201232,0.403583,-0.200935,1.03063e-05,5.37696e-07,-2.26402e-05,0.400117,-0.1822773021203039,1.0306353110056676e-05,5.376961444980566e-07,0.4971794929199731,-2.2639943712654542e-05,-0.18203440241021218
508,0.4982,0.014624,738.934,0.0174141,0.00406448,0.00648678,-0.0102112,-0.201566,0.404251,-0.201269,1.03177e-05,5.54563e-07,-2.26679e-05,0.400785,-0.1825503758955367,1.0317753227573334e-05,5.545631538428353e-07,0.4981799429343463,-2.266764308511693e-05,-0.18230755730040116
509,0.4992,0.0147381,738.935,0.0176308,0.00403083,0.00651511,-0.0101504,-0.2019,0.404918,-0.201602,1.03275e-05,5.72518e-07,-2.26934e-05,0.401452,-0.18282335847935827,1.0327553328748351e-05,5.725181639881782e-07,0.49917956229227944,-2.269314250669119e-05,-0.1825798035523034
510,0.5002,0.0145809,738.936,0.0173708,0.00410134,0.00646824,-0.0102188,-0.202233,0.405585,-0.201935,1.03388e-05,5.89398e-07,-2.27209e-05,0.402119,-0.1830954329980632,1.0338853445590601e-05,5.893981736004861e-07,0.5001798486187334,-2.2720641882356674e-05,-0.1828519591612967
511,0.5012,0.0146723,738.937,0.0175476,0.00407648,0.0064903,-0.0101689,-0.202567,0.406251,-0.202268,1.03488e-05,6.07185e-07,-2.27465e-05,0.402786,-0.1833682335632114,1.0348853549002612e-05,6.071851843536535e-07,0.5011793011786734,-2.274624130027547e-05,-0.18312402415756002
512,0.5022,0.0145363,738.938,0.0173246,0.004139,0.0064493,-0.0102274,-0.2029,0.406917,-0.202601,1.03602e-05,6.24063e-07,-2.27739e-05,0.403452,-0.1836401266687202,1.036025366696336e-05,6.240631946763386e-07,0.5021794195957239,-2.277364067670984e-05,-0.18339599857126243
513,0.5032,0.0146085,738.939,0.0174677,0.00412159,0.00646606,-0.0101866,-0.203233,0.407583,-0.202934,1.03703e-05,6.41695e-07,-2.27997e-05,0.404117,-0.18391192924889832,1.0370353771715912e-05,6.416952058607706e-07,0.5031802043134936,-2.2799440088761003e-05,-0.18366788243256282
514,0.5042,0.0144904,738.94,0.017276,0.00417736,0.00643003,-0.0102367,-0.203566,0.408248,-0.203266,1.03817e-05,6.5856e-07,-2.28269e-05,0.404783,-0.18418364133388543,1.0381753890120748e-05,6.585602168041049e-07,0.5041801515949831,-2.2826639468287446e-05,-0.18393885971087798
515,0.5052,0.0145464,738.941,0.0173906,0.00416626,0.00644232,-0.0102037,-0.203898,0.408912,-0.203598,1.03921e-05,6.76049e-07,-2.28528e-05,0.405447,-0.1844544474086668,1.0392153998006748e-05,6.760492285984299e-07,0.505179258882553,-2.285253887679417e-05,-0.1842097470396692
516,0.5062,0.0144434,738.942,0.0172253,0.00421634,0.00641049,-0.0102466,-0.20423,0.409577,-0.20393,1.04035e-05,6.92891e-07,-2.28799e-05,0.406112,-0.1847251635907542,1.0403554116633629e-05,6.928912399395415e-07,0.506180535977445,-2.2879638257089496e-05,-0.1844805444487948
517,0.5072,0.0144859,738.943,0.0173159,0.00421057,0.00641902,-0.0102202,-0.204562,0.41024,-0.204261,1.04141e-05,7.10248e-07,-2.29059e-05,0.406775,-0.18499578990998733,1.0414154226978667e-05,7.102482522114428e-07,0.5071794647811048,-2.2905637661829736e-05,-0.18475043671894742
518,0.5082,0.0143956,738.944,0.017173,0.00425587,0.00639074,-0.0102571,-0.204894,0.410904,-0.204593,1.04255e-05,7.27059e-07,-2.2933e-05,0.407439,-0.18526632639619545,1.0425554345605548e-05,7.270592643493501e-07,0.5081805642739694,-2.2932737040792794e-05,-0.18502105464889462
519,0.5092,0.0144266,738.945,0.0172434,0.0042546,0.00639611,-0.0102362,-0.205226,0.411566,-0.204924,1.04363e-05,7.44292e-07,-2.29591e-05,0.408102,-0.18553677307919847,1.0436354458409625e-05,7.442922769218541e-07,0.5091793103559974,-2.2958836441877573e-05,-0.18529076803977718
520,0.5102,0.0143471,738.946,0.0171193,0.00429588,0.00637083,-0.0102681,-0.205557,0.412229,-0.205255,1.04478e-05,7.61063e-07,-2.2986e-05,0.408764,-0.18580631579552875,1.0447854578377047e-05,7.610632895005409e-07,0.5101802280063001,-2.2985735823932707e-05,-0.18556039217030063
521,0.5112,0.0143685,738.947,0.0171727,0.0042984,0.00637355,-0.0102518,-0.205889,0.412891,-0.205586,1.04587e-05,7.7818e-07,-2.30122e-05,0.409426,-0.18607658323180765,1.0458754692299621e-05,7.781803028628076e-07,0.5111802983039859,-2.3011935221362023e-05,-0.18582992707000556
522,0.5122,0.014298,738.948,0.0170645,0.00433631,0.00635079,-0.0102794,-0.20622,0.413552,-0.205916,1.04702e-05,7.94906e-07,-2.30391e-05,0.410088,-0.18634594730054532,1.0470254812711133e-05,7.949063158818603e-07,0.5121795186871196,-2.3038834601973868e-05,-0.18609855886738802
523,0.5132,0.0143114,738.949,0.0171037,0.00434202,0.0063513,-0.0102671,-0.20655,0.414213,-0.206247,1.04813e-05,8.11913e-07,-2.30653e-05,0.410749,-0.18661440883934588,1.0481354929092745e-05,8.119133296791148e-07,0.5131793997732652,-2.3065033997959894e-05,-0.18636791566339395
524,0.5142,0.0142485,738.949,0.0170088,0.00437712,0.00633066,-0.0102912,-0.206881,0.414874,-0.206577,1.04929e-05,8.2859e-07,-2.30922e-05,0.41141,-0.18688359491726647,1.0492955050622754e-05,8.285903432270203e-07,0.5141799419992912,-2.309193337723947e-05,-0.18663636995383093
525,0.5152,0.0142552,738.95,0.0170361,0.00438551,0.00632932,-0.0102821,-0.207211,0.415534,-0.206907,1.05042e-05,8.45493e-07,-2.31185e-05,0.41207,-0.18715187906162534,1.0504255169241361e-05,8.454933573265322e-07,0.5151796306219676,-2.3118232769570035e-05,-0.1869047356689677
526,0.5162,0.0141987,738.951,0.0169523,0.00441827,0.00631046,-0.0103032,-0.207541,0.416194,-0.207236,1.05159e-05,8.62115e-07,-2.31453e-05,0.41273,-0.18742007468682298,1.0515955292333956e-05,8.621153715360208e-07,0.5161799792569148,-2.3145032149618494e-05,-0.18717220001063584
527,0.5172,0.0141998,738.952,0.0169698,0.00442892,0.00630759,-0.0102969,-0.207871,0.416853,-0.207566,1.05272e-05,8.78919e-07,-2.31716e-05,0.41339,-0.18768818182206592,1.0527255411174608e-05,8.789193861602485e-07,0.5171794711596553,-2.317133154050577e-05,-0.18744038893102666
528,0.5182,0.0141487,738.953,0.0168953,0.00445973,0.00629023,-0.0103155,-0.208201,0.417512,-0.207895,1.0539e-05,8.95484e-07,-2.31984e-05,0.414049,-0.18795620049655104,1.05390555353857e-05,8.95484400853519e-07,0.5181796219446377,-2.319813091922196e-05,-0.18770767707175828
529,0.5192,0.0141451,738.954,0.0169045,0.00447227,0.00628608,-0.0103115,-0.20853,0.418171,-0.208224,1.05505e-05,9.12192e-07,-2.32248e-05,0.414707,-0.18822331896319044,1.055055565668539e-05,9.121924160471195e-07,0.5191804320462083,-2.3224530306453772e-05,-0.18797487728915574
530,0.5202,0.0140985,738.954,0.0168378,0.00450146,0.00626998,-0.0103281,-0.20886,0.418829,-0.208553,1.05624e-05,9.28696e-07,-2.32515e-05,0.415365,-0.18849116107155406,1.0562455782237024e-05,9.286964313126589e-07,0.5201803817178581,-2.3251229685938846e-05,-0.188241989612141
531,0.5212,0.0140911,738.955,0.0168402,0.00451558,0.00626478,-0.0103259,-0.209189,0.419486,-0.208881,1.05741e-05,9.45312e-07,-2.32779e-05,0.416023,-0.18875810356511358,1.0574155905995752e-05,9.453124467651008e-07,0.5211794683926816,-2.327762907183839e-05,-0.1885082025782352
532,0.5222,0.0140482,738.956,0.01678,0.00454345,0.00624972,-0.0103408,-0.209518,0.420143,-0.20921,1.0586e-05,9.61754e-07,-2.33046e-05,0.41668,-0.1890249582490381,1.0586056031991475e-05,9.617544625140084e-07,0.522179211683125,-2.3304328449880174e-05,-0.18877513946606106
533,0.5232,0.0140376,738.957,0.0167768,0.0045589,0.00624366,-0.0103402,-0.209846,0.4208,-0.209538,1.05978e-05,9.78281e-07,-2.3331e-05,0.417337,-0.18929091444353208,1.0597856156868701e-05,9.782814784919935e-07,0.5231796120207266,-2.333072783433643e-05,-0.18904117758767913
534,0.5242,0.0139978,738.957,0.016722,0.00458567,0.00622949,-0.0103537,-0.210175,0.421456,-0.209866,1.06098e-05,9.94658e-07,-2.33577e-05,0.417994,-0.1895575938615104,1.0609856284204966e-05,9.946584946796122e-07,0.5241791456574003,-2.3357427211045945e-05,-0.1893071284631025
535,0.5252,0.0139847,738.958,0.0167141,0.00460223,0.00622271,-0.0103545,-0.210503,0.422112,-0.210193,1.06218e-05,1.0111e-06,-2.33842e-05,0.41865,-0.1898233753801719,1.062185641154123e-05,1.0111005110946536e-06,0.5251793352032545,-2.3383926591735715e-05,-0.18957218169353007
536,0.5262,0.0139475,738.959,0.0166639,0.0046281,0.00620928,-0.0103667,-0.210831,0.422768,-0.210521,1.06339e-05,1.02741e-06,-2.34109e-05,0.419305,-0.19008906973679074,1.0633956540218037e-05,1.0274105277652268e-06,0.5261801810887066,-2.341062596700194e-05,-0.1898379584281673
537,0.5272,0.0139322,738.959,0.0166521,0.0046456,0.00620192,-0.0103686,-0.211158,0.423423,-0.210848,1.0646e-05,1.04377e-06,-2.34374e-05,0.41996,-0.19035386731422332,1.0646056668894843e-05,1.0437705446619816e-06,0.5271801565635366,-2.3437125346248422e-05,-0.1901028381055737
538,0.5282,0.0138972,738.96,0.0166057,0.00467074,0.00618911,-0.0103799,-0.211486,0.424077,-0.211175,1.06582e-05,1.06001e-06,-2.3464e-05,0.420615,-0.1906193876980209,1.0658256798912191e-05,1.0600105617708522e-06,0.5281792590568333,-2.3463724722505575e-05,-0.1903676311814858
539,0.5292,0.0138802,738.961,0.0165908,0.00468902,0.00618128,-0.0103827,-0.211813,0.424732,-0.211502,1.06704e-05,1.07629e-06,-2.34905e-05,0.421269,-0.19088401188983029,1.067045692892954e-05,1.076290579105077e-06,0.5291805443566533,-2.3490224100419788e-05,-0.1906323376842175
540,0.5302,0.013847,738.961,0.0165474,0.00471357,0.00616898,-0.0103932,-0.21214,0.425385,-0.211829,1.06827e-05,1.09246e-06,-2.35172e-05,0.421923,-0.19114854956367533,1.0682757060287429e-05,1.092460596652245e-06,0.5301794253512686,-2.3516923472799434e-05,-0.1908969576420737
541,0.5312,0.0138286,738.962,0.01653,0.0047325,0.00616077,-0.0103968,-0.212467,0.426039,-0.212155,1.0695e-05,1.10865e-06,-2.35437e-05,0.422577,-0.19141300074784295,1.0695057191645319e-05,1.108650614645157e-06,0.53118049000791,-2.3543422849270357e-05,-0.1911606822444366
542,0.5322,0.0137969,738.963,0.0164893,0.00475657,0.00614891,-0.0104067,-0.212794,0.426691,-0.212481,1.07075e-05,1.12476e-06,-2.35703e-05,0.423229,-0.19167736547061065,1.0707557325462247e-05,1.1247606326314497e-06,0.5321791452136146,-2.357002222264093e-05,-0.19142432088659134
543,0.5332,0.0137773,738.963,0.0164697,0.00477606,0.0061404,-0.0104108,-0.21312,0.427344,-0.212807,1.07199e-05,1.14088e-06,-2.35969e-05,0.423882,-0.19194083570148612,1.0719957458382723e-05,1.1408806508406144e-06,0.533179984934044,-2.359662159534537e-05,-0.19168787359655648
544,0.5342,0.013747,738.964,0.0164312,0.00479975,0.00612891,-0.0104202,-0.213447,0.427996,-0.213133,1.07324e-05,1.15691e-06,-2.36235e-05,0.424534,-0.19220502785044125,1.0732457592421696e-05,1.1569106692643771e-06,0.5341799442355293,-2.362322096727265e-05,-0.1919513404023413
545,0.5352,0.0137264,738.965,0.0164099,0.0048197,0.00612014,-0.0104249,-0.213773,0.428648,-0.213459,1.0745e-05,1.17295e-06,-2.36501e-05,0.425186,-0.19246832609141684,1.074505772780121e-05,1.1729506879110119e-06,0.5351805557230687,-2.3649820338644822e-05,-0.19221472133194606
546,0.5362,0.0136972,738.965,0.0163732,0.00484309,0.00610896,-0.0104338,-0.214098,0.429299,-0.213784,1.07576e-05,1.18892e-06,-2.36767e-05,0.425837,-0.19273073124229045,1.0757657863180725e-05,1.1889207067738994e-06,0.5361802836409746,-2.3676419709128815e-05,-0.19247720889097442
547,0.5372,0.0136759,738.966,0.0163505,0.00486344,0.00610001,-0.0104389,-0.214424,0.429949,-0.214109,1.07703e-05,1.20488e-06,-2.37032e-05,0.426488,-0.19299385813189207,1.0770357999900781e-05,1.204880725858004e-06,0.5371791254137499,-2.370291908138089e-05,-0.19273961115540716
548,0.5382,0.0136475,738.967,0.0163153,0.00488659,0.00608909,-0.0104475,-0.214749,0.4306,-0.214434,1.07831e-05,1.22078e-06,-2.37299e-05,0.427139,-0.19325609251260412,1.0783158137739335e-05,1.220780745159189e-06,0.5381801548241141,-2.37296184480984e-05,-0.19300192815296058
549,0.5392,0.0136257,738.967,0.0162915,0.00490727,0.00607999,-0.0104529,-0.215075,0.43125,-0.214759,1.07959e-05,1.23666e-06,-2.37565e-05,0.427789,-0.19351904816234533,1.0795958276021977e-05,1.2366607646807637e-06,0.5391802969357229,-2.375621781658399e-05,-0.19326415991134194
550,0.5402,0.0135981,738.968,0.0162576,0.00493024,0.00606929,-0.0104612,-0.2154,0.431899,-0.215083,1.08087e-05,1.25249e-06,-2.37831e-05,0.428438,-0.19378111188403113,1.080875841430462e-05,1.252490784420246e-06,0.5401795491707104,-2.3782817184292426e-05,-0.1935254999841527
551,0.5412,0.0135757,738.968,0.0162329,0.00495122,0.00606007,-0.010467,-0.215724,0.432548,-0.215408,1.08216e-05,1.2683e-06,-2.38097e-05,0.429087,-0.1940422844915335,1.082165855370576e-05,1.268300804380118e-06,0.5411794501308873,-2.3809416551334728e-05,-0.19378756160933708
552,0.5422,0.0135488,738.969,0.0162001,0.00497404,0.00604957,-0.0104751,-0.216049,0.433197,-0.215732,1.08346e-05,1.28406e-06,-2.38363e-05,0.429736,-0.19430417818904266,1.0834658694447441e-05,1.2840608243358531e-06,0.5421800002374124,-2.3836015917710895e-05,-0.19404873212746698
553,0.5432,0.0135261,738.969,0.0161747,0.00499527,0.00604026,-0.0104811,-0.216373,0.433845,-0.216056,1.08477e-05,1.2998e-06,-2.38629e-05,0.430384,-0.19456518135051404,1.0847758836529664e-05,1.2998008447340226e-06,0.5431796567312903,-2.3862615283309907e-05,-0.19430981804005587
554,0.5442,0.0134997,738.97,0.0161428,0.005018,0.00602993,-0.010489,-0.216697,0.434493,-0.216379,1.08608e-05,1.31548e-06,-2.38895e-05,0.431032,-0.19482609996065914,1.0860858978611887e-05,1.3154808653492722e-06,0.5441799612125013,-2.3889214648131762e-05,-0.19457001394492812
555,0.5452,0.0134768,738.97,0.0161169,0.00503944,0.00602056,-0.0104952,-0.217021,0.43514,-0.216703,1.08739e-05,1.33115e-06,-2.39161e-05,0.43168,-0.19508693404686817,1.08739591211382e-05,1.3311508859636945e-06,0.5451793689209361,-2.3915814012398506e-05,-0.19483093098956628
556,0.5462,0.0134508,738.971,0.0160857,0.0050621,0.00601036,-0.010503,-0.217345,0.435787,-0.217026,1.08871e-05,1.34676e-06,-2.39427e-05,0.432327,-0.19534768363652233,1.0887159264783008e-05,1.3467609067951969e-06,0.5461794234553838,-2.3942413375888094e-05,-0.19509095860213654
557,0.5472,0.0134277,738.972,0.0160594,0.00508373,0.00600095,-0.0105094,-0.217668,0.436434,-0.217349,1.09004e-05,1.36236e-06,-2.39694e-05,0.432974,-0.19560754436494088,1.0900459409546315e-05,1.3623609280699611e-06,0.5471801252344766,-2.396911273627733e-05,-0.1953509022393506
558,0.5482,0.0134022,738.972,0.0160288,0.00510635,0.00599088,-0.010517,-0.217992,0.43708,-0.217672,1.09137e-05,1.3779e-06,-2.3996e-05,0.43362,-0.19586812530417497,1.0913759554531666e-05,1.377900949339761e-06,0.5481799264964162,-2.399571209832363e-05,-0.19561076192832827
559,0.5492,0.0133789,738.973,0.0160021,0.00512815,0.00598144,-0.0105236,-0.218315,0.437726,-0.217994,1.09271e-05,1.39342e-06,-2.40226e-05,0.434266,-0.19612781795708045,1.0927159701079603e-05,1.3934209708299505e-06,0.5491803738386325,-2.4022311459703793e-05,-0.1958697335663161
560,0.5502,0.0133537,738.973,0.0159721,0.00515074,0.00597148,-0.0105311,-0.218638,0.438371,-0.218317,1.09405e-05,1.4089e-06,-2.40493e-05,0.434911,-0.1963874267428044,1.0940559847405495e-05,1.4089009925388751e-06,0.5501799174979356,-2.4049010817872585e-05,-0.19612942569983682
561,0.5512,0.0133303,738.974,0.0159453,0.00517269,0.00596203,-0.0105378,-0.21896,0.439016,-0.218639,1.0954e-05,1.42435e-06,-2.40759e-05,0.435556,-0.1966461483349814,1.0954059995293974e-05,1.4243510144673621e-06,0.5511801060708612,-2.407561017780946e-05,-0.19638823035497577
562,0.5522,0.0133055,738.974,0.0159157,0.00519528,0.00595216,-0.0105453,-0.219283,0.43966,-0.218961,1.09676e-05,1.43976e-06,-2.41025e-05,0.436201,-0.19690558972702876,1.096766014430095e-05,1.4397610363925395e-06,0.552179387793349,-2.41022095370802e-05,-0.19664695168843138
563,0.5532,0.0132821,738.974,0.0158887,0.00521736,0.00594271,-0.0105521,-0.219605,0.440304,-0.219283,1.09812e-05,1.45514e-06,-2.41292e-05,0.436845,-0.19716414449758457,1.098126029352997e-05,1.4551410587593239e-06,0.5531793132605296,-2.4128908893139567e-05,-0.19690558972702876
564,0.5542,0.0132574,738.975,0.0158595,0.00523996,0.00593292,-0.0105595,-0.219927,0.440948,-0.219604,1.09949e-05,1.47048e-06,-2.41558e-05,0.437489,-0.19742261602690692,1.0994960444099533e-05,1.4704810811227986e-06,0.5541798828871081,-2.4155508250967017e-05,-0.19716334166132765
565,0.5552,0.013234,738.975,0.0158324,0.00526216,0.00592348,-0.0105664,-0.220249,0.441591,-0.219926,1.10086e-05,1.48579e-06,-2.41824e-05,0.438132,-0.19768100434179492,1.100866059489114e-05,1.4857911037058358e-06,0.5551795419077374,-2.4182107608128334e-05,-0.19742181344912169
566,0.5562,0.0132096,738.976,0.0158035,0.00528479,0.00591377,-0.0105738,-0.220571,0.442234,-0.220247,1.10224e-05,1.50106e-06,-2.42091e-05,0.438775,-0.1979393094690396,1.1022460746801244e-05,1.501061126507608e-06,0.5561798439158152,-2.4208806962078278e-05,-0.19767939970219905
567,0.5572,0.0131862,738.976,0.0157764,0.0053071,0.00590434,-0.0105808,-0.220892,0.442876,-0.220568,1.10362e-05,1.5163e-06,-2.42358e-05,0.439417,-0.19819672963255341,1.1036260899155437e-05,1.5163011495289425e-06,0.5571792321449045,-2.4235506315362088e-05,-0.19793690328335867
568,0.5582,0.013162,738.977,0.0157478,0.00532976,0.00589471,-0.0105882,-0.221213,0.443518,-0.220889,1.10501e-05,1.5315e-06,-2.42624e-05,0.440059,-0.19845406717745562,1.1050161052628127e-05,1.531501172769012e-06,0.5581792621872372,-2.4262105670302958e-05,-0.1981943242191342
569,0.5592,0.0131386,738.977,0.0157206,0.00535217,0.0058853,-0.0105953,-0.221534,0.44416,-0.221209,1.10641e-05,1.54667e-06,-2.42891e-05,0.440701,-0.19871132213026277,1.1064161207441359e-05,1.5466711960065993e-06,0.5591799344549893,-2.4288805022143478e-05,-0.19845086098731202
570,0.5602,0.0131146,738.978,0.0156924,0.00537487,0.00587573,-0.0106026,-0.221855,0.444801,-0.22153,1.10781e-05,1.5618e-06,-2.43157e-05,0.441342,-0.19896849451748255,1.1078161362476635e-05,1.5618012196849662e-06,0.5601796891801327,-2.431540437575208e-05,-0.19870811696914104
571,0.5612,0.0130913,738.978,0.0156652,0.00539738,0.00586634,-0.0106098,-0.222176,0.445442,-0.22185,1.10922e-05,1.57691e-06,-2.43424e-05,0.441983,-0.19922558436561422,1.1092261518630409e-05,1.5769112433616783e-06,0.5611800849534889,-2.434210372614931e-05,-0.19896448934994226
572,0.5622,0.0130675,738.979,0.0156372,0.00542013,0.00585683,-0.0106171,-0.222496,0.446082,-0.22217,1.11063e-05,1.59197e-06,-2.43691e-05,0.442624,-0.19948179118334008,1.1106361675228271e-05,1.591971267256298e-06,0.5621795600057604,-2.4368803075880408e-05,-0.19922077970470653
573,0.5632,0.0130442,738.979,0.01561,0.00544273,0.00584747,-0.0106243,-0.222816,0.446722,-0.222489,1.11205e-05,1.60701e-06,-2.43957e-05,0.443264,-0.19973791602800073,1.1120561832944631e-05,1.6070112911492629e-06,0.5631796749268017,-2.4395402427379587e-05,-0.19947618753626561
574,0.5642,0.0130206,738.979,0.0155822,0.00546553,0.00583801,-0.0106317,-0.223136,0.447362,-0.222809,1.11348e-05,1.622e-06,-2.44224e-05,0.443903,-0.19999395892582317,1.1134861992223577e-05,1.62200131548218e-06,0.5641804301262594,-2.4422101775667393e-05,-0.19973231417380644
575,0.5652,0.0129973,738.98,0.0155551,0.00548823,0.00582868,-0.010639,-0.223456,0.448001,-0.223128,1.11491e-05,1.63697e-06,-2.44491e-05,0.444543,-0.20024991990302632,1.1149162151502523e-05,1.6369713398134422e-06,0.5651802608329999,-2.4448801123178043e-05,-0.19998755885189434
576,0.5662,0.0129739,738.98,0.0155275,0.00551108,0.00581928,-0.0106464,-0.223776,0.448639,-0.223447,1.11635e-05,1.6519e-06,-2.44758e-05,0.445181,-0.20050579898582066,1.116356231212201e-05,1.6519013643634395e-06,0.5661791644557839,-2.447550047002256e-05,-0.20024272211991556
577,0.5672,0.0129507,738.981,0.0155005,0.00553386,0.00580998,-0.0106537,-0.224095,0.449278,-0.223766,1.11779e-05,1.6668e-06,-2.45025e-05,0.44582,-0.20076079696160465,1.1177962472963543e-05,1.6668013891329991e-06,0.5671802727619104,-2.4502199816200942e-05,-0.20049780400383566
578,0.5682,0.0129274,738.981,0.0154731,0.00555678,0.00580064,-0.0106611,-0.224414,0.449916,-0.224085,1.11924e-05,1.68167e-06,-2.45292e-05,0.446458,-0.20101571360600745,1.1192462635145617e-05,1.6816714139000766e-06,0.5681804527994381,-2.452889916160217e-05,-0.2007528045296122
579,0.5692,0.0129043,738.981,0.0154461,0.00557965,0.00579137,-0.0106684,-0.224733,0.450553,-0.224404,1.1207e-05,1.6965e-06,-2.45559e-05,0.447095,-0.20127054894496943,1.1207062798668233e-05,1.6965014391079336e-06,0.5691797019749449,-2.4555598506337262e-05,-0.2010077237231941
580,0.5702,0.0128811,738.982,0.0154189,0.00560262,0.00578208,-0.0106759,-0.225052,0.45119,-0.224722,1.12216e-05,1.7113e-06,-2.45826e-05,0.447733,-0.20152530300442328,1.1221662962412893e-05,1.7113014643133084e-06,0.570179587874952,-2.458229785040622e-05,-0.2012617628726846
581,0.5712,0.0128581,738.982,0.015392,0.00562557,0.00577285,-0.0106833,-0.22537,0.451827,-0.22504,1.12362e-05,1.72606e-06,-2.46093e-05,0.448369,-0.2017791775898693,1.1236263126379598e-05,1.7260614897374182e-06,0.5711801109051817,-2.4608997193698023e-05,-0.20151572125056882
582,0.5722,0.0128351,738.982,0.0153649,0.00564862,0.00576359,-0.0106907,-0.225689,0.452463,-0.225358,1.1251e-05,1.7408e-06,-2.4636e-05,0.449006,-0.20203376942266182,1.1251063292805341e-05,1.7408015151598732e-06,0.5721796992911301,-2.463569653621267e-05,-0.20176959888252832
583,0.5732,0.0128122,738.983,0.0153381,0.00567165,0.0057544,-0.0106982,-0.226007,0.453099,-0.225676,1.12658e-05,1.7555e-06,-2.46627e-05,0.449642,-0.2022874823414933,1.126586345945313e-05,1.7555015408010632e-06,0.5731799236174995,-2.4662395878061183e-05,-0.2020233957942359
584,0.5742,0.0127892,738.983,0.0153112,0.00569476,0.0057452,-0.0107057,-0.226325,0.453734,-0.225993,1.12806e-05,1.77016e-06,-2.46894e-05,0.450277,-0.2025411145924435,1.1280663626100917e-05,1.7701615666609882e-06,0.5741792101088794,-2.4689095219243562e-05,-0.2022763142880699
585,0.5752,0.0127664,738.983,0.0152845,0.00571787,0.00573604,-0.0107131,-0.226643,0.454369,-0.22631,1.12955e-05,1.7848e-06,-2.47162e-05,0.450912,-0.2027946662011606,1.1295563794311292e-05,1.784801592741303e-06,0.5751791313486927,-2.4715894557214568e-05,-0.20252915261944782
586,0.5762,0.0127436,738.984,0.0152578,0.00574106,0.00572688,-0.0107207,-0.22696,0.455004,-0.226628,1.13105e-05,1.7994e-06,-2.47429e-05,0.451547,-0.20304734024102367,1.1310563963862208e-05,1.7994016188183082e-06,0.5761796877401326,-2.4742593896953657e-05,-0.20278270803146758
587,0.5772,0.0127209,738.984,0.0152312,0.00576425,0.00571777,-0.0107282,-0.227277,0.455638,-0.226944,1.13255e-05,1.81397e-06,-2.47696e-05,0.452182,-0.20329993419591008,1.1325564133635169e-05,1.8139716453369203e-06,0.5771793025065575,-2.4769293236026613e-05,-0.20303458889645698
588,0.5782,0.0126982,738.984,0.0152045,0.00578751,0.00570865,-0.0107358,-0.227595,0.456272,-0.227261,1.13406e-05,1.82851e-06,-2.47963e-05,0.452815,-0.20355324453835677,1.1340664304748671e-05,1.8285116716310057e-06,0.5781795512296872,-2.4795992574322412e-05,-0.20328718689287906
589,0.5792,0.0126756,738.985,0.0151781,0.00581078,0.00569957,-0.0107433,-0.227912,0.456906,-0.227578,1.13558e-05,1.84301e-06,-2.48231e-05,0.453449,-0.20380567814699724,1.135586447742476e-05,1.8430116983658706e-06,0.5791804343115778,-2.482279190940684e-05,-0.20353970482842665
590,0.5802,0.012653,738.985,0.0151516,0.00583411,0.0056905,-0.0107509,-0.228228,0.457539,-0.227894,1.1371e-05,1.85748e-06,-2.48498e-05,0.454082,-0.20405723580449953,1.1371064650100848e-05,1.8574817250982534e-06,0.5801803719733782,-2.4849491246259348e-05,-0.20379134652021957
591,0.5812,0.0126305,738.985,0.0151252,0.00585746,0.00568146,-0.0107585,-0.228545,0.458171,-0.22821,1.13862e-05,1.87192e-06,-2.48766e-05,0.454715,-0.2043095096732288,1.1386264822998982e-05,1.8719217520501985e-06,0.5811793616159409,-2.4876290579900484e-05,-0.20404290870580055
592,0.5822,0.0126081,738.986,0.0150989,0.00588086,0.00567243,-0.0107662,-0.228861,0.458804,-0.228526,1.14016e-05,1.88633e-06,-2.49033e-05,0.455347,-0.2045609081451215,1.1401664998578198e-05,1.886331779221706e-06,0.5821805649992837,-2.4902989915420726e-05,-0.2042943914102895
593,0.5832,0.0125857,738.986,0.0150726,0.0059043,0.00566343,-0.0107738,-0.229177,0.459435,-0.228842,1.1417e-05,1.90071e-06,-2.49301e-05,0.455979,-0.20481222718764758,1.1417065174157415e-05,1.9007118063907313e-06,0.5831792359833576,-2.4929789247618572e-05,-0.20454579465879863
594,0.5842,0.0125633,738.986,0.0150464,0.00592777,0.00565444,-0.0107815,-0.229493,0.460067,-0.229157,1.14324e-05,1.91505e-06,-2.49569e-05,0.456611,-0.20506346682590282,1.143246535018072e-05,1.9150518337784916e-06,0.5841801215070099,-2.4956588579150285e-05,-0.20479632327315278
595,0.5852,0.012541,738.987,0.0150203,0.00595129,0.00564548,-0.0107892,-0.229809,0.460698,-0.229472,1.14479e-05,1.92936e-06,-2.49836e-05,0.457242,-0.20531462708497494,1.1447965527544568e-05,1.9293618611637697e-06,0.5851800546093968,-2.498328791245008e-05,-0.20504677298342144
596,0.5862,0.0125188,738.987,0.0149942,0.00597484,0.00563653,-0.0107969,-0.230125,0.461329,-0.229788,1.14635e-05,1.94365e-06,-2.50104e-05,0.457873,-0.20556570798994378,1.1463565706248957e-05,1.9436518889914822e-06,0.5861806188686802,-2.5010087242538503e-05,-0.20529793851691436
597,0.5872,0.0124966,738.987,0.0149682,0.00599844,0.00562761,-0.0108047,-0.23044,0.461959,-0.230102,1.14791e-05,1.95789e-06,-2.50372e-05,0.458503,-0.2058159153821938,1.147916588517539e-05,1.957891916593013e-06,0.5871802275022251,-2.5036886571960792e-05,-0.20554743579109802
598,0.5882,0.0124744,738.987,0.0149422,0.00602207,0.0056187,-0.0108124,-0.230755,0.462589,-0.230417,1.14948e-05,1.97211e-06,-2.5064e-05,0.459133,-0.20606604397152728,1.1494866065442366e-05,1.9721119446369784e-06,0.5881804660876229,-2.5063685900605925e-05,-0.2057976489381842
599,0.5892,0.0124523,738.988,0.0149163,0.00604574,0.00560982,-0.0108202,-0.23107,0.463218,-0.230732,1.15106e-05,1.9863e-06,-2.50908e-05,0.459763,-0.2063160937827634,1.1510666247271928e-05,1.9863019726784614e-06,0.5891797458413284,-2.5090485228473902e-05,-0.20604778328054152
600,0.5902,0.0124303,738.988,0.0148905,0.00606945,0.00560095,-0.010828,-0.231385,0.463847,-0.231046,1.15264e-05,2.00045e-06,-2.51176e-05,0.460392,-0.20656606484071327,1.152646642910149e-05,2.0004520009386795e-06,0.5901796543397182,-2.5117284555675745e-05,-0.20629704514043135
601,0.5912,0.0124083,738.988,0.0148647,0.00609321,0.00559211,-0.0108358,-0.231699,0.464476,-0.23136,1.15423e-05,2.01458e-06,-2.51444e-05,0.461021,-0.20681516398574085,1.1542366612493637e-05,2.0145820291972427e-06,0.5911801919783974,-2.5144083882211454e-05,-0.2065462287443841
602,0.5922,0.0123864,738.989,0.014839,0.006117,0.00558328,-0.0108437,-0.232014,0.465104,-0.231674,1.15582e-05,2.02867e-06,-2.51712e-05,0.461649,-0.20706497786133427,1.1558266796329875e-05,2.028672057674541e-06,0.5921797669726567,-2.5170883207970007e-05,-0.20679533411696815
603,0.5932,0.0123645,738.989,0.0148133,0.00614084,0.00557448,-0.0108516,-0.232328,0.465732,-0.231988,1.15742e-05,2.04273e-06,-2.5198e-05,0.462277,-0.20731392037226615,1.1574266981284609e-05,2.0427320863714016e-06,0.5931799698971618,-2.5197682533062427e-05,-0.20704436128274428
604,0.5942,0.0123427,738.989,0.0147877,0.00616471,0.00556569,-0.0108595,-0.232642,0.466359,-0.232301,1.15902e-05,2.05676e-06,-2.52248e-05,0.462904,-0.20756278472752077,1.1590267166683432e-05,2.05676211506578e-06,0.5941792069663727,-2.522448185737769e-05,-0.20729251755917955
605,0.5952,0.0123209,738.989,0.0147621,0.00618863,0.00555692,-0.0108674,-0.232956,0.466986,-0.232615,1.16064e-05,2.07076e-06,-2.52517e-05,0.463532,-0.20781157095163505,1.1606467354541294e-05,2.070762143979721e-06,0.5951790707536817,-2.525138117848158e-05,-0.2075413886338624
606,0.5962,0.0122992,738.99,0.0147367,0.00621258,0.00554818,-0.0108753,-0.233269,0.467613,-0.232928,1.16225e-05,2.08473e-06,-2.52785e-05,0.464159,-0.20805948712902145,1.1622567541502704e-05,2.084732173113224e-06,0.5961795616521641,-2.5278180501464576e-05,-0.20778938936508096
607,0.5972,0.0122775,738.99,0.0147112,0.00623658,0.00553945,-0.0108833,-0.233582,0.468239,-0.233241,1.16388e-05,2.09867e-06,-2.53053e-05,0.464785,-0.20830732572078703,1.1638867731145197e-05,2.098672202244245e-06,0.5971790828752606,-2.5304979823559393e-05,-0.20803731248421742
608,0.5982,0.0122559,738.99,0.0146859,0.00626061,0.00553074,-0.0108913,-0.233896,0.468865,-0.233553,1.16551e-05,2.11258e-06,-2.53322e-05,0.465411,-0.20855587819572996,1.1655167921009735e-05,2.1125822315948284e-06,0.5981792299945274,-2.533187914255386e-05,-0.208284366300323
609,0.5992,0.0122343,738.99,0.0146605,0.0062847,0.00552205,-0.0108993,-0.234209,0.469491,-0.233866,1.16715e-05,2.12645e-06,-2.5359e-05,0.466037,-0.20880356144140466,1.1671568112214814e-05,2.126452260942102e-06,0.599180003401899,-2.535867846331641e-05,-0.20853213451592234
610,0.6002,0.0122128,738.991,0.0146353,0.00630881,0.00551339,-0.0109073,-0.234521,0.470116,-0.234178,1.16879e-05,2.1403e-06,-2.53859e-05,0.466662,-0.20905037622512646,1.1687968303863983e-05,2.1403022905097657e-06,0.6001798033089507,-2.5385577780756563e-05,-0.20877903397163544
611,0.6012,0.0121913,738.991,0.0146101,0.00633298,0.00550473,-0.0109154,-0.234834,0.470741,-0.23449,1.17044e-05,2.15412e-06,-2.54128e-05,0.467287,-0.20929790471713816,1.1704468496853693e-05,2.154122320074947e-06,0.6011802282862582,-2.5412477097530584e-05,-0.2090258564067342
612,0.6022,0.0121699,738.991,0.014585,0.00635718,0.0054961,-0.0109235,-0.235146,0.471365,-0.234802,1.17209e-05,2.1679e-06,-2.54396e-05,0.467911,-0.20954456528981613,1.1720968690065448e-05,2.1679023498588634e-06,0.6021796765441352,-2.5439276416072687e-05,-0.20927260184524532
613,0.6032,0.0121485,738.991,0.0145599,0.00638143,0.00548749,-0.0109316,-0.235459,0.471989,-0.235114,1.17375e-05,2.18166e-06,-2.54665e-05,0.468535,-0.20979193912485572,1.1737568884617744e-05,2.1816623798631696e-06,0.6031797486523462,-2.5466175731403418e-05,-0.2095192703111879
614,0.6042,0.0121272,738.991,0.0145349,0.00640572,0.00547889,-0.0109397,-0.235771,0.472613,-0.235426,1.17542e-05,2.19538e-06,-2.54934e-05,0.469159,-0.21003844558284168,1.1754269080954671e-05,2.195382409864166e-06,0.6041804450002952,-2.5493075046068014e-05,-0.20976586182857382
615,0.6052,0.012106,738.992,0.01451,0.00643004,0.00547032,-0.0109479,-0.236082,0.473236,-0.235737,1.17709e-05,2.20908e-06,-2.55203e-05,0.469782,-0.2102840854272897,1.1770969277291599e-05,2.2090824400855524e-06,0.605180160796666,-2.5519974359955455e-05,-0.21001158643338846
616,0.6062,0.0120847,738.992,0.014485,0.00645442,0.00546176,-0.0109561,-0.236394,0.473859,-0.236048,1.17877e-05,2.22274e-06,-2.55472e-05,0.470405,-0.21053043835958052,1.1787769475191112e-05,2.222742470303629e-06,0.6061804996100277,-2.554687367306574e-05,-0.21025723462973323
617,0.6072,0.0120636,738.992,0.0144602,0.00647883,0.00545323,-0.0109643,-0.236705,0.474481,-0.236359,1.18046e-05,2.23638e-06,-2.55741e-05,0.471028,-0.21077592521806554,1.1804669674653212e-05,2.2363825007420957e-06,0.6071798546479823,-2.557377298550989e-05,-0.21050280644136732
618,0.6082,0.0120424,738.992,0.0144354,0.0065033,0.00544471,-0.0109725,-0.237017,0.475103,-0.23667,1.18215e-05,2.24999e-06,-2.5601e-05,0.47165,-0.21102212472027804,1.1821569874115312e-05,2.24999253117808e-06,0.6081798314781279,-2.5600672297176885e-05,-0.21074830189204274
619,0.6092,0.0120214,738.993,0.0144107,0.00652779,0.00543622,-0.0109808,-0.237328,0.475725,-0.236981,1.18385e-05,2.26356e-06,-2.56279e-05,0.472271,-0.2112674586880806,1.1838570075362043e-05,2.2635625618327992e-06,0.6091804304873396,-2.5627571608177746e-05,-0.21099372100550418
620,0.6102,0.0120003,738.993,0.014386,0.00655234,0.00542773,-0.0109891,-0.237638,0.476346,-0.237291,1.18556e-05,2.27711e-06,-2.56549e-05,0.472893,-0.21151192788120454,1.1855670277949315e-05,2.2771125927079083e-06,0.6101800418818861,-2.5654570915856212e-05,-0.21123827504415793
621,0.6112,0.0119793,738.993,0.0143614,0.00657693,0.00541927,-0.0109974,-0.237949,0.476967,-0.237601,1.18727e-05,2.29063e-06,-2.56818e-05,0.473514,-0.2117571095439088,1.1872770480758632e-05,2.290632623580535e-06,0.6111802742278938,-2.5681470225413783e-05,-0.2114827532828094
622,0.6122,0.0119584,738.993,0.0143368,0.00660156,0.00541083,-0.0110057,-0.23826,0.477587,-0.237911,1.18898e-05,2.30412e-06,-2.57087e-05,0.474134,-0.2120022149669718,1.1889870684012038e-05,2.30412265445068e-06,0.6121795157307721,-2.5708369534194198e-05,-0.21172715574495282
623,0.6132,0.0119376,738.993,0.0143123,0.00662623,0.0054024,-0.0110141,-0.23857,0.478207,-0.238221,1.19071e-05,2.31757e-06,-2.57357e-05,0.474755,-0.21224645642095064,1.1907170889724483e-05,2.3175726855395595e-06,0.6131793769554759,-2.573536883976324e-05,-0.21197148245407538
624,0.6142,0.0119167,738.994,0.0142879,0.00665095,0.005394,-0.0110225,-0.23888,0.478827,-0.238531,1.19244e-05,2.331e-06,-2.57626e-05,0.475374,-0.21249062217181347,1.1924471095881017e-05,2.331002716848829e-06,0.614179858286352,-2.5762268147100365e-05,-0.21221573343365674
625,0.6152,0.0118959,738.994,0.0142635,0.00667571,0.00538561,-0.0110309,-0.23919,0.479446,-0.23884,1.19417e-05,2.3444e-06,-2.57896e-05,0.475994,-0.21273471224302443,1.194177130248164e-05,2.3444027481556162e-06,0.6151793449278331,-2.5789267451115094e-05,-0.21245912116668442
626,0.6162,0.0118752,738.994,0.0142391,0.00670052,0.00537724,-0.0110394,-0.239499,0.480065,-0.239149,1.19592e-05,2.35777e-06,-2.58166e-05,0.476613,-0.21297793963637368,1.1959271511541303e-05,2.3577727794599213e-06,0.6161794504430671,-2.581626675446369e-05,-0.2127024337045208
627,0.6172,0.0118546,738.994,0.0142149,0.00672537,0.00536889,-0.0110479,-0.239809,0.480684,-0.239458,1.19767e-05,2.37112e-06,-2.58435e-05,0.477231,-0.2132218786625838,1.1976771721045054e-05,2.3711228112066607e-06,0.617180175215255,-2.584316605958037e-05,-0.21294567107039775
628,0.6182,0.0118339,738.994,0.0141906,0.00675026,0.00536056,-0.0110564,-0.240118,0.481302,-0.239767,1.19942e-05,2.38443e-06,-2.58705e-05,0.47785,-0.21346495554476463,1.199427193077085e-05,2.384432842728046e-06,0.6181799014471254,-2.5870165361485675e-05,-0.21318883328753968
629,0.6192,0.0118133,738.994,0.0141664,0.0067752,0.00535225,-0.0110649,-0.240427,0.48192,-0.240076,1.20118e-05,2.39771e-06,-2.58975e-05,0.478468,-0.21370795732779235,1.2011872142059232e-05,2.3977128744689935e-06,0.6191802457007562,-2.5897164662613825e-05,-0.21343192037916392
630,0.6202,0.0117928,738.995,0.0141424,0.00680019,0.00534395,-0.0110735,-0.240736,0.482537,-0.240384,1.20295e-05,2.41097e-06,-2.59245e-05,0.479085,-0.21395088403486895,1.2029572354688156e-05,2.410972906430331e-06,0.6201795881778045,-2.592416396307584e-05,-0.21367414604302004
631,0.6212,0.0117723,738.995,0.0141183,0.00682522,0.00533567,-0.0110821,-0.241045,0.483154,-0.240693,1.20472e-05,2.4242e-06,-2.59515e-05,0.479702,-0.2141937356891892,1.204727256776117e-05,2.424202938389186e-06,0.6211795474394195,-2.59511632627607e-05,-0.21391708319616964
632,0.6222,0.0117519,738.995,0.0140943,0.00685029,0.00532742,-0.0110907,-0.241354,0.483771,-0.241001,1.2065e-05,2.43739e-06,-2.59786e-05,0.480319,-0.214436512313941,1.2065072782396769e-05,2.4373929703447317e-06,0.6221801238662752,-2.5978262559123166e-05,-0.214159159452888
633,0.6232,0.0117314,738.995,0.0140703,0.00687541,0.00531917,-0.0110994,-0.241662,0.484387,-0.241309,1.20829e-05,2.45056e-06,-2.60056e-05,0.480935,-0.21467842861112618,1.2082972998594954e-05,2.450563002520667e-06,0.6231796946587731,-2.6005261857364736e-05,-0.21440116116160024
634,0.6242,0.0117111,738.995,0.0140465,0.00690057,0.00531095,-0.011108,-0.24197,0.485003,-0.241616,1.21008e-05,2.4637e-06,-2.60326e-05,0.481551,-0.21492027040956518,1.2100873215015184e-05,2.463703034916165e-06,0.6241798813765647,-2.603226115482915e-05,-0.21464230298795928
635,0.6252,0.0116908,738.995,0.0140226,0.00692579,0.00530274,-0.0111168,-0.242278,0.485619,-0.241924,1.21188e-05,2.47682e-06,-2.60597e-05,0.482167,-0.2151620377322,1.2118873432998e-05,2.4768230673100078e-06,0.625180684399177,-2.605936044897117e-05,-0.21488415591137688
636,0.6262,0.0116706,738.996,0.0139988,0.00695103,0.00529456,-0.0111255,-0.242586,0.486234,-0.242231,1.21369e-05,2.4899e-06,-2.60867e-05,0.482782,-0.21540373060196594,1.2136973652543404e-05,2.489903099700541e-06,0.6261804779250792,-2.6086359744992293e-05,-0.2151251494811064
637,0.6272,0.0116504,738.996,0.013975,0.00697635,0.00528639,-0.0111343,-0.242893,0.486848,-0.242539,1.2155e-05,2.50296e-06,-2.61138e-05,0.483397,-0.21564456468674753,1.2155073872310851e-05,2.5029631323114643e-06,0.6271792593330396,-2.6113459037691023e-05,-0.21536685371070408
638,0.6282,0.0116302,738.996,0.0139514,0.00700168,0.00527824,-0.0111431,-0.243201,0.487463,-0.242845,1.21732e-05,2.51599e-06,-2.61408e-05,0.484012,-0.21588610896109628,1.2173274093640885e-05,2.51599316514195e-06,0.6281802823605593,-2.6140458332268857e-05,-0.21560691472226068
639,0.6292,0.0116101,738.996,0.0139277,0.00702708,0.0052701,-0.0111519,-0.243508,0.488077,-0.243152,1.21915e-05,2.52899e-06,-2.61679e-05,0.484626,-0.21612679497845122,1.2191574316533504e-05,2.528993197969953e-06,0.6291802920254792,-2.6167557623524296e-05,-0.21584768643909136
640,0.6302,0.01159,738.996,0.0139042,0.00705252,0.00526199,-0.0111608,-0.243815,0.48869,-0.243459,1.22098e-05,2.54196e-06,-2.6195e-05,0.485239,-0.2163674071165399,1.2209874539870214e-05,2.5419632307954743e-06,0.630179285704771,-2.619465691400258e-05,-0.21608838425035004
641,0.6312,0.01157,738.996,0.0138807,0.00707801,0.00525389,-0.0111697,-0.244122,0.489304,-0.243765,1.22282e-05,2.5549e-06,-2.62221e-05,0.485853,-0.21660794539803963,1.2228274764769509e-05,2.5549032638405578e-06,0.6311805231346295,-2.6221756203703706e-05,-0.21632822450733868
642,0.6322,0.01155,738.997,0.0138572,0.00710354,0.00524581,-0.0111786,-0.244429,0.489916,-0.244071,1.22466e-05,2.56782e-06,-2.62492e-05,0.486466,-0.21684840984562115,1.2246674989890849e-05,2.5678232968839865e-06,0.6321791111515531,-2.62488554927387e-05,-0.21656799138443628
643,0.6332,0.0115301,738.997,0.0138338,0.00712912,0.00523775,-0.0111876,-0.244735,0.490529,-0.244378,1.22651e-05,2.58071e-06,-2.62763e-05,0.487078,-0.2170880175703569,1.2265175216574775e-05,2.580713329924933e-06,0.6331799436705159,-2.6275954781107558e-05,-0.21680846809601728
644,0.6342,0.0115102,738.997,0.0138104,0.00715475,0.0052297,-0.0111965,-0.245041,0.491141,-0.244683,1.22837e-05,2.59357e-06,-2.63035e-05,0.487691,-0.21732755198634557,1.2283775445043332e-05,2.5935733634074865e-06,0.6341797557073194,-2.6303154065931977e-05,-0.21704730508875514
645,0.6352,0.0114904,738.997,0.0137871,0.00718042,0.00522167,-0.0112056,-0.245347,0.491753,-0.244989,1.23023e-05,2.6064e-06,-2.63306e-05,0.488302,-0.21756701311601645,1.230237567351189e-05,2.606403396665513e-06,0.6351801798163643,-2.6330253352746524e-05,-0.2172868519608574
646,0.6362,0.0114706,738.997,0.0137639,0.00720614,0.00521366,-0.0112146,-0.245653,0.492364,-0.245294,1.2321e-05,2.61921e-06,-2.63577e-05,0.488914,-0.2178064009817915,1.2321075903765077e-05,2.6192134301439296e-06,0.6361795801919556,-2.6357352638894938e-05,-0.21752554306876504
647,0.6372,0.0114508,738.997,0.0137407,0.00723191,0.00520567,-0.0112237,-0.245959,0.492975,-0.2456,1.23398e-05,2.63198e-06,-2.63849e-05,0.489525,-0.2180457156060862,1.2339876135580852e-05,2.6319834636190365e-06,0.6371795913877627,-2.6384551921609933e-05,-0.21776494362243326
648,0.6382,0.0114312,738.997,0.0137175,0.00725773,0.00519769,-0.0112328,-0.246264,0.493586,-0.245905,1.23587e-05,2.64474e-06,-2.64121e-05,0.490136,-0.21828417529587507,1.2358776368959212e-05,2.6447434973153605e-06,0.6381802137771111,-2.6411751203547773e-05,-0.21800348893461907
649,0.6392,0.0114115,738.997,0.0136944,0.00728359,0.00518973,-0.011242,-0.24657,0.494196,-0.24621,1.23776e-05,2.65746e-06,-2.64392e-05,0.490746,-0.21852334374359583,1.2377676602781662e-05,2.657463531008375e-06,0.6391798085529261,-2.643885048747574e-05,-0.21824196150157882
650,0.6402,0.0113919,738.998,0.0136714,0.00730951,0.00518179,-0.0112512,-0.246875,0.494806,-0.246515,1.23965e-05,2.67016e-06,-2.64664e-05,0.491356,-0.21876165777901613,1.2396576836826156e-05,2.670163564921779e-06,0.6401800132675666,-2.646604976797029e-05,-0.21848036134549664
651,0.6412,0.0113723,738.998,0.0136484,0.00733547,0.00517387,-0.0112604,-0.24718,0.495415,-0.246819,1.24155e-05,2.68282e-06,-2.64936e-05,0.491966,-0.21899989913973916,1.2415577072655282e-05,2.682823598831874e-06,0.6411791871132013,-2.6493249047687684e-05,-0.21871790720684725
652,0.6422,0.0113528,738.998,0.0136254,0.00736148,0.00516596,-0.0112696,-0.247485,0.496025,-0.247123,1.24346e-05,2.69547e-06,-2.65208e-05,0.492575,-0.21923806784792732,1.2434677310046993e-05,2.695473632741141e-06,0.6421806118208238,-2.6520448326738943e-05,-0.21895538086523136
653,0.6432,0.0113334,738.998,0.0136026,0.00738753,0.00515807,-0.0112789,-0.247789,0.496633,-0.247428,1.24538e-05,2.70808e-06,-2.6548e-05,0.493184,-0.21947538340150974,1.2453877548779246e-05,2.7080836668691433e-06,0.6431793612218619,-2.6547647605013047e-05,-0.21919356314942273
654,0.6442,0.0113139,738.998,0.0135797,0.00741364,0.00515019,-0.0112882,-0.248094,0.497242,-0.247732,1.2473e-05,2.72067e-06,-2.65752e-05,0.493792,-0.2197134071091117,1.2473077788177633e-05,2.7206737009954907e-06,0.6441803622267144,-2.6574846882509995e-05,-0.21943089223037726
655,0.6452,0.0112945,738.998,0.013557,0.00743979,0.00514234,-0.0112976,-0.248398,0.49785,-0.248035,1.24923e-05,2.73323e-06,-2.66025e-05,0.4944,-0.21995057818152097,1.2492378029138607e-05,2.7332337353414005e-06,0.645180327845692,-2.6602146156684547e-05,-0.21966736884201554
656,0.6462,0.0112752,738.998,0.0135342,0.007466,0.0051345,-0.011307,-0.248702,0.498457,-0.248339,1.25117e-05,2.74577e-06,-2.66297e-05,0.495008,-0.2201876771648823,1.2511778271662166e-05,2.7457737696856555e-06,0.6461792554485506,-2.6629345432738205e-05,-0.21990455390793096
657,0.6472,0.0112559,738.998,0.0135115,0.00749225,0.00512668,-0.0113164,-0.249006,0.499065,-0.248642,1.25311e-05,2.75827e-06,-2.6657e-05,0.495616,-0.22042470408110748,1.2531178514629815e-05,2.758273804026601e-06,0.6471804367641416,-2.6656644705358445e-05,-0.220140887021822
658,0.6482,0.0112366,738.999,0.0134889,0.00751856,0.00511887,-0.0113259,-0.249309,0.499672,-0.248946,1.25506e-05,2.77076e-06,-2.66843e-05,0.496223,-0.22066087961337089,1.255067875916005e-05,2.7707638385887634e-06,0.6481805788016572,-2.668394397720153e-05,-0.22037792816008872
659,0.6492,0.0112174,738.999,0.0134663,0.00754491,0.00511108,-0.0113354,-0.249613,0.500278,-0.249249,1.25702e-05,2.78321e-06,-2.67115e-05,0.496829,-0.22089776269791528,1.2570279005252871e-05,2.7832138731476164e-06,0.6491796789291744,-2.671114325103474e-05,-0.2206141178633092
660,0.6502,0.0111983,738.999,0.0134438,0.00757131,0.00510331,-0.0113449,-0.249916,0.500884,-0.249552,1.25898e-05,2.79564e-06,-2.67388e-05,0.497436,-0.22113379491513108,1.2589879251789782e-05,2.7956439077048145e-06,0.6501793846948585,-2.6738442521434536e-05,-0.22085023601189058
661,0.6512,0.0111791,738.999,0.0134213,0.00759776,0.00509556,-0.0113544,-0.250219,0.50149,-0.249854,1.26095e-05,2.80804e-06,-2.67661e-05,0.498041,-0.22136975562541894,1.2609579500111323e-05,2.808043942481575e-06,0.6511796964658376,-2.6765741791168196e-05,-0.22108550371340396
662,0.6522,0.0111601,738.999,0.0133988,0.00762427,0.00508782,-0.0113641,-0.250522,0.502096,-0.250157,1.26292e-05,2.82042e-06,-2.67934e-05,0.498647,-0.2216056448504421,1.2629279748654909e-05,2.8204239774787254e-06,0.6521806146094622,-2.6793041060013678e-05,-0.22132147905370936
663,0.6532,0.011141,738.999,0.0133765,0.00765081,0.0050801,-0.0113737,-0.250825,0.502701,-0.250459,1.26491e-05,2.83277e-06,-2.68208e-05,0.499252,-0.22184146261185733,1.2649180000101623e-05,2.832774012251349e-06,0.6531804863119928,-2.6820440325536765e-05,-0.22155660446131153
664,0.6542,0.011122,738.999,0.0133541,0.00767742,0.00507239,-0.0113834,-0.251128,0.503305,-0.250761,1.2669e-05,2.84509e-06,-2.68481e-05,0.499857,-0.22207720893131488,1.266908025221447e-05,2.845094047243535e-06,0.6541793089397934,-2.6847739592938957e-05,-0.22179165887176178
665,0.6552,0.0111031,738.999,0.0133319,0.00770407,0.0050647,-0.0113931,-0.25143,0.50391,-0.251063,1.26889e-05,2.85739e-06,-2.68754e-05,0.500462,-0.22231210614295338,1.2688980504327318e-05,2.857394082234066e-06,0.6551803902182536,-2.6875038859675016e-05,-0.22202664230649793
666,0.6562,0.0110842,738.999,0.0133096,0.00773078,0.00505703,-0.0114028,-0.251732,0.504514,-0.251365,1.27089e-05,2.86966e-06,-2.69028e-05,0.501066,-0.2225469324263447,1.2708980758446842e-05,2.8696641174441595e-06,0.6561804211528854,-2.6902438122866634e-05,-0.22226155478695142
667,0.6572,0.0110653,739.0,0.0132875,0.00775753,0.00504937,-0.0114126,-0.252034,0.505117,-0.251667,1.2729e-05,2.8819e-06,-2.69302e-05,0.501669,-0.22278168780290586,1.2729081014128951e-05,2.881904152651771e-06,0.6571793991084245,-2.692983738539212e-05,-0.2224963963345472
668,0.6582,0.0110465,739.0,0.0132653,0.00778434,0.00504173,-0.0114224,-0.252336,0.505721,-0.251968,1.27492e-05,2.89412e-06,-2.69576e-05,0.502273,-0.22301637229404747,1.2749281271373647e-05,2.894124188079772e-06,0.6581806378091344,-2.6957236647140448e-05,-0.22273038970148207
669,0.6592,0.0110278,739.0,0.0132433,0.0078112,0.00503411,-0.0114323,-0.252638,0.506323,-0.252269,1.27694e-05,2.90632e-06,-2.69849e-05,0.502876,-0.22325098592117387,1.2769481529062432e-05,2.9063242232840736e-06,0.659179163079046,-2.6984535910878904e-05,-0.22296431264701255
670,0.6602,0.011009,739.0,0.0132212,0.00783811,0.0050265,-0.0114422,-0.252939,0.506926,-0.25257,1.27897e-05,2.91848e-06,-2.70123e-05,0.503478,-0.2234847521908231,1.2789781788535848e-05,2.9184842587071103e-06,0.6601799498212608,-2.701193517107292e-05,-0.22319816519233204
671,0.6612,0.0109903,739.0,0.0131992,0.00786506,0.00501892,-0.0114521,-0.25324,0.507528,-0.252871,1.28101e-05,2.93063e-06,-2.70398e-05,0.504081,-0.22371844810741381,1.281018204957185e-05,2.930634294351364e-06,0.6611796790393558,-2.7039434427944542e-05,-0.22343194735862815
672,0.6622,0.0109717,739.0,0.0131773,0.00789208,0.00501134,-0.0114621,-0.253542,0.50813,-0.253172,1.28305e-05,2.94274e-06,-2.70672e-05,0.504682,-0.22395284973965734,1.2830582311273986e-05,2.942744329770264e-06,0.6621800102756292,-2.706683368669527e-05,-0.22366565916708148
673,0.6632,0.0109531,739.0,0.0131554,0.00791914,0.00500379,-0.0114721,-0.253843,0.508731,-0.253472,1.2851e-05,2.95483e-06,-2.70946e-05,0.505284,-0.22418640478008867,1.2851082574538708e-05,2.9548343654095532e-06,0.6631792807124932,-2.709423294466884e-05,-0.22389852453777914
674,0.6642,0.0109345,739.0,0.0131336,0.00794626,0.00499624,-0.0114821,-0.254143,0.509332,-0.253773,1.28716e-05,2.9669e-06,-2.71221e-05,0.505885,-0.22441911395053382,1.2871682839366017e-05,2.9669044012692325e-06,0.6641791518913944,-2.7121732199208992e-05,-0.22413209592763572
675,0.6652,0.010916,739.0,0.0131118,0.00797343,0.00498872,-0.0114922,-0.254444,0.509933,-0.254073,1.28922e-05,2.97894e-06,-2.71496e-05,0.506486,-0.2246525286665576,1.2892283104859459e-05,2.9789444371264295e-06,0.6651796241734875,-2.714923145297199e-05,-0.22436482138829283
676,0.6662,0.0108975,739.0,0.0130901,0.00800065,0.00498121,-0.0115023,-0.254744,0.510534,-0.254373,1.29129e-05,2.99095e-06,-2.7177e-05,0.507087,-0.22488509802081025,1.2912983371915487e-05,2.9909544729811444e-06,0.6661806979201443,-2.7176630708725114e-05,-0.22459747704178346
677,0.6672,0.0108791,739.0,0.0130684,0.00802793,0.00497371,-0.0115125,-0.255044,0.511133,-0.254673,1.29337e-05,3.00294e-06,-2.72045e-05,0.507687,-0.22511759761472117,1.2933783640756147e-05,3.0029445088342044e-06,0.6671790391315406,-2.72041299609338e-05,-0.2248300629090464
678,0.6682,0.0108607,739.001,0.0130467,0.00805525,0.00496623,-0.0115227,-0.255344,0.511733,-0.254972,1.29545e-05,3.01491e-06,-2.72321e-05,0.508286,-0.2253500274692154,1.2954583909818851e-05,3.014914544907654e-06,0.6681796467072743,-2.7231729209709066e-05,-0.22506180407320608
679,0.6692,0.0108423,739.001,0.0130251,0.00808264,0.00495877,-0.0115329,-0.255644,0.512332,-0.255272,1.29754e-05,3.02684e-06,-2.72596e-05,0.508886,-0.22558238760521154,1.297548418088823e-05,3.0268445809777944e-06,0.6691791856476783,-2.725922846047446e-05,-0.22529425066325226
680,0.6702,0.010824,739.001,0.0130036,0.00811007,0.00495133,-0.0115432,-0.255944,0.512931,-0.255571,1.29964e-05,3.03876e-06,-2.72871e-05,0.509485,-0.22581467804362199,1.2996484453520196e-05,3.038764617047107e-06,0.6701793234912612,-2.72867277104627e-05,-0.2255258530560208
681,0.6712,0.0108057,739.001,0.012982,0.00813756,0.0049439,-0.0115536,-0.256243,0.51353,-0.25587,1.30174e-05,3.05065e-06,-2.73147e-05,0.510083,-0.22604612485186482,1.3017484726818296e-05,3.0506546533359824e-06,0.6711800605968734,-2.731432695701752e-05,-0.2257573862100255
682,0.6722,0.0107876,739.001,0.0129607,0.00816509,0.00493649,-0.0115639,-0.256543,0.514128,-0.256169,1.30386e-05,3.06251e-06,-2.73422e-05,0.510682,-0.22627827618996743,1.3038685003019523e-05,3.0625146894003308e-06,0.6721797251430193,-2.7341826205451447e-05,-0.22598885014596592
683,0.6732,0.0107692,739.001,0.0129391,0.0081927,0.00492907,-0.0115743,-0.256842,0.514726,-0.256468,1.30597e-05,3.07435e-06,-2.73698e-05,0.51128,-0.22650958440308555,1.3059785278324298e-05,3.0743547259071136e-06,0.6731799876673414,-2.7369425450451956e-05,-0.22622024488453485
684,0.6742,0.0107512,739.001,0.0129179,0.00822033,0.00492171,-0.0115847,-0.257141,0.515323,-0.256766,1.3081e-05,3.08616e-06,-2.73974e-05,0.511877,-0.22674082346538638,1.3081085556754246e-05,3.0861647621893695e-06,0.6741791743475263,-2.739702469467531e-05,-0.22645079689760317
685,0.6752,0.010733,739.001,0.0128965,0.00824805,0.00491432,-0.0115953,-0.25744,0.515921,-0.257064,1.31023e-05,3.09795e-06,-2.7425e-05,0.512475,-0.22697199339754315,1.3102385835406238e-05,3.0979547986920153e-06,0.6751806329000494,-2.7424623938121506e-05,-0.22668128021640754
686,0.6762,0.0107151,739.001,0.0128753,0.00827579,0.00490699,-0.0116058,-0.257738,0.516517,-0.257363,1.31237e-05,3.10972e-06,-2.74526e-05,0.513071,-0.2272023214229304,1.3123786116064906e-05,3.1097248351930062e-06,0.676179338141857,-2.7452223180790547e-05,-0.2269124679493344
687,0.6772,0.0106969,739.001,0.012854,0.00830362,0.00489964,-0.0116164,-0.258037,0.517114,-0.257661,1.31452e-05,3.12146e-06,-2.74802e-05,0.513668,-0.227433353387825,1.3145286398508205e-05,3.121464871691515e-06,0.6771803159688792,-2.7479822422793454e-05,-0.22714281371066247
688,0.6782,0.0106791,739.001,0.012833,0.00833147,0.00489234,-0.011627,-0.258335,0.51771,-0.257958,1.31667e-05,3.13318e-06,-2.75079e-05,0.514264,-0.22766354394841837,1.3166786681395592e-05,3.1331849084104135e-06,0.678180213377026,-2.75075216611409e-05,-0.22737231821188497
689,0.6792,0.010661,739.001,0.0128117,0.00835941,0.00488501,-0.0116376,-0.258633,0.518305,-0.258256,1.31883e-05,3.14487e-06,-2.75355e-05,0.51486,-0.22789366592244464,1.3188386966067611e-05,3.14487494512683e-06,0.6791790277217857,-2.7535120901589494e-05,-0.2276025269582509
690,0.6802,0.0106432,739.001,0.0127908,0.00838737,0.00487774,-0.0116483,-0.258931,0.518901,-0.258554,1.321e-05,3.15653e-06,-2.75632e-05,0.515455,-0.2281237193303396,1.321008725252426e-05,3.156534981840764e-06,0.680180116717195,-2.756282013849365e-05,-0.22783266711263128
691,0.6812,0.0106252,739.002,0.0127696,0.00841542,0.00487045,-0.0116591,-0.259228,0.519496,-0.258851,1.32317e-05,3.16818e-06,-2.75909e-05,0.51605,-0.2283529325458511,1.3231787539425e-05,3.1681850187759153e-06,0.6811801213585202,-2.7590519374620648e-05,-0.22806196675781598
692,0.6822,0.0106075,739.002,0.0127488,0.00844348,0.00486321,-0.0116698,-0.259526,0.52009,-0.259148,1.32535e-05,3.17979e-06,-2.76186e-05,0.516645,-0.22858284911268245,1.325358782811037e-05,3.1797950554857124e-06,0.6821790389997757,-2.761821860997049e-05,-0.22829119831111822
693,0.6832,0.0105897,739.002,0.0127277,0.00847165,0.00485595,-0.0116807,-0.259823,0.520685,-0.259445,1.32754e-05,3.19139e-06,-2.76463e-05,0.51724,-0.22881192598689626,1.327548811858037e-05,3.1913950924167267e-06,0.6831802333537633,-2.7645917844543177e-05,-0.22852036179275825
694,0.6842,0.010572,739.002,0.0127069,0.00849983,0.00484874,-0.0116915,-0.260121,0.521279,-0.259742,1.32973e-05,3.20296e-06,-2.76741e-05,0.517834,-0.22904170579406047,1.329738840949446e-05,3.2029651295673034e-06,0.6841803394144697,-2.7673717075682447e-05,-0.22874945722295037
695,0.6852,0.0105542,739.002,0.012686,0.0085281,0.00484151,-0.0117025,-0.260418,0.521872,-0.260038,1.33193e-05,3.2145e-06,-2.77018e-05,0.518427,-0.2292706464080756,1.331938870219318e-05,3.2145051664933533e-06,0.6851793545344502,-2.770141630870082e-05,-0.22897771360000208
696,0.6862,0.0105366,739.002,0.0126653,0.0085564,0.00483432,-0.0117134,-0.260714,0.522466,-0.260335,1.33414e-05,3.22603e-06,-2.77296e-05,0.519021,-0.22949874853595842,1.3341488996898576e-05,3.2260352036406204e-06,0.6861806484258883,-2.7729215538174756e-05,-0.2292066732168767
697,0.6872,0.0105189,739.002,0.0126444,0.00858478,0.00482713,-0.0117244,-0.261011,0.523058,-0.260631,1.33636e-05,3.23752e-06,-2.77574e-05,0.519614,-0.22972755342843476,1.3363689293388603e-05,3.237525240784578e-06,0.6871791629008792,-2.7757014766982557e-05,-0.22943479427802194
698,0.6882,0.0105014,739.002,0.0126238,0.00861319,0.00481997,-0.0117355,-0.261307,0.523651,-0.260927,1.33858e-05,3.249e-06,-2.77851e-05,0.520206,-0.22995552033185385,1.338588959032272e-05,3.249005277927708e-06,0.688179956850558,-2.7784713997669463e-05,-0.22966284782532553
699,0.6892,0.0104838,739.002,0.0126031,0.00864168,0.00481281,-0.0117465,-0.261604,0.524243,-0.261223,1.34081e-05,3.26045e-06,-2.7813e-05,0.520799,-0.2301841895832505,1.3408189889041466e-05,3.2604553152904003e-06,0.6891796552665481,-2.781261322215567e-05,-0.22989083387876863
700,0.6902,0.0104663,739.002,0.0125824,0.00867021,0.00480568,-0.0117577,-0.2619,0.524835,-0.261519,1.34305e-05,3.27188e-06,-2.78408e-05,0.521391,-0.23041202134237004,1.3430590189544844e-05,3.271885352651438e-06,0.6901799456792144,-2.784041244852098e-05,-0.2301187524583267
701,0.6912,0.0104488,739.002,0.0125619,0.00869881,0.00479855,-0.0117689,-0.262196,0.525426,-0.261814,1.34529e-05,3.28328e-06,-2.78686e-05,0.521982,-0.2306397856732687,1.3452990490714356e-05,3.2832853900099934e-06,0.6911791372591394,-2.7868211674220156e-05,-0.2303458339301876
702,0.6922,0.0104313,739.002,0.0125413,0.00872746,0.00479145,-0.0117801,-0.262492,0.526018,-0.262109,1.34754e-05,3.29466e-06,-2.78965e-05,0.522573,-0.2308674825959024,1.3475490793668499e-05,3.294665427366894e-06,0.6921806117155875,-2.789611089626387e-05,-0.23057284842289416
703,0.6932,0.0104141,739.002,0.0125209,0.00875617,0.00478436,-0.0117914,-0.262787,0.526608,-0.262405,1.3498e-05,3.30601e-06,-2.79244e-05,0.523164,-0.2310943432249486,1.3498091098407272e-05,3.306015464943357e-06,0.6931792928584668,-2.792401011753043e-05,-0.23080056515602188
704,0.6942,0.0103967,739.002,0.0125005,0.00878495,0.00477727,-0.0118027,-0.263083,0.527199,-0.2627,1.35207e-05,3.31735e-06,-2.79523e-05,0.523755,-0.23132190561845833,1.3520791405152721e-05,3.3173555025189927e-06,0.6941802575764855,-2.7951909338130854e-05,-0.2310274455228014
705,0.6952,0.0103793,739.002,0.01248,0.00881377,0.00477021,-0.011814,-0.263378,0.527789,-0.262994,1.35434e-05,3.32866e-06,-2.79802e-05,0.524345,-0.231548632212484,1.354349171234226e-05,3.328665540092146e-06,0.6951801188585294,-2.79798085578431e-05,-0.2312534902236184
706,0.6962,0.0103621,739.002,0.0124597,0.00884265,0.00476317,-0.0118254,-0.263673,0.528379,-0.263289,1.35662e-05,3.33994e-06,-2.80081e-05,0.524935,-0.23177529193202895,1.3566292021316428e-05,3.3399455776628173e-06,0.6961805702327901,-2.800770777677819e-05,-0.231480236997209
707,0.6972,0.0103448,739.003,0.0124394,0.00887159,0.00475614,-0.0118369,-0.263968,0.528968,-0.263584,1.35891e-05,3.3512e-06,-2.8036e-05,0.525524,-0.23200188479681816,1.3589192332297273e-05,3.3512056152318337e-06,0.6971799148667606,-2.8035606995047146e-05,-0.2317069168903667
708,0.6982,0.0103276,739.003,0.0124191,0.0089006,0.00474911,-0.0118484,-0.264263,0.529557,-0.263878,1.3612e-05,3.36244e-06,-2.8064e-05,0.526113,-0.23222841082657097,1.3612092643722207e-05,3.36244565302124e-06,0.6981798482881016,-2.806360620966064e-05,-0.23193276185596423
709,0.6992,0.0103104,739.003,0.0123989,0.00892965,0.00474211,-0.01186,-0.264557,0.530146,-0.264172,1.3635e-05,3.37366e-06,-2.8092e-05,0.526702,-0.23245410249548693,1.3635092956931771e-05,3.3736656908089913e-06,0.6991803708437108,-2.809160542349698e-05,-0.23215854043290152
710,0.7002,0.0102933,739.003,0.0123787,0.00895877,0.00473513,-0.0118716,-0.264851,0.530734,-0.264466,1.36581e-05,3.38485e-06,-2.812e-05,0.527291,-0.23267972782080526,1.3658193272370056e-05,3.3848557285942604e-06,0.7001797827000575,-2.811960463655616e-05,-0.23238425264069384
711,0.7012,0.0102763,739.003,0.0123587,0.00898795,0.00472815,-0.0118832,-0.265146,0.531322,-0.26476,1.36813e-05,3.39602e-06,-2.8148e-05,0.527879,-0.23290605391635766,1.3681393589370927e-05,3.396025766377875e-06,0.7011797823833801,-2.8147603848727165e-05,-0.23260989849885094
712,0.7022,0.0102593,739.003,0.0123385,0.00901719,0.00472119,-0.0118949,-0.26544,0.53191,-0.265054,1.37045e-05,3.40717e-06,-2.8176e-05,0.528467,-0.23313154638748879,1.3704593907037932e-05,3.407175804381879e-06,0.7021803702394223,-2.8175603060232035e-05,-0.23283547802687687
713,0.7032,0.0102422,739.003,0.0123185,0.00904648,0.00471424,-0.0119066,-0.265734,0.532497,-0.265347,1.37278e-05,3.41829e-06,-2.82041e-05,0.529054,-0.2333569725735778,1.3727894226711612e-05,3.418295842383401e-06,0.7031798434334362,-2.8203702268081443e-05,-0.23306022430487738
714,0.7042,0.0102253,739.003,0.0122985,0.00907584,0.00470732,-0.0119184,-0.266027,0.533084,-0.26564,1.37512e-05,3.42939e-06,-2.82321e-05,0.529641,-0.23358156607605884,1.3751294548169923e-05,3.429395880383268e-06,0.7041799034904426,-2.8231701478032e-05,-0.2332849047418647
715,0.7052,0.0102083,739.003,0.0122785,0.00910526,0.00470039,-0.0119303,-0.266321,0.533671,-0.265933,1.37747e-05,3.44047e-06,-2.82602e-05,0.530228,-0.2338068599758064,1.377479487163491e-05,3.4404759183814804e-06,0.705180550755031,-2.8259800684327097e-05,-0.23350951935712727
716,0.7062,0.0101914,739.003,0.0122587,0.00913473,0.0046935,-0.0119422,-0.266614,0.534257,-0.266226,1.37982e-05,3.45152e-06,-2.82883e-05,0.530814,-0.23403132168058793,1.3798295195543986e-05,3.451525956599255e-06,0.7061800793910609,-2.8287899889845036e-05,-0.23373406816994813
717,0.7072,0.0101746,739.003,0.0122388,0.00916427,0.00468661,-0.0119541,-0.266907,0.534843,-0.266519,1.38218e-05,3.46256e-06,-2.83164e-05,0.5314,-0.2342557176277239,1.3821895521459737e-05,3.462565994594158e-06,0.7071801939225222,-2.8315999094474797e-05,-0.23395855119960451
718,0.7082,0.0101577,739.003,0.0122189,0.00919387,0.00467973,-0.0119661,-0.2672,0.535428,-0.266812,1.38454e-05,3.47357e-06,-2.83446e-05,0.531986,-0.23448004783647858,1.3845495848041622e-05,3.473576032808623e-06,0.7081791865128095,-2.834419829567114e-05,-0.234182968465368
719,0.7092,0.010141,739.003,0.0121993,0.00922352,0.00467289,-0.0119781,-0.267493,0.536014,-0.267104,1.38692e-05,3.48455e-06,-2.83727e-05,0.532571,-0.23470431232611033,1.386929617774868e-05,3.484556071020606e-06,0.7091804728643538,-2.837229749874659e-05,-0.23440655439344205
720,0.7102,0.0101242,739.003,0.0121793,0.00925325,0.00466602,-0.0119902,-0.267786,0.536599,-0.267396,1.3893e-05,3.49552e-06,-2.84009e-05,0.533156,-0.2349285111158722,1.3893096508121872e-05,3.4955261092317613e-06,0.7101806359601619,-2.84004966982776e-05,-0.23463007504395605
721,0.7112,0.0101076,739.003,0.0121598,0.00928301,0.00465921,-0.0120023,-0.268078,0.537183,-0.267688,1.39169e-05,3.50646e-06,-2.84291e-05,0.533741,-0.235151879377273,1.3916996840501739e-05,3.5064661476624792e-06,0.7111796731420255,-2.842869589692043e-05,-0.23485353043596813
722,0.7122,0.0100908,739.003,0.01214,0.00931288,0.00465238,-0.0120145,-0.268371,0.537767,-0.26798,1.39409e-05,3.51738e-06,-2.84573e-05,0.534325,-0.2353759470490986,1.3940997174888281e-05,3.5173861860915423e-06,0.7121792939320006,-2.8456895094897128e-05,-0.23507692058853136
723,0.7132,0.0100742,739.003,0.0121205,0.00934275,0.00464559,-0.0120268,-0.268663,0.538351,-0.268272,1.39649e-05,3.52828e-06,-2.84855e-05,0.534909,-0.23559918467828023,1.3964997509718913e-05,3.528286224296906e-06,0.7131794986710136,-2.8485094291985646e-05,-0.23530024552069262
724,0.7142,0.0100576,739.003,0.0121009,0.00937274,0.00463879,-0.0120391,-0.268955,0.538935,-0.268564,1.3989e-05,3.53915e-06,-2.85138e-05,0.535493,-0.23582235713159028,1.398909784655622e-05,3.539156262721832e-06,0.7141802877001904,-2.8513393485418703e-05,-0.23552350525149357
725,0.7152,0.0100411,739.003,0.0120815,0.00940275,0.00463203,-0.0120514,-0.269246,0.539518,-0.268855,1.40132e-05,3.55001e-06,-2.8542e-05,0.536076,-0.23604470047313975,1.4013298185400203e-05,3.5500163013679753e-06,0.7151799461800519,-2.854159268095291e-05,-0.23574593554628787
726,0.7162,0.0100245,739.003,0.0120619,0.00943285,0.00462525,-0.0120638,-0.269538,0.540101,-0.269146,1.40375e-05,3.56084e-06,-2.85703e-05,0.536659,-0.2362677428548291,1.403759852625086e-05,3.5608463397895918e-06,0.716180187630727,-2.8569891872831654e-05,-0.23596830112328326
727,0.7172,0.0100081,739.003,0.0120426,0.00946298,0.00461853,-0.0120762,-0.26983,0.540683,-0.269437,1.40618e-05,3.57165e-06,-2.85986e-05,0.537242,-0.2364907201176507,1.4061898867545608e-05,3.571656378431598e-06,0.7171792952120324,-2.8598191063933243e-05,-0.2361906020013098
728,0.7182,0.00999158,739.003,0.012023,0.00949322,0.00461177,-0.0120887,-0.270121,0.541265,-0.269728,1.40862e-05,3.58244e-06,-2.8627e-05,0.537824,-0.23671286899386734,1.4086299211069075e-05,3.582446416849905e-06,0.7181789844431936,-2.862659025137937e-05,-0.23641283819919245
729,0.7192,0.00997518,739.003,0.0120038,0.00952347,0.00460507,-0.0121013,-0.270412,0.541847,-0.270019,1.41107e-05,3.5932e-06,-2.86553e-05,0.538406,-0.23693495323416602,1.4110799556377174e-05,3.593206455487774e-06,0.7191792556628298,-2.8654889440815623e-05,-0.23663500973575013
730,0.7202,0.00995879,739.003,0.0119844,0.00955383,0.00459836,-0.0121139,-0.270703,0.542429,-0.270309,1.41353e-05,3.60394e-06,-2.86837e-05,0.538988,-0.23715697285735293,1.4135399903913992e-05,3.6039464941239885e-06,0.7201801092097568,-2.8683288626596415e-05,-0.23685635348653167
731,0.7212,0.00994239,739.004,0.0119651,0.00958422,0.00459167,-0.0121265,-0.270994,0.54301,-0.2706,1.41599e-05,3.61466e-06,-2.87121e-05,0.539569,-0.23737892788222903,1.41600002518949e-05,3.6146665329805927e-06,0.7211798242423024,-2.871168781160005e-05,-0.23707839597891744
732,0.7222,0.00992616,739.004,0.0119459,0.00961469,0.004585,-0.0121392,-0.271284,0.543591,-0.27089,1.41846e-05,3.62536e-06,-2.87405e-05,0.54015,-0.2376000559280268,1.4184700601882483e-05,3.6253665716134975e-06,0.7221801202780473,-2.874008699582653e-05,-0.23729961116633114
733,0.7232,0.00990982,739.004,0.0119266,0.00964522,0.00457832,-0.012152,-0.271575,0.544171,-0.27118,1.42094e-05,3.63604e-06,-2.87689e-05,0.54073,-0.23782188203448795,1.4209500954098786e-05,3.636046610466792e-06,0.7231792744745158,-2.876848617916483e-05,-0.23752076221064145
734,0.7242,0.00989371,739.004,0.0119076,0.0096758,0.00457169,-0.0121648,-0.271865,0.544751,-0.27147,1.42342e-05,3.6467e-06,-2.87974e-05,0.541311,-0.238042881642206,1.4234301306759178e-05,3.646706649318432e-06,0.7241790083485087,-2.879698535884767e-05,-0.2377418491304476
735,0.7252,0.00987736,739.004,0.0118884,0.00970648,0.00456503,-0.0121777,-0.272155,0.545331,-0.27176,1.42592e-05,3.65733e-06,-2.88258e-05,0.541891,-0.23826381716932987,1.4259301662766788e-05,3.657336687945545e-06,0.7251793222363361,-2.882538454063166e-05,-0.23796287194434274
736,0.7262,0.00986123,739.004,0.0118694,0.00973717,0.00455844,-0.0121906,-0.272445,0.545911,-0.272049,1.42842e-05,3.66794e-06,-2.88543e-05,0.54247,-0.2384846886344404,1.4284302019662576e-05,3.6679467267930477e-06,0.7261802164745039,-2.8853883718649165e-05,-0.2381830688543648
737,0.7272,0.00984508,739.004,0.0118503,0.00976798,0.00455181,-0.0122036,-0.272735,0.54649,-0.272339,1.43093e-05,3.67854e-06,-2.88828e-05,0.543049,-0.2387054960561128,1.430940237856504e-05,3.6785467658617677e-06,0.727179964218885,-2.8882382896000536e-05,-0.23840396373309147
738,0.7282,0.00982901,739.004,0.0118314,0.00979881,0.00454523,-0.0122166,-0.273024,0.547069,-0.272628,1.43344e-05,3.68911e-06,-2.89114e-05,0.543628,-0.23892547837877587,1.4334502737911592e-05,3.689116804705961e-06,0.7281802909848205,-2.89109820694744e-05,-0.2386240331860049
739,0.7292,0.00981299,739.004,0.0118124,0.00982974,0.00453864,-0.0122297,-0.273314,0.547647,-0.272917,1.43597e-05,3.69965e-06,-2.89399e-05,0.544207,-0.23914615798995575,1.4359803101049451e-05,3.6996568437697164e-06,0.7291794679273287,-2.8939481245160437e-05,-0.23884403904803586
740,0.7302,0.0097969,739.004,0.0117935,0.00986071,0.00453208,-0.0122428,-0.273603,0.548225,-0.273206,1.4385e-05,3.71018e-06,-2.89685e-05,0.544785,-0.2393660129797205,1.4385103464631399e-05,3.7101868828326445e-06,0.7301792225610462,-2.896808041707999e-05,-0.23906398133755935
741,0.7312,0.00978093,739.004,0.0117746,0.00989176,0.00452553,-0.012256,-0.273892,0.548803,-0.273494,1.44104e-05,3.72069e-06,-2.89971e-05,0.545363,-0.23958580444057342,1.4410503830220023e-05,3.7206969216718733e-06,0.7311795552199756,-2.8996679588111363e-05,-0.2392830993564249
742,0.7322,0.00976499,739.004,0.0117559,0.00992287,0.00451898,-0.0122693,-0.274181,0.549381,-0.273783,1.44359e-05,3.73117e-06,-2.90257e-05,0.545941,-0.239805532390872,1.4436004198037367e-05,3.7311769607306644e-06,0.7321804662383111,-2.9025278758476603e-05,-0.23950291477585284
743,0.7332,0.00974898,739.004,0.011737,0.00995405,0.00451245,-0.0122826,-0.27447,0.549958,-0.274071,1.44614e-05,3.74163e-06,-2.90544e-05,0.546518,-0.24002519684896795,1.4461504566520844e-05,3.7416370000098453e-06,0.7331802227693525,-2.9053977924964336e-05,-0.23972190640008983
744,0.7342,0.0097332,739.004,0.0117184,0.00998528,0.00450595,-0.0122959,-0.274759,0.550535,-0.27436,1.4487e-05,3.75208e-06,-2.9083e-05,0.547095,-0.24024479783320796,1.4487104937010997e-05,3.7520870390661543e-06,0.7341805563263684,-2.908257709366424e-05,-0.23994159502260515
745,0.7352,0.00971732,739.004,0.0116996,0.0100166,0.00449943,-0.0123094,-0.275047,0.551111,-0.274648,1.45127e-05,3.7625e-06,-2.91117e-05,0.547671,-0.24046357582588884,1.451280530972987e-05,3.762507078119981e-06,0.735179732061799,-2.9111276258597663e-05,-0.24016046032512228
746,0.7362,0.0097015,739.004,0.011681,0.010048,0.00449296,-0.0123228,-0.275335,0.551687,-0.274935,1.45385e-05,3.7729e-06,-2.91405e-05,0.548248,-0.24068229081958015,1.4538605684455419e-05,3.7729071173941975e-06,0.7361794834882363,-2.91400754197646e-05,-0.24037850298239105
747,0.7372,0.00968566,739.004,0.0116622,0.0100794,0.00448648,-0.0123364,-0.275623,0.552263,-0.275223,1.45644e-05,3.78328e-06,-2.91692e-05,0.548824,-0.24090094283242292,1.4564506061409688e-05,3.783287156666759e-06,0.7371798109373737,-2.9168774583032686e-05,-0.24059724247353342
748,0.7382,0.00967001,739.004,0.0116438,0.0101109,0.00448003,-0.0123499,-0.275911,0.552839,-0.275511,1.45903e-05,3.79364e-06,-2.91979e-05,0.549399,-0.24111953188255308,1.459040643903009e-05,3.793647195937666e-06,0.7381807147410961,-2.9197473745412594e-05,-0.24081591897677312
749,0.7392,0.00965416,739.004,0.0116251,0.0101425,0.00447357,-0.0123636,-0.276199,0.553414,-0.275798,1.46163e-05,3.80397e-06,-2.92267e-05,0.549974,-0.24133805798810126,1.4616406818657168e-05,3.8039772352060908e-06,0.7391804560501536,-2.922627290413704e-05,-0.24103377354440092
750,0.7402,0.00963858,739.004,0.0116067,0.0101741,0.00446715,-0.0123773,-0.276487,0.553988,-0.276085,1.46424e-05,3.81429e-06,-2.92555e-05,0.550549,-0.24155652116719284,1.4642507200512966e-05,3.814297274473688e-06,0.740179032195863,-2.925507206208433e-05,-0.24125156559673933
751,0.7412,0.0096228,739.004,0.0115881,0.0102059,0.00446071,-0.0123911,-0.276774,0.554563,-0.276372,1.46685e-05,3.82459e-06,-2.92844e-05,0.551124,-0.24177416321249046,1.4668607583034898e-05,3.8245973137396305e-06,0.7411799228678673,-2.9283971216154114e-05,-0.24146929515172733
752,0.7422,0.00960745,739.004,0.01157,0.0102376,0.00445433,-0.0124049,-0.277061,0.555137,-0.276659,1.46948e-05,3.83486e-06,-2.93132e-05,0.551698,-0.24199174280348368,1.4694907969126092e-05,3.834867353003091e-06,0.7421796470369812,-2.9312770372325048e-05,-0.24168696222729935
753,0.7432,0.00959174,739.004,0.0115514,0.0102695,0.0044479,-0.0124188,-0.277349,0.555711,-0.276946,1.47211e-05,3.84511e-06,-2.93421e-05,0.552272,-0.24221001774845552,1.472120835588342e-05,3.845117392486941e-06,0.7431799452124921,-2.934166952484052e-05,-0.2419045668413844
754,0.7442,0.00957611,739.004,0.011533,0.0103014,0.00444155,-0.0124327,-0.277636,0.556284,-0.277232,1.47475e-05,3.85535e-06,-2.9371e-05,0.552846,-0.24242747226714567,1.4747608744869467e-05,3.8553574319699635e-06,0.744179073544029,-2.937056867635679e-05,-0.2421213511336362
755,0.7452,0.00956062,739.004,0.0115147,0.0103334,0.00443517,-0.0124467,-0.277922,0.556858,-0.277519,1.4774e-05,3.86556e-06,-2.93999e-05,0.553419,-0.24264410702982953,1.4774109136084235e-05,3.865567471228459e-06,0.7451805197197998,-2.9399467827206927e-05,-0.24233883109599352
756,0.7462,0.00954522,739.004,0.0114965,0.0103654,0.00442882,-0.0124608,-0.278209,0.55743,-0.277805,1.48005e-05,3.87576e-06,-2.94288e-05,0.553992,-0.24286143698277196,1.4800609527965136e-05,3.875767510708172e-06,0.7461790485290938,-2.9428366977057863e-05,-0.2425554912064274
757,0.7472,0.00952968,739.004,0.0114783,0.0103975,0.00442247,-0.0124749,-0.278495,0.558003,-0.278091,1.48272e-05,3.88593e-06,-2.94578e-05,0.554565,-0.2430779476492937,1.48273099234153e-05,3.885937550185403e-06,0.7471798958392715,-2.9457366123253337e-05,-0.24277208936092987
758,0.7482,0.00951446,739.004,0.0114602,0.0104297,0.00441615,-0.0124891,-0.278782,0.558575,-0.278377,1.48539e-05,3.89608e-06,-2.94868e-05,0.555137,-0.2432951531078441,1.4854010319753641e-05,3.896087589660979e-06,0.7481795686188499,-2.9486365268560633e-05,-0.24298862557721768
759,0.7492,0.00949898,739.004,0.0114419,0.010462,0.00440981,-0.0125033,-0.279068,0.559147,-0.278663,1.48807e-05,3.90621e-06,-2.95158e-05,0.555709,-0.24351153974929063,1.4880810718098658e-05,3.906217629356945e-06,0.749179813374828,-2.9515364413090772e-05,-0.24320509987300276
760,0.7502,0.0094836,739.004,0.0114238,0.0104943,0.00440353,-0.0125176,-0.279354,0.559719,-0.278948,1.49076e-05,3.91632e-06,-2.95449e-05,0.55628,-0.24372786451300654,1.490771111889444e-05,3.9163276688292115e-06,0.75018063043447,-2.9544463553743405e-05,-0.24342075568712573
761,0.7512,0.00946828,739.004,0.0114057,0.0105267,0.00439723,-0.012532,-0.27964,0.56029,-0.279234,1.49345e-05,3.92642e-06,-2.9574e-05,0.556852,-0.24394412741668647,1.4934611520134311e-05,3.9264277083006505e-06,0.7511802689440823,-2.9573562693618882e-05,-0.24363710641137093
762,0.7522,0.00945323,739.004,0.0113879,0.0105591,0.00439096,-0.0125464,-0.279925,0.560861,-0.279519,1.49615e-05,3.93649e-06,-2.96031e-05,0.557423,-0.2441595726379704,1.4961611923824947e-05,3.936497747991652e-06,0.7521804784102764,-2.960266183260618e-05,-0.24385263912117372
763,0.7532,0.00943784,739.004,0.0113697,0.0105917,0.00438467,-0.0125609,-0.280211,0.561431,-0.279804,1.49886e-05,3.94654e-06,-2.96322e-05,0.557993,-0.2443757120907809,1.4988712329522258e-05,3.9465477876809985e-06,0.7531795059787785,-2.96317609707053e-05,-0.24406811041290655
764,0.7542,0.00942264,739.004,0.0113518,0.0106243,0.00437845,-0.0125754,-0.280496,0.562001,-0.280089,1.50158e-05,3.95657e-06,-2.96613e-05,0.558564,-0.2445910343279588,1.5015912737670334e-05,3.956577827146646e-06,0.7541791031553176,-2.9660860108027265e-05,-0.2442835203040714
765,0.7552,0.00940731,739.004,0.0113337,0.010657,0.00437219,-0.0125901,-0.280781,0.562571,-0.280374,1.50431e-05,3.96658e-06,-2.96905e-05,0.559134,-0.244806295207043,1.504321314804713e-05,3.966587866832683e-06,0.7551792702646627,-2.9690059241471722e-05,-0.24449886881216465
766,0.7562,0.00939235,739.004,0.011316,0.0106897,0.00436599,-0.0126047,-0.281066,0.563141,-0.280658,1.50705e-05,3.97657e-06,-2.97197e-05,0.559703,-0.24502149474551815,1.5070613560652646e-05,3.976577906517065e-06,0.7561800076317682,-2.9719258374139024e-05,-0.24471340066845648
767,0.7572,0.00937704,739.004,0.011298,0.0107225,0.00435973,-0.0126195,-0.281351,0.56371,-0.280943,1.50979e-05,3.98654e-06,-2.97489e-05,0.560273,-0.24523663296086384,1.5098013973924296e-05,3.986547946199792e-06,0.7571795584013368,-2.9748457505807124e-05,-0.24492862667810278
768,0.7582,0.00936222,739.004,0.0112805,0.0107554,0.00435357,-0.0126342,-0.281636,0.564279,-0.281227,1.51254e-05,3.99649e-06,-2.97782e-05,0.560842,-0.24545170987055454,1.5125514389424666e-05,3.996497985880865e-06,0.7581796780771315,-2.9777756633819763e-05,-0.2451430365004903
769,0.7592,0.00934709,739.004,0.0112625,0.0107884,0.00434734,-0.0126491,-0.28192,0.564848,-0.281511,1.5153e-05,4.00642e-06,-2.98075e-05,0.561411,-0.24566597115840827,1.51531148073758e-05,4.006428025782327e-06,0.7591803669829524,-2.98070557608332e-05,-0.2453573854391342
770,0.7602,0.00933216,739.004,0.011245,0.0108214,0.0043412,-0.012664,-0.282204,0.565416,-0.281795,1.51807e-05,4.01634e-06,-2.98368e-05,0.561979,-0.24588017160469622,1.518081522733361e-05,4.016348065460917e-06,0.7601798652620382,-2.9836354887069483e-05,-0.24557167351132292
771,0.7612,0.00931695,739.004,0.0112269,0.0108545,0.00433501,-0.012679,-0.282489,0.565984,-0.282079,1.52084e-05,4.02623e-06,-2.98661e-05,0.562547,-0.24609506513200663,1.5208515648401644e-05,4.02623810535907e-06,0.7611799314174081,-2.986565401252861e-05,-0.24578590073434015
772,0.7622,0.00930197,739.004,0.0112095,0.0108876,0.00432888,-0.012694,-0.282773,0.566552,-0.282362,1.52363e-05,4.0361e-06,-2.98954e-05,0.563115,-0.2463091437329089,1.5236416073038939e-05,4.0361081450335234e-06,0.7621805657717071,-2.9894953136988534e-05,-0.24599931312515466
773,0.7632,0.0092871,739.004,0.0111918,0.0109209,0.00432273,-0.0127092,-0.283056,0.567119,-0.282646,1.52642e-05,4.04595e-06,-2.99248e-05,0.563682,-0.24652240806690595,1.5264316498564412e-05,4.0459581849283666e-06,0.7631800054668778,-2.9924352257681974e-05,-0.24621341891576576
774,0.7642,0.00927223,739.005,0.0111742,0.0109542,0.0043166,-0.0127244,-0.28334,0.567686,-0.282929,1.52922e-05,4.05579e-06,-2.99542e-05,0.564249,-0.24673636531964693,1.5292316926318605e-05,4.055798224822382e-06,0.7641800120050402,-2.9953751377376214e-05,-0.24642671033605312
775,0.7652,0.00925726,739.005,0.0111566,0.0109876,0.00431048,-0.0127396,-0.283624,0.568253,-0.283212,1.53203e-05,4.0656e-06,-2.99837e-05,0.564816,-0.24695026181715585,1.532041735630152e-05,4.065608264491871e-06,0.7651805857076854,-2.9983250493414992e-05,-0.24663994140340895
776,0.7662,0.00924262,739.005,0.0111391,0.0110211,0.0043044,-0.0127549,-0.283907,0.568819,-0.283495,1.53484e-05,4.0754e-06,-3.00132e-05,0.565382,-0.2471633447404058,1.5348517787394655e-05,4.075408304382577e-06,0.7661799607156436,-3.001274960845457e-05,-0.24685311213491046
777,0.7672,0.00922785,739.005,0.0111218,0.0110546,0.00429828,-0.0127703,-0.28419,0.569385,-0.283778,1.53767e-05,4.08517e-06,-3.00427e-05,0.565949,-0.24737636736972046,1.5376818222057054e-05,4.085178344270801e-06,0.7671799015299645,-3.004224872260597e-05,-0.24706622254763055
778,0.7682,0.0092129,739.005,0.0111042,0.0110882,0.00429221,-0.0127857,-0.284473,0.569951,-0.284061,1.5405e-05,4.09493e-06,-3.00722e-05,0.566514,-0.24758932972216063,1.540511865760763e-05,4.094938384158198e-06,0.7681804084709849,-3.007174783598021e-05,-0.24727927265863703
779,0.7692,0.00919833,739.005,0.0110868,0.0111219,0.00428616,-0.0128012,-0.284756,0.570516,-0.284343,1.54334e-05,4.10466e-06,-3.01017e-05,0.56708,-0.24780223181478234,1.5433519095608972e-05,4.104668424043112e-06,0.769179712678626,-3.0101246948355254e-05,-0.24749150997687885
780,0.7702,0.0091835,739.005,0.0110694,0.0111557,0.00428009,-0.0128168,-0.285039,0.571081,-0.284626,1.54619e-05,4.11438e-06,-3.01313e-05,0.567645,-0.24801507366463638,1.5462019535839033e-05,4.114388464149243e-06,0.770179581652676,-3.013084605696381e-05,-0.2477044397485716
781,0.7712,0.00916891,739.005,0.0110522,0.0111895,0.00427407,-0.0128325,-0.285322,0.571646,-0.284908,1.54905e-05,4.12408e-06,-3.01609e-05,0.56821,-0.24822785528876945,1.549061997851986e-05,4.1240885040316755e-06,0.7711800157123179,-3.016044516457317e-05,-0.2479165571865981
782,0.7722,0.00915418,739.005,0.0110348,0.0112234,0.00426802,-0.0128482,-0.285604,0.57221,-0.28519,1.55191e-05,4.13376e-06,-3.01906e-05,0.568775,-0.24843982514442364,1.551922042186682e-05,4.133768543912453e-06,0.7721792429967864,-3.019014426841604e-05,-0.2481286148159404
783,0.7732,0.00913961,739.005,0.0110175,0.0112574,0.00426201,-0.0128639,-0.285886,0.572774,-0.285472,1.55478e-05,4.14342e-06,-3.02202e-05,0.569339,-0.248651735233006,1.5547920867664544e-05,4.14342858401362e-06,0.7731790340043982,-3.0219743374360064e-05,-0.2483406126534623
784,0.7742,0.00912507,739.005,0.0110004,0.0112915,0.004256,-0.0128798,-0.286168,0.573338,-0.285753,1.55767e-05,4.15306e-06,-3.02499e-05,0.569903,-0.24886358557136867,1.557682131747562e-05,4.1530686238910874e-06,0.7741793890531832,-3.024944247642658e-05,-0.2485517992681977
785,0.7752,0.00911044,739.005,0.010983,0.0113256,0.00425001,-0.0128957,-0.28645,0.573902,-0.286035,1.56056e-05,4.16268e-06,-3.02797e-05,0.570466,-0.24907537617635866,1.560572176795283e-05,4.162688663988945e-06,0.77518030846135,-3.0279241574504567e-05,-0.24876367778452912
786,0.7762,0.00909605,739.005,0.0109661,0.0113598,0.00424403,-0.0129117,-0.286732,0.574465,-0.286316,1.56346e-05,4.17228e-06,-3.03094e-05,0.571029,-0.2492871070648186,1.5634722221102848e-05,4.172288703863103e-06,0.7761800163663826,-3.0308940674794727e-05,-0.24897474553466392
787,0.7772,0.00908154,739.005,0.0109489,0.0113941,0.00423805,-0.0129277,-0.287014,0.575028,-0.286598,1.56636e-05,4.18187e-06,-3.03392e-05,0.571592,-0.2494987782535859,1.5663722674919e-05,4.181878743958478e-06,0.7771802872654336,-3.0338739771096357e-05,-0.24918650479696391
788,0.7782,0.00906711,739.005,0.0109318,0.0114284,0.00423211,-0.0129438,-0.287295,0.57559,-0.286879,1.56928e-05,4.19143e-06,-3.0369e-05,0.572155,-0.24970963946950842,1.569292313252646e-05,4.191438784051371e-06,0.7781793432953259,-3.036853886662083e-05,-0.24939745374940003
789,0.7792,0.00905257,739.005,0.0109147,0.0114629,0.00422616,-0.01296,-0.287576,0.576153,-0.28716,1.5722e-05,4.20098e-06,-3.03989e-05,0.572717,-0.24992044144175318,1.572212359124414e-05,4.200988824143437e-06,0.7791807401323596,-3.0398437958156777e-05,-0.24960834343350813
790,0.7802,0.00903823,739.005,0.0108978,0.0114974,0.00422022,-0.0129763,-0.287858,0.576714,-0.28744,1.57514e-05,4.2105e-06,-3.04287e-05,0.573279,-0.25013193405540657,1.5751524053975174e-05,4.21050886423302e-06,0.780179140552707,-3.042823705179387e-05,-0.24981842368473905
791,0.7812,0.00902378,739.005,0.0108808,0.011532,0.0042143,-0.0129926,-0.288139,0.577276,-0.287721,1.57808e-05,4.22001e-06,-3.04586e-05,0.573841,-0.25034261737954366,1.578092451737234e-05,4.220018904321776e-06,0.7811798824118201,-3.045813614155346e-05,-0.2500291950929139
792,0.7822,0.00900971,739.005,0.010864,0.0115666,0.0042084,-0.013009,-0.288419,0.577837,-0.288001,1.58103e-05,4.2295e-06,-3.04886e-05,0.574402,-0.25055249206285046,1.5810424983442317e-05,4.229508944408877e-06,0.7821794046656312,-3.048813522732452e-05,-0.25023915752217607
793,0.7832,0.0089953,739.005,0.010847,0.0116014,0.00420248,-0.0130255,-0.2887,0.578398,-0.288282,1.58398e-05,4.23897e-06,-3.05185e-05,0.574964,-0.2507630572267898,1.583992545040047e-05,4.238978984494324e-06,0.7831794878087412,-3.051803431530775e-05,-0.2504498107207518
794,0.7842,0.00898128,739.005,0.0108303,0.0116362,0.00419662,-0.013042,-0.288981,0.578959,-0.288562,1.58695e-05,4.24843e-06,-3.05485e-05,0.575524,-0.25097356323023046,1.5869625921149932e-05,4.248439024578943e-06,0.7841801321558977,-3.0548033399302454e-05,-0.2506596553941247
795,0.7852,0.00896682,739.005,0.0108133,0.0116711,0.00419071,-0.0130586,-0.289261,0.579519,-0.288842,1.58992e-05,4.25786e-06,-3.05786e-05,0.576085,-0.25118326127342994,1.5899326393009616e-05,4.2578690646610795e-06,0.7851795528415788,-3.057813247941965e-05,-0.2508694413192143
796,0.7862,0.00895272,739.005,0.0107966,0.0117061,0.00418489,-0.0130752,-0.289541,0.580079,-0.289122,1.59291e-05,4.26728e-06,-3.06086e-05,0.576645,-0.2513929006093967,1.592922686888265e-05,4.267289104742389e-06,0.7861795333595822,-3.0608131561526974e-05,-0.2510791685124676
797,0.7872,0.00893851,739.005,0.0107799,0.0117412,0.00417901,-0.013092,-0.289821,0.580639,-0.289401,1.5959e-05,4.27668e-06,-3.06387e-05,0.577205,-0.2516024812545664,1.595912734542182e-05,4.276689145044088e-06,0.7871800740235022,-3.0638230639867814e-05,-0.25128808827879
798,0.7882,0.00892449,739.005,0.0107631,0.0117763,0.00417319,-0.0131088,-0.290101,0.581198,-0.289681,1.5989e-05,4.28606e-06,-3.06689e-05,0.577764,-0.25181200322537034,1.5989127824633798e-05,4.286069185122088e-06,0.7881793869668268,-3.06684297141091e-05,-0.25149769826730417
799,0.7892,0.00891006,739.005,0.0107462,0.0118115,0.00416733,-0.0131257,-0.290381,0.581757,-0.28996,1.60191e-05,4.29542e-06,-3.0699e-05,0.578323,-0.252021466538235,1.6019228306518585e-05,4.295429225420477e-06,0.7891792586822488,-3.069852879056256e-05,-0.25170650128011285
800,0.7902,0.00889598,739.005,0.0107296,0.0118468,0.00416156,-0.0131427,-0.29066,0.582316,-0.290239,1.60493e-05,4.30476e-06,-3.07292e-05,0.578882,-0.25223012344007945,1.6049428790632092e-05,4.3047692654951675e-06,0.7901796894822095,-3.072872786291647e-05,-0.2519152460450069
801,0.7912,0.00888199,739.005,0.010713,0.0118822,0.00415572,-0.0131597,-0.29094,0.582875,-0.290518,1.60795e-05,4.31408e-06,-3.07594e-05,0.579441,-0.25243946969567277,1.6079629275855822e-05,4.314089305568203e-06,0.7911806796793244,-3.0758926934493225e-05,-0.2521239325782353
802,0.7922,0.00886797,739.005,0.0106965,0.0119176,0.00414994,-0.0131768,-0.291219,0.583433,-0.290797,1.61099e-05,4.32339e-06,-3.07897e-05,0.579999,-0.25264800999090375,1.6110029765092904e-05,4.323399345862455e-06,0.7921804374050501,-3.078922600208145e-05,-0.2523325608960423
803,0.7932,0.00885413,739.005,0.01068,0.0119531,0.00414416,-0.013194,-0.291498,0.583991,-0.291076,1.61403e-05,4.33268e-06,-3.082e-05,0.580557,-0.25285649211150807,1.6140430255440208e-05,4.332689386155053e-06,0.7931807531512602,-3.081952506867047e-05,-0.2525411310146678
804,0.7942,0.00883999,739.005,0.0106633,0.0119887,0.00413838,-0.0132113,-0.291777,0.584548,-0.291355,1.61708e-05,4.34195e-06,-3.08503e-05,0.581114,-0.2530649160737143,1.6170930748016232e-05,4.341959426223951e-06,0.7941798330486864,-3.084982413437132e-05,-0.2527496429503471
805,0.7952,0.00882623,739.005,0.010647,0.0120244,0.00413265,-0.0132286,-0.292056,0.585105,-0.291633,1.62014e-05,4.3512e-06,-3.08807e-05,0.581672,-0.2532732818937462,1.620153124348711e-05,4.3512094665132395e-06,0.7951794695886263,-3.0880223196083634e-05,-0.2529573496770342
806,0.7962,0.008812,739.005,0.0106303,0.0120602,0.00412686,-0.013246,-0.292334,0.585662,-0.291911,1.62321e-05,4.36043e-06,-3.0911e-05,0.582229,-0.2534808430690396,1.623223174118671e-05,4.360439506578828e-06,0.7961796630812159,-3.091052226000812e-05,-0.25316499866927666
807,0.7972,0.00879832,739.005,0.0106141,0.012096,0.00412117,-0.0132635,-0.292613,0.586219,-0.292189,1.62629e-05,4.36965e-06,-3.09415e-05,0.582785,-0.25368909286162644,1.626303224178116e-05,4.369659546865634e-06,0.7971804138367642,-3.094102131673271e-05,-0.2533725899431226
808,0.7982,0.00878438,739.005,0.0105976,0.012132,0.00411541,-0.013281,-0.292891,0.586775,-0.292467,1.62938e-05,4.37885e-06,-3.09719e-05,0.583342,-0.253896538457537,1.6293932744604334e-05,4.378859587150785e-06,0.7981799239849299,-3.097142037566947e-05,-0.25358012351461545
809,0.7992,0.00877055,739.005,0.0105812,0.012168,0.00410972,-0.0132986,-0.293169,0.587331,-0.292745,1.63247e-05,4.38803e-06,-3.10024e-05,0.583898,-0.2541039263915873,1.632483324853773e-05,4.3880396274342814e-06,0.7991799900152587,-3.10019194306177e-05,-0.2537875993997941
810,0.8002,0.00875681,739.005,0.010565,0.0122041,0.004104,-0.0133164,-0.293447,0.587887,-0.293023,1.63558e-05,4.39719e-06,-3.10329e-05,0.584454,-0.25431125667980514,1.6355933756928565e-05,4.397199667716123e-06,0.8001806122369075,-3.1032418484566726e-05,-0.25399501761469323
811,0.8012,0.00874281,739.005,0.0105485,0.0122402,0.00409831,-0.0133341,-0.293725,0.588442,-0.2933,1.63869e-05,4.40633e-06,-3.10635e-05,0.585009,-0.25451852933821373,1.6387034265985534e-05,4.40633970799631e-06,0.8011799897783141,-3.1063017534527226e-05,-0.2542016323773483
812,0.8022,0.00872933,739.005,0.0105324,0.0122765,0.00409266,-0.013352,-0.294003,0.588997,-0.293577,1.64181e-05,4.41546e-06,-3.10941e-05,0.585564,-0.254725744382832,1.6418234777715313e-05,4.415469748053624e-06,0.8021799221282009,-3.1093616583488526e-05,-0.25440818991563985
813,0.8032,0.00871552,739.005,0.010516,0.0123128,0.00408695,-0.0133699,-0.294281,0.589552,-0.293855,1.64494e-05,4.42457e-06,-3.11247e-05,0.586119,-0.2549329018296743,1.64495352921179e-05,4.424579788331329e-06,0.8031804095945727,-3.112421563156165e-05,-0.25461543563035427
814,0.8042,0.00870177,739.005,0.0105,0.0123492,0.00408132,-0.0133879,-0.294558,0.590106,-0.294132,1.64808e-05,4.43366e-06,-3.11554e-05,0.586673,-0.2551392568343799,1.6480935809193298e-05,4.433669828607378e-06,0.8041796483050541,-3.115491467553522e-05,-0.2548218785610188
815,0.8052,0.00868844,739.005,0.0104841,0.0123857,0.00407568,-0.013406,-0.294835,0.59066,-0.294409,1.65123e-05,4.44273e-06,-3.11861e-05,0.587228,-0.2553455546866651,1.651243632871946e-05,4.442739868881773e-06,0.8051794407471504,-3.118561371862061e-05,-0.25502826431491077
816,0.8062,0.00867455,739.005,0.0104676,0.0124223,0.00407001,-0.0134242,-0.295112,0.591214,-0.294685,1.65439e-05,4.45179e-06,-3.12168e-05,0.587782,-0.25555179540235906,1.6544036851140476e-05,4.451799909155341e-06,0.8061797872277146,-3.121631276081782e-05,-0.2552338481420867
817,0.8072,0.00866126,739.005,0.0104519,0.012459,0.00406444,-0.0134424,-0.295389,0.591768,-0.294962,1.65755e-05,4.46083e-06,-3.12476e-05,0.588335,-0.25575797899728636,1.657563737444967e-05,4.460839949427253e-06,0.807180688053768,-3.124711179880446e-05,-0.2554401197962083
818,0.8082,0.00864734,739.005,0.0104354,0.0124958,0.00405877,-0.0134608,-0.295666,0.592321,-0.295238,1.66073e-05,4.46985e-06,-3.12784e-05,0.588889,-0.2559641054872672,1.660743790199426e-05,4.469859989697511e-06,0.8081803353512644,-3.127791083590292e-05,-0.25564558996695663
819,0.8092,0.00863392,739.005,0.0104196,0.0125326,0.00405322,-0.0134791,-0.295943,0.592874,-0.295514,1.66391e-05,4.47885e-06,-3.13092e-05,0.589442,-0.25617017488811766,1.6639238430649073e-05,4.478860029966114e-06,0.8091805356065951,-3.1308709872113205e-05,-0.25585100343576317
820,0.8102,0.0086204,739.005,0.0104035,0.0125695,0.0040476,-0.0134976,-0.296219,0.593426,-0.295791,1.66711e-05,4.48784e-06,-3.13401e-05,0.589994,-0.25637544359146436,1.667123896353928e-05,4.487850070455934e-06,0.8101794789452463,-3.133960890422394e-05,-0.25605710416154315
821,0.8112,0.008607,739.005,0.0103878,0.0126065,0.00404203,-0.0135161,-0.296495,0.593978,-0.296067,1.67031e-05,4.49681e-06,-3.1371e-05,0.590547,-0.25658065564846655,1.6703239497539712e-05,4.496820110722055e-06,0.8111789738528392,-3.137050793533547e-05,-0.2562624040681042
822,0.8122,0.00859335,739.005,0.0103716,0.0126436,0.00403645,-0.0135348,-0.296772,0.59453,-0.296342,1.67352e-05,4.50576e-06,-3.1402e-05,0.591099,-0.2567865542885738,1.6735340034212953e-05,4.505770150986521e-06,0.8121790206339246,-3.140150696234745e-05,-0.25646690378698533
823,0.8132,0.00858002,739.005,0.010356,0.0126808,0.0040309,-0.0135535,-0.297048,0.595082,-0.296618,1.67674e-05,4.51469e-06,-3.1433e-05,0.59165,-0.2569916528946805,1.6767540573559003e-05,4.514700191249332e-06,0.8131796195932199,-3.143250598847125e-05,-0.2566720906044567
824,0.8142,0.00856664,739.005,0.01034,0.012718,0.00402535,-0.0135723,-0.297324,0.595634,-0.296893,1.67997e-05,4.52361e-06,-3.1464e-05,0.592202,-0.2571966949013831,1.6799841115799907e-05,4.523620231511316e-06,0.8141807710356121,-3.146350501359585e-05,-0.2568764776750303
825,0.8152,0.00855361,739.005,0.0103246,0.0127554,0.00401982,-0.0135912,-0.297599,0.596185,-0.297169,1.6832e-05,4.53251e-06,-3.14951e-05,0.592753,-0.2574009377256097,1.683214165892899e-05,4.532520271771645e-06,0.8151806600845886,-3.1494604034509877e-05,-0.2570815514657071
826,0.8162,0.00854005,739.005,0.0103086,0.0127928,0.00401427,-0.0136101,-0.297875,0.596735,-0.297444,1.68645e-05,4.54139e-06,-3.15262e-05,0.593304,-0.2576058667852863,1.6864642206515512e-05,4.541400312030319e-06,0.8161792840440503,-3.1525703054535725e-05,-0.257285825950025
827,0.8172,0.00852663,739.005,0.0102926,0.0128303,0.00400879,-0.0136292,-0.29815,0.597286,-0.297719,1.68971e-05,4.55026e-06,-3.15573e-05,0.593854,-0.25780999710271524,1.6897242756774844e-05,4.550270352510211e-06,0.8171802745771253,-3.1556802073673396e-05,-0.2574900442665833
828,0.8182,0.00851329,739.005,0.0102769,0.0128679,0.00400328,-0.0136483,-0.298426,0.597836,-0.297994,1.69297e-05,4.55911e-06,-3.15885e-05,0.594405,-0.2580148132775826,1.69298433081444e-05,4.5591203927664026e-06,0.8181799986270553,-3.158800108860049e-05,-0.25769420643082563
829,0.8192,0.0085004,739.005,0.0102616,0.0129056,0.0039978,-0.0136675,-0.298701,0.598386,-0.298269,1.69625e-05,4.56794e-06,-3.16197e-05,0.594955,-0.25821883115018807,1.6962643863971394e-05,4.56795043302094e-06,0.8191802726764483,-3.161920010252839e-05,-0.25789831245819217
830,0.8202,0.00848715,739.005,0.0102458,0.0129434,0.00399228,-0.0136868,-0.298976,0.598935,-0.298543,1.69953e-05,4.57676e-06,-3.1651e-05,0.595504,-0.2584227929255922,1.6995444420908612e-05,4.5767704732746495e-06,0.820179276847701,-3.1650499112356734e-05,-0.2581016204661095
831,0.8212,0.00847386,739.005,0.0102302,0.0129812,0.00398684,-0.0137061,-0.29925,0.599485,-0.298818,1.70282e-05,4.58555e-06,-3.16823e-05,0.596054,-0.2586259572455477,1.702834498051864e-05,4.585560513747922e-06,0.8211806508025619,-3.168179812118588e-05,-0.2583056144700202
832,0.8222,0.00846036,739.005,0.0102143,0.0130192,0.00398137,-0.0137256,-0.299525,0.600034,-0.299092,1.70613e-05,4.59434e-06,-3.17136e-05,0.596603,-0.2588298070766687,1.706144554480815e-05,4.594350553999149e-06,0.8221807534829189,-3.1713097129126844e-05,-0.25850881089247435
833,0.8232,0.00844728,739.005,0.0101987,0.0130572,0.00397594,-0.0137451,-0.2998,0.600582,-0.299366,1.70944e-05,4.6031e-06,-3.1745e-05,0.597151,-0.2590336008567936,1.7094546109985842e-05,4.6031105942478945e-06,0.8231795821898971,-3.1744496132857236e-05,-0.25871195164673555
834,0.8242,0.00843435,739.005,0.0101833,0.0130954,0.00397048,-0.0137647,-0.300074,0.60113,-0.29964,1.71276e-05,4.61185e-06,-3.17764e-05,0.5977,-0.25923659783830233,1.712774667828043e-05,4.611860634495812e-06,0.8241789584050105,-3.177589513558843e-05,-0.25891503674805494
835,0.8252,0.00842113,739.005,0.0101678,0.0131336,0.00396505,-0.0137844,-0.300348,0.601679,-0.299914,1.71609e-05,4.62058e-06,-3.18078e-05,0.598248,-0.2594395392062575,1.7161047249025785e-05,4.62059067496412e-06,0.8251807076081703,-3.180729413732042e-05,-0.2591180662116792
836,0.8262,0.00840798,739.005,0.0101523,0.0131719,0.00395964,-0.0138042,-0.300622,0.602226,-0.300188,1.71943e-05,4.62929e-06,-3.18393e-05,0.598796,-0.2596424249758953,1.7194447822888037e-05,4.6293007152087284e-06,0.8261793545602731,-3.1838793134841836e-05,-0.25932104005285106
837,0.8272,0.00839514,739.005,0.0101369,0.0132103,0.00395424,-0.013824,-0.300896,0.602774,-0.300461,1.72277e-05,4.63799e-06,-3.18708e-05,0.599343,-0.2598452551624474,1.7227848397638468e-05,4.638000755452509e-06,0.8271803751011495,-3.1870292131475075e-05,-0.259523217810397
838,0.8282,0.00838195,739.005,0.0101213,0.0132487,0.00394882,-0.013844,-0.30117,0.603321,-0.300735,1.72613e-05,4.64667e-06,-3.19024e-05,0.599891,-0.2600480297811415,1.7261448977068383e-05,4.6466807956946354e-06,0.8281801161705846,-3.190189112389774e-05,-0.25972608065523806
839,0.8292,0.00836911,739.005,0.0101062,0.0132873,0.00394346,-0.013864,-0.301443,0.603868,-0.301008,1.7295e-05,4.65534e-06,-3.1934e-05,0.600438,-0.2602500090975801,1.7295149559393153e-05,4.655350836157979e-06,0.8291804042479778,-3.1933490115210184e-05,-0.25992814785179186
840,0.8302,0.00835614,739.005,0.0100908,0.013326,0.00393807,-0.0138841,-0.301717,0.604414,-0.301281,1.73287e-05,4.66398e-06,-3.19657e-05,0.600984,-0.2604526728288882,1.7328850142828145e-05,4.663990876396795e-06,0.8301794094522998,-3.1965189102423075e-05,-0.2601301598915303
841,0.8312,0.00834301,739.005,0.0100752,0.0133647,0.0039327,-0.0139043,-0.30199,0.604961,-0.301554,1.73626e-05,4.67261e-06,-3.19974e-05,0.601531,-0.2606545416928522,1.7362750730720578e-05,4.672620916634784e-06,0.8311807914422757,-3.1996888088636766e-05,-0.26033211678950896
842,0.8322,0.0083301,739.005,0.0100602,0.0134035,0.00392737,-0.0139246,-0.302263,0.605506,-0.301827,1.73965e-05,4.68123e-06,-3.20291e-05,0.602077,-0.2608563554541382,1.7396651319945278e-05,4.681240956871946e-06,0.8321790569762608,-3.2028587073851256e-05,-0.26053401856077973
843,0.8332,0.00831713,739.005,0.0100448,0.0134425,0.003922,-0.013945,-0.302536,0.606052,-0.302099,1.74306e-05,4.68983e-06,-3.20609e-05,0.602622,-0.26105811412778723,1.7430751913849463e-05,4.6898409973294974e-06,0.8331796998920269,-3.206038605485517e-05,-0.26073512595588555
844,0.8342,0.00830469,739.005,0.0100298,0.0134815,0.00391669,-0.0139654,-0.302809,0.606597,-0.302372,1.74647e-05,4.69841e-06,-3.20927e-05,0.603168,-0.2612598177288361,1.746485250886387e-05,4.6984210375633495e-06,0.8341790551280339,-3.209218503485989e-05,-0.2609369177206704
845,0.8352,0.00829213,739.005,0.0100149,0.0135206,0.00391135,-0.013986,-0.303082,0.607143,-0.302644,1.74989e-05,4.70697e-06,-3.21246e-05,0.603713,-0.2614614662723176,1.7499053106551088e-05,4.706981077795547e-06,0.8351807903409607,-3.212408401054301e-05,-0.2611379155421075
846,0.8362,0.00827915,739.005,0.00999944,0.0135598,0.00390602,-0.0140067,-0.303355,0.607687,-0.302916,1.75333e-05,4.71552e-06,-3.21565e-05,0.604258,-0.2616630597732602,1.7533453709139835e-05,4.715531118026917e-06,0.8361794002881846,-3.215598298533795e-05,-0.26133885869957174
847,0.8372,0.00826612,739.005,0.00998428,0.0135991,0.00390073,-0.0140273,-0.303627,0.608232,-0.303188,1.75677e-05,4.72406e-06,-3.21884e-05,0.604802,-0.261863860110918,1.7567854312838804e-05,4.724071158479504e-06,0.8371803908064814,-3.218788195902267e-05,-0.26153974720792983
848,0.8382,0.00825332,739.005,0.00996891,0.0136385,0.00389547,-0.0140482,-0.303899,0.608776,-0.30346,1.76022e-05,4.73257e-06,-3.22204e-05,0.605347,-0.26206460583831126,1.7602354919654672e-05,4.732581198707564e-06,0.8381800888322892,-3.2219880928496814e-05,-0.2617405810820441
849,0.8392,0.00824073,739.005,0.00995401,0.0136779,0.00389016,-0.014069,-0.304171,0.60932,-0.303732,1.76368e-05,4.74107e-06,-3.22524e-05,0.605891,-0.262265296970292,1.7636955529365395e-05,4.741081238934797e-06,0.8391803308417733,-3.225187989697176e-05,-0.2619413603367733
850,0.8402,0.00822779,739.005,0.00993893,0.0137175,0.00388488,-0.0140901,-0.304443,0.609863,-0.304004,1.76715e-05,4.74956e-06,-3.22845e-05,0.606434,-0.2624659335217081,1.767165614197097e-05,4.749571279161202e-06,0.8401792769507441,-3.228397886112511e-05,-0.2621420849869718
851,0.8412,0.0082155,739.005,0.00992417,0.0137572,0.00387965,-0.0141111,-0.304715,0.610407,-0.304275,1.77063e-05,4.75803e-06,-3.23166e-05,0.606978,-0.2626665155074035,1.77064567574714e-05,4.758041319385953e-06,0.8411806068144343,-3.2316077824279255e-05,-0.26234201738987606
852,0.8422,0.00820284,739.005,0.00990913,0.0137969,0.00387435,-0.0141323,-0.304987,0.61095,-0.304546,1.77412e-05,4.76648e-06,-3.23488e-05,0.607521,-0.26286704294221797,1.774135737608873e-05,4.7664913596090486e-06,0.8421806393682012,-3.234827678322283e-05,-0.2625418956184402
853,0.8432,0.00819024,739.005,0.00989425,0.0138368,0.00386915,-0.0141535,-0.305258,0.611492,-0.304817,1.77762e-05,4.77492e-06,-3.2381e-05,0.608064,-0.2630667789081348,1.777635799760091e-05,4.774931400053362e-06,0.8431793719068075,-3.238047574105618e-05,-0.2627417196873433
854,0.8442,0.00817766,739.005,0.00987946,0.0138767,0.0038639,-0.0141749,-0.30553,0.612035,-0.305088,1.78113e-05,4.78334e-06,-3.24132e-05,0.608606,-0.2632671974861096,1.7811458622229992e-05,4.783351440273975e-06,0.8441804900847398,-3.241267469789033e-05,-0.26294148961126074
855,0.8452,0.00816454,739.005,0.00986408,0.0139168,0.00385867,-0.0141963,-0.305801,0.612577,-0.305359,1.78465e-05,4.79174e-06,-3.24455e-05,0.609148,-0.26346682502483765,1.7846659249753927e-05,4.791751480492934e-06,0.8451803068362296,-3.2444973650402886e-05,-0.26314120540486374
856,0.8462,0.00815267,739.005,0.0098497,0.0139568,0.00385353,-0.0142178,-0.306072,0.613119,-0.30563,1.78818e-05,4.80013e-06,-3.24779e-05,0.60969,-0.2636663984718324,1.788195988039476e-05,4.800141520711065e-06,0.8461806656352802,-3.247737259870487e-05,-0.2633408670828198
857,0.8472,0.00813971,739.005,0.00983446,0.0139971,0.00384822,-0.0142395,-0.306343,0.61366,-0.305901,1.79172e-05,4.8085e-06,-3.25103e-05,0.610232,-0.26386591784175084,1.7917360513930447e-05,4.808511560927542e-06,0.8471797195951181,-3.2509771545896626e-05,-0.263540474659792
858,0.8482,0.00812781,739.005,0.00982027,0.0140374,0.00384312,-0.0142611,-0.306614,0.614201,-0.306171,1.79526e-05,4.81686e-06,-3.25427e-05,0.610773,-0.2640653831492459,1.7952761148798402e-05,4.816871601143191e-06,0.8481793141893765,-3.2542170492089184e-05,-0.26373929189010004
859,0.8492,0.00811463,739.005,0.00980468,0.0140779,0.00383785,-0.014283,-0.306884,0.614742,-0.306441,1.79882e-05,4.8252e-06,-3.25751e-05,0.611314,-0.26426405867339287,1.7988361788567886e-05,4.8252116413571855e-06,0.8491794497106182,-3.257456943717152e-05,-0.263938055447002
860,0.8502,0.00810251,739.005,0.00979027,0.0141183,0.00383277,-0.0143048,-0.307155,0.615283,-0.306711,1.80239e-05,4.83353e-06,-3.26077e-05,0.611855,-0.264463416099341,1.802406243145427e-05,4.8335416815703525e-06,0.8501801264515634,-3.2607168374720885e-05,-0.26413676534498787
861,0.8512,0.00809061,739.005,0.00977611,0.014159,0.00382755,-0.0143269,-0.307425,0.615823,-0.306981,1.80597e-05,4.84184e-06,-3.26402e-05,0.612395,-0.2646619841690985,1.805986307745755e-05,4.841851721781865e-06,0.8511794935246724,-3.2639667314482423e-05,-0.26433542159854373
862,0.8522,0.00807815,739.005,0.00976112,0.0141997,0.0038224,-0.014349,-0.307696,0.616363,-0.307251,1.80955e-05,4.85013e-06,-3.26728e-05,0.612935,-0.2648612337718481,1.8095663724571054e-05,4.850141761991722e-06,0.8521794004017347,-3.2672266249922366e-05,-0.26453402422215133
863,0.8532,0.00806522,739.005,0.00974626,0.0142404,0.00381726,-0.0143711,-0.307966,0.616903,-0.307521,1.81315e-05,4.85841e-06,-3.27055e-05,0.613475,-0.26505969444533306,1.8131664376586087e-05,4.858421802200752e-06,0.8531798473743235,-3.270496518092969e-05,-0.2647325732302891
864,0.8542,0.0080531,739.005,0.00973168,0.0142813,0.00381217,-0.0143934,-0.308236,0.617442,-0.30779,1.81676e-05,4.86667e-06,-3.27382e-05,0.614015,-0.2652581015416695,1.8167765031940064e-05,4.8666818421860825e-06,0.8541789805542612,-3.2737664110937814e-05,-0.2649303335681322
865,0.8552,0.00804035,739.005,0.00971694,0.0143223,0.00380699,-0.0144158,-0.308505,0.617982,-0.30806,1.82037e-05,4.87492e-06,-3.27709e-05,0.614554,-0.265455720531409,1.8203865688404264e-05,4.87493188239263e-06,0.8551805075917234,-3.277036303994674e-05,-0.2651287755871907
866,0.8562,0.00802905,739.005,0.00970303,0.0143634,0.00380196,-0.0144382,-0.308775,0.618521,-0.308329,1.824e-05,4.88315e-06,-3.28037e-05,0.615093,-0.2656540207151361,1.8240166349769993e-05,4.883161922597523e-06,0.8561807194181874,-3.280316196452304e-05,-0.2653264293609333
867,0.8572,0.00801592,739.005,0.00968803,0.0144046,0.00379674,-0.0144608,-0.309044,0.619059,-0.308598,1.82763e-05,4.89137e-06,-3.28366e-05,0.615632,-0.2658515332169412,1.8276467012690034e-05,4.891381962801589e-06,0.8571796133236014,-3.283606088477775e-05,-0.2655240299729613
868,0.8582,0.00800398,739.005,0.00967367,0.0144458,0.00379177,-0.0144834,-0.309314,0.619597,-0.308867,1.83128e-05,4.89957e-06,-3.28695e-05,0.61617,-0.26604972654566916,1.831296768028956e-05,4.899582003003999e-06,0.858179044778524,-3.286895980392224e-05,-0.2657215774375734
869,0.8592,0.00799198,739.005,0.00965928,0.0144873,0.00378662,-0.0145061,-0.309583,0.620135,-0.309136,1.83494e-05,4.90775e-06,-3.29024e-05,0.616708,-0.26624713261692146,1.834956835122803e-05,4.907762042982711e-06,0.8591790140722353,-3.29018587219565e-05,-0.26591907176906426
870,0.8602,0.00797962,739.005,0.0096448,0.0145287,0.00378154,-0.014529,-0.309852,0.620673,-0.309405,1.8386e-05,4.91592e-06,-3.29354e-05,0.617246,-0.2664444855930822,1.8386169023498766e-05,4.915932083182639e-06,0.8601795214941703,-3.293485763566917e-05,-0.2661165129817247
871,0.8612,0.00796766,739.005,0.00963046,0.0145703,0.00377652,-0.0145519,-0.310121,0.621211,-0.309673,1.84228e-05,4.92408e-06,-3.29684e-05,0.617784,-0.266641785488432,1.8422969700893077e-05,4.92409212338174e-06,0.8611805673339192,-3.296785654827161e-05,-0.26631316740337596
872,0.8622,0.00795506,739.005,0.00961549,0.014612,0.00377143,-0.0145749,-0.31039,0.621748,-0.309942,1.84596e-05,4.93222e-06,-3.30015e-05,0.618321,-0.2668390323172477,1.845977037939761e-05,4.932232163357142e-06,0.8621802897000088,-3.300095545644144e-05,-0.2665105026185681
873,0.8632,0.00794339,739.005,0.00960177,0.0146537,0.00376643,-0.014598,-0.310658,0.622285,-0.31021,1.84966e-05,4.94034e-06,-3.30347e-05,0.618858,-0.2670354931296619,1.8496771063247763e-05,4.9403522035529335e-06,0.8631805490611792,-3.303415436028967e-05,-0.2667070514651445
874,0.8642,0.00793137,739.005,0.00958739,0.0146957,0.00376135,-0.0146213,-0.310927,0.622821,-0.310478,1.85337e-05,4.94845e-06,-3.30678e-05,0.619395,-0.26723263406536546,1.853387174999277e-05,4.948462243525853e-06,0.8641794815254606,-3.306725326635007e-05,-0.26690354764368773
875,0.8652,0.00791853,739.005,0.00957229,0.0147376,0.00375632,-0.0146446,-0.311195,0.623357,-0.310746,1.85708e-05,4.95654e-06,-3.31011e-05,0.619931,-0.26742898940664495,1.8570972438292088e-05,4.956552283719162e-06,0.8651789495610633,-3.310055216465546e-05,-0.2670999911683112
876,0.8662,0.007907,739.005,0.00955864,0.0147797,0.00375138,-0.0146679,-0.311463,0.623893,-0.311014,1.86081e-05,4.96462e-06,-3.31343e-05,0.620467,-0.2676252921317438,1.860827313171498e-05,4.9646323236895995e-06,0.8661789534551303,-3.313375106517302e-05,-0.2672963820531241
877,0.8672,0.00789475,739.005,0.00954406,0.0148219,0.00374629,-0.0146916,-0.311731,0.624429,-0.311281,1.86455e-05,4.97269e-06,-3.31677e-05,0.621003,-0.2678215422547614,1.8645673828476816e-05,4.972702363881254e-06,0.8671794934949586,-3.316714995793557e-05,-0.26749198780458605
878,0.8682,0.00788317,739.005,0.00953029,0.0148641,0.00374135,-0.0147151,-0.311999,0.624965,-0.311549,1.86829e-05,4.98074e-06,-3.3201e-05,0.621538,-0.26801773978979315,1.868307452657092e-05,4.980752403849209e-06,0.8681805699679996,-3.320044885291029e-05,-0.26768827364837655
879,0.8692,0.00787085,739.005,0.00951563,0.0149066,0.00373632,-0.0147389,-0.312267,0.6255,-0.311816,1.87205e-05,4.98877e-06,-3.32345e-05,0.622074,-0.26821388475093066,1.8720675229566552e-05,4.988782444037554e-06,0.8691803139806098,-3.323394774013e-05,-0.26788377477875003
880,0.8702,0.00785921,739.005,0.00950209,0.014949,0.00373138,-0.0147626,-0.312535,0.626035,-0.312084,1.87582e-05,4.99679e-06,-3.3268e-05,0.622608,-0.268409977152262,1.8758375936123173e-05,4.996802484003027e-06,0.8701805929993682,-3.326744662623948e-05,-0.26807995563770004
881,0.8712,0.00784735,739.005,0.00948797,0.0149916,0.00372638,-0.0147866,-0.312802,0.626569,-0.312351,1.87959e-05,5.00479e-06,-3.33015e-05,0.623143,-0.2686052856135225,1.879607664401206e-05,5.004802523966845e-06,0.871179536130108,-3.3300945511238744e-05,-0.2682753522029425
882,0.8722,0.00783523,739.005,0.00947337,0.0150343,0.00372144,-0.0148106,-0.313069,0.627103,-0.312618,1.88338e-05,5.01278e-06,-3.33351e-05,0.623678,-0.26880054193438485,1.8833977357024523e-05,5.012792563929835e-06,0.872179012838932,-3.3334544391694365e-05,-0.26847069660426626
883,0.8732,0.00782396,739.005,0.00946013,0.0150771,0.00371654,-0.0148346,-0.313336,0.627637,-0.312884,1.88718e-05,5.02076e-06,-3.33687e-05,0.624212,-0.26899574612876875,1.8871978073597973e-05,5.020772604114043e-06,0.8731790234108476,-3.3368143271150785e-05,-0.2686652575212204
884,0.8742,0.00781107,739.005,0.00944501,0.01512,0.00371147,-0.014859,-0.313604,0.628171,-0.313151,1.89099e-05,5.02871e-06,-3.34024e-05,0.624745,-0.2691916290193265,1.891007879328832e-05,5.028722644073724e-06,0.8741795681310134,-3.3401842146063565e-05,-0.26886049783172083
885,0.8752,0.00779967,739.005,0.00943114,0.0151629,0.0037067,-0.0148832,-0.31387,0.628705,-0.313418,1.89481e-05,5.03666e-06,-3.34361e-05,0.625279,-0.2693859981937611,1.8948279516317612e-05,5.036672684033405e-06,0.8751806472847405,-3.343554101986612e-05,-0.26905568602001706
886,0.8762,0.00778796,739.005,0.00941737,0.0152061,0.00370168,-0.0149077,-0.314137,0.629238,-0.313684,1.89864e-05,5.04459e-06,-3.34699e-05,0.625812,-0.26958104609219025,1.898658024290789e-05,5.0446027239914315e-06,0.8761803849761702,-3.346933988912504e-05,-0.2692500913504805
887,0.8772,0.00777666,739.005,0.00940407,0.0152493,0.00369681,-0.0149321,-0.314404,0.629771,-0.31395,1.90247e-05,5.0525e-06,-3.35038e-05,0.626345,-0.2697760419197822,1.9024880970830438e-05,5.052512763947803e-06,0.8771806556698218,-3.3503238753951337e-05,-0.2694444449760032
888,0.8782,0.00776472,739.005,0.0093897,0.0152926,0.00369188,-0.0149568,-0.31467,0.630303,-0.314216,1.90632e-05,5.0604e-06,-3.35377e-05,0.626878,-0.2699702556610588,1.906338170387656e-05,5.060412803903347e-06,0.8781795814693409,-3.353713761766741e-05,-0.2696387469103366
889,0.8792,0.00775259,739.005,0.0093759,0.015336,0.00368699,-0.0149815,-0.314937,0.630835,-0.314482,1.91018e-05,5.06829e-06,-3.35716e-05,0.62741,-0.2701651475835678,1.9101982440483667e-05,5.0683028438580635e-06,0.8791790388387706,-3.357103648016224e-05,-0.26983299716722886
890,0.8802,0.00774125,739.005,0.00936185,0.0153795,0.00368214,-0.0150064,-0.315203,0.631367,-0.314748,1.91405e-05,5.07616e-06,-3.36056e-05,0.627942,-0.2703592578365024,1.914068318042972e-05,5.076172883811125e-06,0.8801790280609807,-3.360503533811343e-05,-0.27002719576042444
891,0.8812,0.00772928,739.005,0.00934792,0.0154231,0.00367724,-0.0150312,-0.315469,0.631899,-0.315014,1.91794e-05,5.08401e-06,-3.36397e-05,0.628474,-0.2705533164629763,1.9179583925943433e-05,5.084022923540488e-06,0.8811795494189927,-3.3639134191632e-05,-0.27022134270366405
892,0.8822,0.00771804,739.005,0.00933455,0.0154669,0.0036724,-0.0150563,-0.315735,0.632431,-0.315279,1.92183e-05,5.09186e-06,-3.36738e-05,0.629006,-0.2707473234767205,1.9218484672789415e-05,5.091872963491895e-06,0.882180603195978,-3.367323304392933e-05,-0.27041470842575777
893,0.8832,0.00770617,739.005,0.00932043,0.0155107,0.0036675,-0.0150815,-0.316,0.632962,-0.315545,1.92573e-05,5.09968e-06,-3.37079e-05,0.629537,-0.27094054983237625,1.925748542297434e-05,5.0996930034408194e-06,0.8831803064940111,-3.370733189511643e-05,-0.27060875230433656
894,0.8842,0.00769451,739.005,0.00930666,0.0155546,0.00366269,-0.0151067,-0.316266,0.633493,-0.31581,1.92964e-05,5.1075e-06,-3.37421e-05,0.630068,-0.2711344538557423,1.9296586176720254e-05,5.107513043389744e-06,0.8841805407754588,-3.3741530741759895e-05,-0.27080201537648774
895,0.8852,0.00768293,739.005,0.00929283,0.0155987,0.00365785,-0.0151321,-0.316532,0.634023,-0.316075,1.93356e-05,5.11529e-06,-3.37764e-05,0.630599,-0.2713283063074976,1.9335786934027155e-05,5.115303083114142e-06,0.8851794211419848,-3.377582958385972e-05,-0.27099522724071035
896,0.8862,0.00767122,739.005,0.00927899,0.0156428,0.00365302,-0.0151575,-0.316797,0.634554,-0.31634,1.9375e-05,5.12308e-06,-3.38107e-05,0.631129,-0.2715213787231012,1.937518769645763e-05,5.123093123060585e-06,0.8861807172351968,-3.3810128424738295e-05,-0.2711883879105724
897,0.8872,0.0076597,739.005,0.00926538,0.0156871,0.00364819,-0.0151831,-0.317062,0.635084,-0.316605,1.94144e-05,5.13085e-06,-3.38451e-05,0.631659,-0.2717143999812933,1.941458846066446e-05,5.130863162783328e-06,0.8871806579762207,-3.384452726107323e-05,-0.2713814973996387
898,0.8882,0.0076484,739.005,0.0092518,0.0157315,0.0036434,-0.0152087,-0.317327,0.635613,-0.31687,1.9454e-05,5.1386e-06,-3.38796e-05,0.632189,-0.2719073700956288,1.9454189230216912e-05,5.138613202726461e-06,0.8881792406461193,-3.387902609286453e-05,-0.2715745557214704
899,0.8892,0.00763666,739.005,0.00923801,0.0157759,0.00363858,-0.0152345,-0.317592,0.636143,-0.317134,1.94936e-05,5.14634e-06,-3.3914e-05,0.632719,-0.2721002890796591,1.949379000154572e-05,5.146353242446722e-06,0.8891802408852936,-3.3913424926756974e-05,-0.2717668346568237
900,0.8902,0.00762549,739.005,0.00922474,0.0158205,0.00363382,-0.0152604,-0.317857,0.636672,-0.317399,1.95334e-05,5.15407e-06,-3.39486e-05,0.633248,-0.2722931569469319,1.95335907779981e-05,5.154083282166155e-06,0.8901798816143829,-3.3948023752783385e-05,-0.2719597908778111
901,0.8912,0.00761363,739.005,0.00921052,0.0158653,0.00362899,-0.0152864,-0.318121,0.637201,-0.317663,1.95733e-05,5.16178e-06,-3.39832e-05,0.633777,-0.2724852461966013,1.9573491558233513e-05,5.161793322105979e-06,0.891180051293313,-3.398262257758855e-05,-0.2721519681245066
902,0.8922,0.00760226,739.005,0.00919729,0.01591,0.00362426,-0.0153124,-0.318386,0.63773,-0.317927,1.96132e-05,5.16948e-06,-3.40179e-05,0.634306,-0.27267801206375375,1.961339234002324e-05,5.16949336182293e-06,0.8921807502019721,-3.4017321397850075e-05,-0.2723440946431055
903,0.8932,0.00759115,739.005,0.00918393,0.015955,0.00361947,-0.0153387,-0.31865,0.638258,-0.318191,1.96533e-05,5.17716e-06,-3.40526e-05,0.634834,-0.2728699997250825,1.9653493127380628e-05,5.1771734015382265e-06,0.8931800854393648,-3.405202021677933e-05,-0.27253617044699796
904,0.8942,0.0075796,739.005,0.00917016,0.016,0.00361473,-0.015365,-0.318915,0.638786,-0.318455,1.96935e-05,5.18483e-06,-3.40873e-05,0.635362,-0.27306266364605836,1.9693693918299005e-05,5.184843441252696e-06,0.8941799484650867,-3.408671903459837e-05,-0.2727281955495712
905,0.8952,0.00756849,739.005,0.00915703,0.0160451,0.00361,-0.0153914,-0.319179,0.639314,-0.318719,1.97338e-05,5.19249e-06,-3.41222e-05,0.63589,-0.27325454977277264,1.973399471277837e-05,5.192503480966337e-06,0.8951803395578839,-3.412161784432932e-05,-0.2729201699642083
906,0.8962,0.00755686,739.005,0.00914343,0.0160904,0.00360522,-0.015418,-0.319443,0.639841,-0.318982,1.97742e-05,5.20013e-06,-3.41571e-05,0.636418,-0.2734463852482356,1.977439551081872e-05,5.200143520678324e-06,0.8961793628163379,-3.415651665295005e-05,-0.27311136681601966
907,0.8972,0.00754547,739.005,0.00913003,0.0161357,0.00360054,-0.0154446,-0.319706,0.640369,-0.319246,1.98147e-05,5.20776e-06,-3.4192e-05,0.636945,-0.27363744372362464,1.981489631242006e-05,5.207773560389484e-06,0.8971808098786638,-3.419141546023852e-05,-0.2733032400867941
908,0.8982,0.00753404,739.005,0.00911642,0.0161812,0.00359579,-0.0154714,-0.31997,0.640895,-0.319509,1.98554e-05,5.21537e-06,-3.4227e-05,0.637472,-0.27382917812842655,1.9855597119811108e-05,5.215383600098988e-06,0.8981789894828816,-3.422641426287232e-05,-0.2734943362044103
909,0.8992,0.00752317,739.005,0.00910322,0.0162267,0.0035911,-0.0154982,-0.320234,0.641422,-0.319772,1.98961e-05,5.22297e-06,-3.42621e-05,0.637999,-0.27402086192202657,1.9896297928756468e-05,5.222983639807666e-06,0.8991795934463254,-3.426151306096248e-05,-0.273685382070356
910,0.9002,0.00751169,739.005,0.00908964,0.0162724,0.00358636,-0.0155252,-0.320497,0.641949,-0.320035,1.99369e-05,5.23055e-06,-3.42972e-05,0.638525,-0.27421176932991653,1.9937098741262815e-05,5.2305636792926435e-06,0.9001807248670306,-3.429661185772037e-05,-0.27387637769784556
911,0.9012,0.00750092,739.005,0.00907692,0.0163182,0.00358171,-0.0155523,-0.32076,0.642475,-0.320298,1.99779e-05,5.23813e-06,-3.43324e-05,0.639052,-0.2744026265357601,1.997809955955887e-05,5.238143718999666e-06,0.9011804828416072,-3.4331810649934624e-05,-0.2740673231000901
912,0.9022,0.00748937,739.005,0.00906324,0.0163642,0.00357698,-0.0155795,-0.321023,0.643001,-0.320561,2.0019e-05,5.24568e-06,-3.43676e-05,0.639578,-0.27459343355275867,2.0019200381415914e-05,5.245693758704206e-06,0.9021807668272073,-3.436700944081661e-05,-0.27425821829029684
913,0.9032,0.00747865,739.005,0.00905053,0.0164101,0.00357236,-0.0156068,-0.321286,0.643526,-0.320823,2.00601e-05,5.25323e-06,-3.44029e-05,0.640103,-0.27478419039411006,2.0060301205049313e-05,5.253243798186702e-06,0.9031796739199598,-3.440230822704393e-05,-0.2744483377303706
914,0.9042,0.00746706,739.005,0.00903663,0.0164563,0.00356763,-0.0156343,-0.321549,0.644051,-0.321086,2.01014e-05,5.26076e-06,-3.44383e-05,0.640629,-0.2749748970730088,2.010160203447242e-05,5.260773837889587e-06,0.904179105576622,-3.443770700850557e-05,-0.27463913272690565
915,0.9052,0.007456,739.005,0.00902356,0.0165025,0.00356303,-0.0156617,-0.321812,0.644576,-0.321348,2.01428e-05,5.26827e-06,-3.44737e-05,0.641154,-0.27516555360264605,2.0143002867456516e-05,5.2682838773687735e-06,0.9051790620726621,-3.4473105788856984e-05,-0.2748291523804697
916,0.9062,0.00744485,739.005,0.00901019,0.0165489,0.00355835,-0.0156895,-0.322074,0.645101,-0.32161,2.01843e-05,5.27578e-06,-3.45092e-05,0.641679,-0.2753554353520069,2.018450370444569e-05,5.2757939168479595e-06,0.9061795436836935,-3.450860456444271e-05,-0.2750191222554057
917,0.9072,0.00743388,739.005,0.00899732,0.0165954,0.00355372,-0.0157172,-0.322337,0.645626,-0.321872,2.02259e-05,5.28326e-06,-3.45447e-05,0.642203,-0.27554599181323625,2.022610454499585e-05,5.283273956546708e-06,0.9071805506854733,-3.4544103338696175e-05,-0.27520904236475396
918,0.9082,0.00742307,739.005,0.0089843,0.016642,0.00354908,-0.0157451,-0.322599,0.64615,-0.322134,2.02677e-05,5.29074e-06,-3.45803e-05,0.642727,-0.27573577390084203,2.0267905391113672e-05,5.290753996023412e-06,0.9081801751727754,-3.4579702108294974e-05,-0.2753989127215516
919,0.9092,0.0074119,739.005,0.00897093,0.0166887,0.00354446,-0.0157731,-0.322861,0.646674,-0.322396,2.03095e-05,5.2982e-06,-3.4616e-05,0.643251,-0.27592550627205403,2.0309706239229897e-05,5.298214035498461e-06,0.9091803236005693,-3.461540087323911e-05,-0.2755887333388318
920,0.9102,0.00740065,739.005,0.00895765,0.0167355,0.00353986,-0.0158012,-0.323123,0.647197,-0.322658,2.03515e-05,5.30565e-06,-3.46517e-05,0.643775,-0.2761151889398963,2.035170709313583e-05,5.3056640749726824e-06,0.9101790860634307,-3.465109963673996e-05,-0.2757785042296248
921,0.9112,0.0073896,739.004,0.00894471,0.0167825,0.00353525,-0.0158294,-0.323385,0.647721,-0.322919,2.03935e-05,5.31308e-06,-3.46875e-05,0.644299,-0.27630482191738914,2.039370794881812e-05,5.313094114445249e-06,0.9111802821950057,-3.468689839558614e-05,-0.2759675013748205
922,0.9122,0.007379,739.004,0.00893196,0.0168295,0.00353066,-0.0158578,-0.323647,0.648244,-0.323181,2.04357e-05,5.3205e-06,-3.47234e-05,0.644822,-0.2764944052175501,2.0435908810290115e-05,5.320514153916989e-06,0.9121800909097828,-3.472279714977766e-05,-0.276157173041387
923,0.9132,0.0073676,739.004,0.00891851,0.0168767,0.00352603,-0.0158863,-0.323908,0.648767,-0.323442,2.0478e-05,5.32791e-06,-3.47593e-05,0.645345,-0.27668321553696973,2.047820967576719e-05,5.327924193387901e-06,0.9131804226612799,-3.4758695902525893e-05,-0.27634607136691947
924,0.9142,0.00735671,739.004,0.00890584,0.016924,0.00352149,-0.0159148,-0.32417,0.649289,-0.323703,2.05204e-05,5.33531e-06,-3.47953e-05,0.645867,-0.2768726997109884,2.052061054480525e-05,5.335324232857985e-06,0.9141793635427964,-3.479469465061946e-05,-0.27653492039642225
925,0.9152,0.00734589,739.004,0.00889265,0.0169714,0.00351691,-0.0159435,-0.324431,0.649812,-0.323964,2.05629e-05,5.34269e-06,-3.48313e-05,0.64639,-0.2770614113084291,2.056311141784839e-05,5.3427042721043705e-06,0.9151807411873576,-3.483069339726974e-05,-0.27672372014276014
926,0.9162,0.00733509,739.004,0.00888012,0.0170189,0.00351234,-0.0159723,-0.324692,0.650334,-0.324225,2.06056e-05,5.35005e-06,-3.48674e-05,0.646912,-0.2772500736585698,2.060581229690328e-05,5.3500643115711455e-06,0.9161807265077193,-3.486679213926536e-05,-0.2769124706187942
927,0.9172,0.00732408,739.004,0.00886668,0.0170666,0.00350779,-0.0160013,-0.324953,0.650855,-0.324486,2.06483e-05,5.35741e-06,-3.49036e-05,0.647434,-0.27743868677426264,2.0648513177512484e-05,5.3574243510379205e-06,0.9171793167764066,-3.490299087649529e-05,-0.2771011718373825
928,0.9182,0.00731365,739.004,0.00885456,0.0171143,0.00350326,-0.0160302,-0.325214,0.651377,-0.324746,2.06912e-05,5.36475e-06,-3.49398e-05,0.647955,-0.27762725066835603,2.0691414064355484e-05,5.364764390280996e-06,0.9181803456255633,-3.493918961228193e-05,-0.2772891011008418
929,0.9192,0.00730239,739.004,0.00884131,0.0171623,0.00349868,-0.0160596,-0.325475,0.651898,-0.325006,2.07341e-05,5.37207e-06,-3.49761e-05,0.648477,-0.277815765353695,2.073431495297484e-05,5.372084429522417e-06,0.9191799779672474,-3.4975488343302885e-05,-0.2774769815090442
930,0.9202,0.00729202,739.004,0.00882848,0.0172102,0.0034942,-0.0160888,-0.325736,0.652419,-0.325267,2.07772e-05,5.37939e-06,-3.50125e-05,0.648998,-0.2780042308431214,2.077741584760595e-05,5.379404468985882e-06,0.9201801312530757,-3.5011887069558156e-05,-0.2776655354095159
931,0.9212,0.00728092,739.004,0.00881567,0.0172584,0.00348964,-0.0161182,-0.325996,0.652939,-0.325527,2.08204e-05,5.38669e-06,-3.50489e-05,0.649518,-0.27819192534176007,2.0820616746020093e-05,5.386704508225648e-06,0.921178884574686,-3.504828579448116e-05,-0.27785331795752044
932,0.9222,0.00727012,739.004,0.00880253,0.0173066,0.00348514,-0.0161477,-0.326256,0.65346,-0.325787,2.08637e-05,5.39397e-06,-3.50854e-05,0.650039,-0.2783795710461725,2.0863917648439312e-05,5.393984547463759e-06,0.9221800795621964,-3.5084784514527456e-05,-0.27804105168840887
933,0.9232,0.00725962,739.004,0.00879021,0.017355,0.00348065,-0.0161774,-0.326517,0.65398,-0.326047,2.09072e-05,5.40125e-06,-3.51219e-05,0.650559,-0.278567889401515,2.0907418557092328e-05,5.4012645867018705e-06,0.923179873127367,-3.5121283233241485e-05,-0.27822873661487213
934,0.9242,0.00724891,739.004,0.00877777,0.0174035,0.00347615,-0.0162072,-0.326777,0.6545,-0.326307,2.09507e-05,5.40851e-06,-3.51585e-05,0.651079,-0.2787554373679785,2.09509194675217e-05,5.408524625938327e-06,0.9241801867203869,-3.515788194718983e-05,-0.27841637274959774
935,0.9252,0.00723809,739.004,0.00876434,0.0174521,0.00347165,-0.0162371,-0.327037,0.655019,-0.326566,2.09944e-05,5.41575e-06,-3.51952e-05,0.651599,-0.27894293657830926,2.0994620383962825e-05,5.415764665173128e-06,0.9251790954316832,-3.5194580656261465e-05,-0.27860323870886927
936,0.9262,0.00722751,739.004,0.00875228,0.0175008,0.00346718,-0.016267,-0.327297,0.655539,-0.326826,2.10382e-05,5.42299e-06,-3.5232e-05,0.652118,-0.2791303870451822,2.1038421304409027e-05,5.42300470440793e-06,0.9261804488906431,-3.523137936034537e-05,-0.27879077748570746
937,0.9272,0.00721683,739.004,0.00873955,0.0175497,0.0034627,-0.0162973,-0.327556,0.656058,-0.327085,2.10821e-05,5.43021e-06,-3.52688e-05,0.652637,-0.2793170680986975,2.108232222908235e-05,5.430224743641077e-06,0.9271803960074487,-3.526817806320803e-05,-0.278977546486709
938,0.9282,0.00720646,739.004,0.00872677,0.0175986,0.00345827,-0.0163275,-0.327816,0.656576,-0.327344,2.11261e-05,5.43742e-06,-3.53057e-05,0.653156,-0.27950442130401976,2.1126323157538707e-05,5.437434782873396e-06,0.9281789340516065,-3.5305076761082965e-05,-0.2791642671208031
939,0.9292,0.00719544,739.004,0.00871416,0.0176477,0.00345377,-0.0163579,-0.328075,0.657095,-0.327603,2.11702e-05,5.44461e-06,-3.53427e-05,0.653674,-0.2796910054952062,2.1170424090222184e-05,5.444624821882016e-06,0.9291799186514138,-3.534207545408119e-05,-0.27935093940051503
940,0.9302,0.00718497,739.004,0.00870181,0.017697,0.00344934,-0.0163884,-0.328335,0.657613,-0.327862,2.12145e-05,5.4518e-06,-3.53797e-05,0.654193,-0.2798782614894433,2.121472502913946e-05,5.4518148611126804e-06,0.9301794927166074,-3.537907414574715e-05,-0.2795375633383671
941,0.9312,0.00717361,739.004,0.00868829,0.0177463,0.0034449,-0.0164191,-0.328594,0.658131,-0.328121,2.12588e-05,5.45897e-06,-3.54168e-05,0.654711,-0.2800647488685595,2.125902596983309e-05,5.4589849001196455e-06,0.9311795846952948,-3.54161728325364e-05,-0.2797241389468782
942,0.9322,0.00716413,739.004,0.00867693,0.0177957,0.00344053,-0.0164497,-0.328853,0.658649,-0.32838,2.13033e-05,5.46612e-06,-3.54539e-05,0.655229,-0.28025118795369885,2.1303526916982563e-05,5.4661349393470005e-06,0.9321801948558246,-3.5453271517882357e-05,-0.279910666238564
943,0.9332,0.00715289,739.004,0.00866327,0.0178454,0.003436,-0.0164808,-0.329112,0.659166,-0.328638,2.13479e-05,5.47326e-06,-3.54912e-05,0.655746,-0.28043757875736774,2.1348127868137112e-05,5.473274978351483e-06,0.9331793902863277,-3.549057019480717e-05,-0.28009642532272216
944,0.9342,0.00714313,739.004,0.00865194,0.017895,0.00343169,-0.0165116,-0.32937,0.659683,-0.328897,2.13926e-05,5.4804e-06,-3.55285e-05,0.656263,-0.2806232019156313,2.139282882329674e-05,5.480415017355966e-06,0.9341791024344281,-3.552786887028869e-05,-0.28028285620472215
945,0.9352,0.00713214,739.004,0.00863892,0.017945,0.0034272,-0.0165429,-0.329629,0.6602,-0.329155,2.14375e-05,5.48751e-06,-3.55658e-05,0.65678,-0.2808094963801606,2.1437729784912207e-05,5.487525056357967e-06,0.9351793315673385,-3.556516754443795e-05,-0.28046851927625527
946,0.9362,0.00712225,739.004,0.00862703,0.0179948,0.00342287,-0.0165741,-0.329887,0.660717,-0.329413,2.14824e-05,5.49462e-06,-3.56033e-05,0.657297,-0.28099502359605455,2.1482630748304032e-05,5.494635095359968e-06,0.9361800779524085,-3.5602666210055034e-05,-0.28065413445289467
947,0.9372,0.00711104,739.004,0.00861392,0.018045,0.00341843,-0.0166055,-0.330146,0.661233,-0.329671,2.15275e-05,5.50171e-06,-3.56408e-05,0.657813,-0.2811812217712386,2.1527731718373744e-05,5.5017251343603135e-06,0.9371794046767539,-3.564016487422883e-05,-0.28083970174699546
948,0.9382,0.00710156,739.004,0.00860216,0.0180952,0.0034141,-0.016637,-0.330404,0.661749,-0.329929,2.15727e-05,5.50879e-06,-3.56784e-05,0.65833,-0.2813666530943524,2.1572932692448532e-05,5.508805173359832e-06,0.9381792471867503,-3.56777635334149e-05,-0.28102522117091
949,0.9392,0.00709003,739.004,0.00858876,0.0181456,0.00340964,-0.0166687,-0.330662,0.662265,-0.330187,2.1618e-05,5.51586e-06,-3.5716e-05,0.658846,-0.2815520365823557,2.1618233670750442e-05,5.515875212358523e-06,0.9391796057486115,-3.5715362191268696e-05,-0.28121069273698707
950,0.9402,0.00708065,739.004,0.0085775,0.0181959,0.00340543,-0.0167004,-0.33092,0.662781,-0.330444,2.16635e-05,5.52291e-06,-3.57537e-05,0.659361,-0.28173737224758866,2.166373465528615e-05,5.522925251355559e-06,0.9401804806286893,-3.5753060844134765e-05,-0.28139539785332957
951,0.9412,0.00706937,739.004,0.00856385,0.0182467,0.0034009,-0.0167324,-0.331178,0.663296,-0.330702,2.1709e-05,5.52995e-06,-3.57915e-05,0.659877,-0.28192266010238765,2.17092356420423e-05,5.529965290129724e-06,0.9411799309125715,-3.579085949190208e-05,-0.2815807739261418
952,0.9422,0.00705972,739.004,0.00855256,0.0182973,0.00339671,-0.0167643,-0.331436,0.663811,-0.330959,2.17547e-05,5.53698e-06,-3.58294e-05,0.660392,-0.2821079001590865,2.1754936635254296e-05,5.536995329125105e-06,0.942179896045912,-3.582875813468167e-05,-0.2817653839438393
953,0.9432,0.00704873,739.004,0.00853958,0.0183483,0.00339222,-0.0167966,-0.331693,0.664326,-0.331216,2.18005e-05,5.544e-06,-3.58673e-05,0.660907,-0.2822923747227488,2.1800737632693412e-05,5.5440153678976145e-06,0.9431803762939266,-3.586665677612899e-05,-0.28194994652285854
954,0.9442,0.00703939,739.004,0.0085285,0.0183991,0.00338803,-0.0168288,-0.331951,0.66484,-0.331473,2.18464e-05,5.551e-06,-3.59053e-05,0.661421,-0.28247751940537924,2.184663863435965e-05,5.551015406890514e-06,0.9441794277415683,-3.590465541247756e-05,-0.28213446167538947
955,0.9452,0.00702844,739.004,0.00851535,0.0184504,0.00338355,-0.0168614,-0.332208,0.665354,-0.33173,2.18925e-05,5.55799e-06,-3.59434e-05,0.661935,-0.28266189898910066,2.189273964248173e-05,5.558005445660541e-06,0.9451789928336494,-3.5942754043727376e-05,-0.28231892941361925
956,0.9462,0.00701794,739.004,0.00850339,0.0185015,0.00337935,-0.0168938,-0.332465,0.665868,-0.331987,2.19387e-05,5.56497e-06,-3.59816e-05,0.66245,-0.2828462311933577,2.1938940655052974e-05,5.564985484429741e-06,0.9461790718342511,-3.598095266998946e-05,-0.2825033497497317
957,0.9472,0.00700732,739.004,0.00849073,0.018553,0.00337499,-0.0169266,-0.332722,0.666382,-0.332244,2.19849e-05,5.57194e-06,-3.60198e-05,0.662963,-0.28303051603032514,2.198514166962262e-05,5.571955523198113e-06,0.9471796650075901,-3.601915129480826e-05,-0.2826877226959076
958,0.9482,0.00699744,739.004,0.00847908,0.0186044,0.00337075,-0.0169593,-0.332979,0.666896,-0.3325,2.20314e-05,5.57889e-06,-3.60581e-05,0.663477,-0.28321475351217484,2.2031642693098874e-05,5.578905561964831e-06,0.9481807726180191,-3.6057449914528306e-05,-0.28287133113601437
959,0.9492,0.0069872,739.004,0.00846614,0.0186561,0.00336639,-0.0169924,-0.333236,0.667409,-0.332757,2.20779e-05,5.58583e-06,-3.60965e-05,0.66399,-0.28339894365107554,2.207814371857353e-05,5.585845600730721e-06,0.9491804457486066,-3.60958485291496e-05,-0.28305560952312536
960,0.9502,0.00697755,739.004,0.00845543,0.0187078,0.00336215,-0.0170253,-0.333492,0.667922,-0.333013,2.21245e-05,5.59276e-06,-3.61349e-05,0.664503,-0.2835823700419211,2.212474474849735e-05,5.592775639495784e-06,0.9501806318430739,-3.61342471423276e-05,-0.28323912379625826
961,0.9512,0.00696675,739.004,0.00844206,0.0187598,0.0033578,-0.0170588,-0.333749,0.668434,-0.333269,2.21713e-05,5.59968e-06,-3.61734e-05,0.665016,-0.283766465715513,2.2171545785099056e-05,5.599695678260019e-06,0.9511793799842838,-3.6172745750406854e-05,-0.2834225910957501
962,0.9522,0.00695738,739.004,0.00843107,0.0188117,0.00335366,-0.0170919,-0.334005,0.668947,-0.333525,2.22182e-05,5.60658e-06,-3.6212e-05,0.665528,-0.283949798032752,2.2218446825927884e-05,5.606595716800555e-06,0.9521805917950878,-3.6211344353387354e-05,-0.2836060114336246
963,0.9532,0.00694652,739.004,0.00841818,0.018864,0.00334925,-0.0171256,-0.334261,0.669459,-0.333781,2.22653e-05,5.61347e-06,-3.62507e-05,0.66604,-0.28413308342292465,2.2265547873656644e-05,5.6134857555623086e-06,0.9531803641779766,-3.62500429512691e-05,-0.2837893848219024
964,0.9542,0.00693692,739.004,0.00840678,0.0189162,0.00334512,-0.0171591,-0.334517,0.669971,-0.334037,2.23124e-05,5.62035e-06,-3.62895e-05,0.666552,-0.2843163218980429,2.2312648923383804e-05,5.62036579410119e-06,0.9541806485753899,-3.62888415440521e-05,-0.28397271127260115
965,0.9552,0.00692623,739.004,0.00839396,0.0189687,0.00334079,-0.017193,-0.334773,0.670482,-0.334292,2.23597e-05,5.62722e-06,-3.63283e-05,0.667064,-0.28449951347011526,2.2359949980010896e-05,5.627235832861288e-06,0.9551794900690787,-3.632764013528078e-05,-0.284155274953368
966,0.9562,0.00691646,739.004,0.00838267,0.0190212,0.00333662,-0.0172268,-0.335029,0.670994,-0.334548,2.24071e-05,5.63408e-06,-3.63672e-05,0.667576,-0.28468265815114757,2.240735104086511e-05,5.6340958713985145e-06,0.9561807982810224,-3.636653872141071e-05,-0.2843385077481816
967,0.9572,0.00690669,739.004,0.00837067,0.019074,0.00333234,-0.0172609,-0.335285,0.671505,-0.334803,2.24546e-05,5.64092e-06,-3.64062e-05,0.668087,-0.28486575595314223,2.2454852106390533e-05,5.640935909934086e-06,0.9571806621123959,-3.640553730233087e-05,-0.28452097816273914
968,0.9582,0.00689669,739.004,0.00835907,0.0191268,0.00332812,-0.017295,-0.335541,0.672015,-0.335058,2.25023e-05,5.64775e-06,-3.64452e-05,0.668598,-0.28504880688809886,2.2502553178593843e-05,5.64776594846883e-06,0.9581790788246942,-3.644453588180774e-05,-0.28470340205327316
969,0.9592,0.0068868,739.004,0.00834649,0.0191798,0.00332391,-0.0173294,-0.335796,0.672526,-0.335313,2.25501e-05,5.65457e-06,-3.64844e-05,0.669108,-0.2852310961994674,2.2550354255468363e-05,5.654585987002747e-06,0.9591799640383663,-3.648373445241937e-05,-0.2848857794316456
970,0.9602,0.00687712,739.004,0.008336,0.0192328,0.0033197,-0.0173637,-0.336051,0.673036,-0.335568,2.2598e-05,5.66137e-06,-3.65236e-05,0.669619,-0.2854133390329877,2.259825533679205e-05,5.661386025535009e-06,0.9601794006547002,-3.652293302147669e-05,-0.28506811030971546
971,0.9612,0.00686558,739.004,0.00832213,0.0192862,0.00331546,-0.0173985,-0.336306,0.673546,-0.335823,2.2646e-05,5.66817e-06,-3.65629e-05,0.670129,-0.2855955354005102,2.2646256422564903e-05,5.668186064067271e-06,0.9611793471137073,-3.6562231585324234e-05,-0.2852503946993391
972,0.9622,0.00685729,739.004,0.00831209,0.0193394,0.00331144,-0.017433,-0.336562,0.674056,-0.336078,2.26942e-05,5.67495e-06,-3.66022e-05,0.670639,-0.2857783995358396,2.2694457515237687e-05,5.674966102597878e-06,0.9621798036754736,-3.660153014761747e-05,-0.2854326326123694
973,0.9632,0.00684657,739.004,0.00829886,0.0193931,0.003307,-0.0174682,-0.336816,0.674566,-0.336333,2.27425e-05,5.68172e-06,-3.66417e-05,0.671148,-0.28595978878494777,2.274275861258168e-05,5.681736140905613e-06,0.963180770600218,-3.6641028701156486e-05,-0.2856148240606563
974,0.9642,0.00683765,739.004,0.00828899,0.0194465,0.00330305,-0.0175028,-0.337071,0.675075,-0.336587,2.27909e-05,5.68848e-06,-3.66812e-05,0.671658,-0.28614184582554836,2.2791159714596887e-05,5.688496179434566e-06,0.9641802839670257,-3.668052725303017e-05,-0.2857962548526589
975,0.9652,0.00682655,739.004,0.00827572,0.0195006,0.00329869,-0.0175383,-0.337326,0.675584,-0.336841,2.28394e-05,5.69523e-06,-3.67208e-05,0.672167,-0.28632385644752223,2.283966082106126e-05,5.695246217962691e-06,0.9651803062156366,-3.672012579969408e-05,-0.28597763956709243
976,0.9662,0.00681705,739.004,0.00826395,0.0195543,0.00329473,-0.0175734,-0.33758,0.676093,-0.337096,2.28881e-05,5.70196e-06,-3.67605e-05,0.672675,-0.28650510716816857,2.2888361934647605e-05,5.701976256267116e-06,0.9661808376051377,-3.675982434114822e-05,-0.28615969205632386
977,0.9672,0.00680737,739.004,0.00825269,0.0196085,0.00329042,-0.0176089,-0.337835,0.676601,-0.33735,2.29369e-05,5.70868e-06,-3.68003e-05,0.673184,-0.28668702517030964,2.2937163052683118e-05,5.708696294570714e-06,0.9671799112138522,-3.679962287728156e-05,-0.28634098446943046
978,0.9682,0.0067978,739.004,0.00824069,0.0196627,0.00328634,-0.0176445,-0.338089,0.677109,-0.337604,2.29858e-05,5.7154e-06,-3.68401e-05,0.673692,-0.2868681836578145,2.2986064175611887e-05,5.715416332874312e-06,0.9681794924808942,-3.6839421411860584e-05,-0.28652223084011175
979,0.9692,0.00678745,739.004,0.00822906,0.019717,0.00328215,-0.0176802,-0.338343,0.677617,-0.337857,2.30349e-05,5.72209e-06,-3.68801e-05,0.6742,-0.2870492961369069,2.3035165305440586e-05,5.722106371175428e-06,0.9691795816642199,-3.6879419937463354e-05,-0.2867027178831355
980,0.9702,0.0067777,739.004,0.00821713,0.0197715,0.00327808,-0.0177161,-0.338597,0.678125,-0.338111,2.30841e-05,5.72878e-06,-3.69201e-05,0.674708,-0.2872303626192714,2.3084366439940496e-05,5.728796409476544e-06,0.970180179021916,-3.691941846151181e-05,-0.2868838723851974
981,0.9712,0.00676824,739.004,0.00820577,0.0198261,0.00327396,-0.017752,-0.338851,0.678632,-0.338365,2.31334e-05,5.73546e-06,-3.69602e-05,0.675216,-0.28741138311658976,2.3133667579111616e-05,5.735476447776833e-06,0.9711793136319016,-3.695951698023947e-05,-0.2870649808798591
982,0.9722,0.00675804,739.004,0.00819403,0.0198809,0.00326976,-0.0177882,-0.339105,0.679139,-0.338618,2.31828e-05,5.74212e-06,-3.70003e-05,0.675723,-0.2875923576405406,2.3183068723175992e-05,5.7421364860754665e-06,0.9721789549315694,-3.6999615497301797e-05,-0.28724533062449176
983,0.9732,0.00674922,739.004,0.00818337,0.0199358,0.00326575,-0.0178245,-0.339359,0.679646,-0.338871,2.32324e-05,5.74877e-06,-3.70406e-05,0.67623,-0.28777328620279974,2.3232669874362344e-05,5.748786524151228e-06,0.973179103177876,-3.7039914005498886e-05,-0.2874256347464106
984,0.9742,0.00673813,739.004,0.00817045,0.019991,0.00326152,-0.017861,-0.339612,0.680153,-0.339124,2.32821e-05,5.75541e-06,-3.70809e-05,0.676737,-0.28795345676885276,2.3282371030219906e-05,5.755426562448207e-06,0.9741797586279091,-3.708021251191962e-05,-0.2876058932571566
985,0.9752,0.00672997,739.004,0.00815995,0.020046,0.0032576,-0.0178974,-0.339866,0.680659,-0.339377,2.3332e-05,5.76204e-06,-3.71214e-05,0.677243,-0.2881342936235807,2.3332272193199444e-05,5.762056600522314e-06,0.9751789463589517,-3.7120711009364094e-05,-0.28778610616826805
986,0.9762,0.00671874,739.004,0.00814758,0.0201015,0.0032533,-0.0179343,-0.340119,0.681166,-0.33963,2.3382e-05,5.76865e-06,-3.71619e-05,0.67775,-0.2883143728663091,2.3382273361072237e-05,5.768666638594766e-06,0.9761806159865498,-3.7161209505143233e-05,-0.2879662734912801
987,0.9772,0.00670984,739.004,0.00813619,0.0201568,0.00324945,-0.0179711,-0.340372,0.681672,-0.339883,2.34321e-05,5.77526e-06,-3.72025e-05,0.678255,-0.2884944065547521,2.3432374533838285e-05,5.775276676889263e-06,0.9771808164076048,-3.720180799560158e-05,-0.2881463952377251
988,0.9782,0.00669939,739.004,0.00812474,0.0202126,0.00324521,-0.0180082,-0.340625,0.682177,-0.340136,2.34823e-05,5.78185e-06,-3.72431e-05,0.678761,-0.2886743947004332,2.3482575711275544e-05,5.78186671496006e-06,0.9781795448776045,-3.7242406484394586e-05,-0.2883264714191325
989,0.9792,0.00669048,739.004,0.00811364,0.0202683,0.00324125,-0.0180454,-0.340878,0.682683,-0.340388,2.35327e-05,5.78844e-06,-3.72839e-05,0.679267,-0.28885433731487353,2.3532976896056823e-05,5.788456753030857e-06,0.9791807570126205,-3.728320496398929e-05,-0.28850579055317505
990,0.9802,0.00668065,739.004,0.0081015,0.0203243,0.00323711,-0.0180827,-0.34113,0.683188,-0.340641,2.35832e-05,5.79501e-06,-3.73247e-05,0.679772,-0.28903352344346966,2.3583478085953402e-05,5.7950267911e-06,0.9801804957076858,-3.7324003442029685e-05,-0.28868577581906885
991,0.9812,0.00667127,739.004,0.008091,0.0203803,0.00323308,-0.0181201,-0.341383,0.683693,-0.340893,2.36338e-05,5.80157e-06,-3.73657e-05,0.680277,-0.2892133752098307,2.3634079280521192e-05,5.801586829168315e-06,0.9811807393982928,-3.7365001910871776e-05,-0.2888650044198102
992,0.9822,0.00666129,739.004,0.00807877,0.0204366,0.00322902,-0.0181579,-0.341636,0.684197,-0.341145,2.36846e-05,5.80811e-06,-3.74067e-05,0.680782,-0.28939318147945037,2.3684880482433002e-05,5.8081268670129305e-06,0.9821795061590315,-3.7406000378159554e-05,-0.2890441878606347
993,0.9832,0.00665179,739.004,0.00806792,0.0204928,0.00322509,-0.0181954,-0.341888,0.684702,-0.341397,2.37355e-05,5.81465e-06,-3.74478e-05,0.681286,-0.2895722318364251,2.3735781689238067e-05,5.814666905079591e-06,0.9831807596048581,-3.744709883990449e-05,-0.289223326152921
994,0.9842,0.00664166,739.004,0.00805574,0.0205495,0.00322093,-0.0182336,-0.34214,0.685206,-0.341649,2.37865e-05,5.82117e-06,-3.7489e-05,0.68179,-0.28975123707839445,2.3786782900936387e-05,5.821186943144596e-06,0.9841805346298418,-3.748829729621761e-05,-0.2894024193080451
995,0.9852,0.00663346,739.004,0.00804556,0.020606,0.00321704,-0.0182714,-0.342392,0.68571,-0.341901,2.38377e-05,5.82769e-06,-3.75303e-05,0.682294,-0.2899301972167262,2.3837984120200773e-05,5.827706980987557e-06,0.9851808136684392,-3.752959574709891e-05,-0.2895814673373803
996,0.9862,0.00662376,739.004,0.00803327,0.0206629,0.00321288,-0.0183099,-0.342644,0.686213,-0.342152,2.3889e-05,5.83419e-06,-3.75716e-05,0.682798,-0.290109112262785,2.3889285344358413e-05,5.834207018828863e-06,0.9861796107941327,-3.7570894196314875e-05,-0.2897597600124119
997,0.9872,0.00661463,739.004,0.00802337,0.0207197,0.00320897,-0.018348,-0.342896,0.686716,-0.342404,2.39404e-05,5.84068e-06,-3.76131e-05,0.683301,-0.2902879822279326,2.3940686573631353e-05,5.840697056891386e-06,0.9871789104411541,-3.7612392636221514e-05,-0.2899387180032348
998,0.9882,0.00660454,739.004,0.00801066,0.020777,0.00320489,-0.0183868,-0.343148,0.68722,-0.342655,2.3992e-05,5.84716e-06,-3.76546e-05,0.683805,-0.290466807123528,2.3992287810248314e-05,5.8471770947310375e-06,0.988180701042042,-3.765389107446282e-05,-0.29011692101960185
999,0.9892,0.00659623,739.004,0.00800143,0.020834,0.00320104,-0.0184252,-0.343399,0.687722,-0.342907,2.40437e-05,5.85362e-06,-3.76962e-05,0.684308,-0.29064487760615954,2.4043989051980574e-05,5.853637132569034e-06,0.9891790183106346,-3.7695489507161284e-05,-0.29029578901719066
