,Time,S11,S22,S33,S12,S13,S23,LE11,LE22,LE33,LE12,LE13,LE23,SDV_EPBAR,E11,E12,E13,E22,E23,E33
0,1e-05,2.97724,2.97724,-3.9968e-15,0.0,0.0,-2.2373e-38,9.99995e-06,9.99995e-06,-8.57139e-06,0.0,0.0,0.0,0.0,9.999999999621423e-06,0.0,0.0,9.999999999621423e-06,0.0,-8.571353265707238e-06
1,2e-05,5.95444,5.95444,-3.10862e-15,0.0,0.0,-4.47459e-38,1.99998e-05,1.99998e-05,-1.71427e-05,0.0,0.0,0.0,0.0,1.9999999997244444e-05,0.0,0.0,1.9999999997244444e-05,0.0,-1.714255306473067e-05
2,3.5e-05,10.4202,10.4202,-1.73195e-14,0.0,0.0,-8.38973e-38,3.49994e-05,3.49994e-05,-2.99995e-05,0.0,0.0,0.0,0.0,3.5000012486241516e-05,0.0,0.0,3.5000012486241516e-05,0.0,-2.9999050019546836e-05
3,5.75e-05,17.1187,17.1187,-7.9492e-14,0.0,0.0,-1.88766e-37,5.74983e-05,5.74983e-05,-4.92843e-05,0.0,0.0,0.0,0.0,5.749995305892597e-05,0.0,0.0,5.749995305892597e-05,0.0,-4.928308554885685e-05
4,9.125e-05,27.1662,27.1662,-4.11671e-13,0.0,0.0,-4.24714e-37,9.12458e-05,9.12458e-05,-7.82107e-05,0.0,0.0,0.0,0.0,9.124996302456445e-05,0.0,0.0,9.124996302456445e-05,0.0,-7.820764162291827e-05
5,0.00014188,42.2368,42.2368,-2.06724e-12,0.0,0.0,-9.55574e-37,0.000141865,0.000141865,-0.000121599,0.0,0.0,0.0,0.0,0.00014187506331508892,0.0,0.0,0.00014187506331508892,0.0,-0.00012159160714120265
6,0.00021781,64.8412,64.8412,-1.04623e-11,0.0,0.0,-2.14993e-36,0.000217789,0.000217789,-0.000186676,0.0,0.0,0.0,0.0,0.0002178127177461242,0.0,0.0,0.0002178127177461242,0.0,-0.00018665857711963607
7,0.00033172,98.7446,98.7446,-5.30096e-11,0.0,0.0,-4.83696e-36,0.000331664,0.000331664,-0.000284283,0.0,0.0,0.0,0.0,0.0003317190065854625,0.0,0.0,0.0003317190065854625,0.0,-0.00028424259541681707
8,0.00050258,149.593,149.593,-2.68283e-10,0.0,0.0,-1.08819e-35,0.000502452,0.000502452,-0.000430673,0.0,0.0,0.0,0.0,0.0005025782501502096,0.0,0.0,0.0005025782501502096,0.0,-0.00043058027369557994
9,0.00075887,225.848,225.848,-1.35751e-09,0.0,0.0,-2.44799e-35,0.000758579,0.000758579,-0.000650211,0.0,0.0,0.0,0.0,0.0007588667938165372,0.0,0.0,0.0007588667938165372,0.0,-0.0006499996586357693
10,0.0011433,340.195,340.195,-6.86638e-09,0.0,0.0,-5.50653e-35,0.00114265,0.00114265,-0.000979412,0.0,0.0,0.0,0.0,0.0011433030732321825,0.0,0.0,0.0011433030732321825,0.0,-0.0009789325326119425
11,0.0014316,365.112,370.17,-0.293289,0.0031848,0.00622606,-0.0519994,0.0014306,0.0014306,-0.00145067,-9.32703e-12,-4.13882e-07,-1.29862e-07,0.000396836,0.0014316237963361012,-9.32698362987594e-12,-4.1388191429625465e-07,0.0014316237963361012,-1.2986199160458511e-07,-0.001449618286899934
12,0.00172,372.293,382.735,0.292257,0.00790903,0.0534022,0.0433808,0.00171847,0.00171847,-0.00198766,-7.40171e-13,-5.22859e-07,2.54715e-06,0.000916143,0.001719947415747436,-7.401856905175919e-13,-5.228588633165998e-07,0.001719947415747436,2.5471532438814393e-06,-0.001985685912017421
13,0.0020083,378.168,392.826,-0.224933,0.0107352,0.0234529,-0.0490558,0.00200626,0.00200626,-0.00253381,3.97473e-10,-1.59006e-06,2.2698e-06,0.00144491,0.00200827388616176,3.974729434474966e-10,-1.59005873590079e-06,0.00200827388616176,2.26980257589382e-06,-0.0025306026129836567
14,0.0022966,384.724,402.648,0.20874,0.012227,0.0546522,0.0137578,0.00229397,0.00229397,-0.00307714,2.98944e-10,-1.62353e-06,4.0236e-06,0.00197485,0.0022966031622606575,2.9894398068108785e-10,-1.623528682048736e-06,0.0022966031622606575,4.0236080947053665e-06,-0.0030724104571091537
15,0.0027291,392.469,414.968,-0.411076,0.0181646,0.0277221,-0.0919617,0.00272537,0.00272537,-0.00390313,3.82815e-11,-3.70071e-06,4.78594e-06,0.00278152,0.002729087196963631,3.828160011210002e-11,-3.700703152365037e-06,0.002729087196963631,4.785951452701553e-06,-0.003895522688761588
16,0.0031616,401.241,427.004,0.430549,0.0207221,0.0798056,0.0212073,0.00315659,0.00315659,-0.00472442,8.70501e-11,-4.08031e-06,8.49391e-06,0.00358948,0.003161577276429073,8.705014487020435e-11,-4.080301675535303e-06,0.003161577276429073,8.493946073384606e-06,-0.004713277482049527
17,0.0035941,407.936,436.138,-0.46419,0.0214658,0.0327811,-0.115239,0.00358762,0.00358762,-0.00555818,-2.22881e-11,-5.78514e-06,7.89828e-06,0.00440896,0.003594063211592946,-2.2288060286257405e-11,-5.785123266099923e-06,0.003594063211592946,7.898311191523177e-06,-0.005542761896301762
18,0.0040266,415.192,445.201,-0.393951,0.0210958,0.0402626,-0.108067,0.00401847,0.00401847,-0.00638871,7.09773e-11,-6.55997e-06,8.86436e-06,0.00522919,0.004026554876554345,7.097722409810103e-11,-6.559948483420008e-06,0.004026554876554345,8.8643992885995e-06,-0.006368345582798529
19,0.004459,422.511,453.896,0.111515,0.0201851,0.0735545,-0.0406275,0.00444913,0.00444913,-0.00721859,-1.12413e-11,-6.65887e-06,1.08031e-05,0.00605133,0.00445904207346115,-1.1241341191237098e-11,-6.658847829799086e-06,0.00445904207346115,1.0803158353667186e-05,-0.007192598557331786
20,0.0046212,425.233,456.161,-0.10095,0.017928,0.0563561,-0.0706397,0.00461058,0.00461058,-0.00753234,2.00013e-10,-6.7918e-06,1.03287e-05,0.00636183,0.0046212250776744845,2.0001289513515985e-10,-6.791776935743954e-06,0.0046212250776744845,1.0328753341282138e-05,-0.007504043019129547
21,0.0048645,429.476,460.29,0.173843,0.0156634,0.0833846,-0.027249,0.0048527,0.0048527,-0.00800004,5.50537e-11,-6.31842e-06,1.09762e-05,0.00682612,0.004864493417567228,5.505373934511226e-11,-6.318400038840544e-06,0.004864493417567228,1.097626023871534e-05,-0.007968124844215163
22,0.0052294,434.129,465.712,-0.42319,0.0144282,0.0358011,-0.121007,0.00521578,0.00521578,-0.00870814,1.66834e-10,-7.20084e-06,9.83076e-06,0.00752783,0.005229405860033287,1.6683410208884197e-10,-7.200814074015405e-06,0.005229405860033287,9.8308083220644e-06,-0.008670333968531563
23,0.0057768,441.756,475.756,0.536144,0.0164484,0.103155,0.0117413,0.00576016,0.00576016,-0.00976149,3.28474e-11,-6.99731e-06,1.35867e-05,0.00857666,0.005776781620685734,3.284750249576973e-11,-6.997285518894891e-06,0.005776781620685734,1.3586792299680184e-05,-0.009714001302253084
24,0.0061873,446.137,480.604,-0.46847,0.0150592,0.0372548,-0.130873,0.00616824,0.00616824,-0.010562,-8.73569e-11,-8.15958e-06,1.18218e-05,0.00937159,0.006187302766767155,-8.735689949190828e-11,-8.159546710739818e-06,0.006187302766767155,1.1821869877692848e-05,-0.010506417936034684
25,0.0065978,451.35,486.223,-0.375882,0.0138241,0.0445616,-0.117441,0.00657616,0.00657616,-0.011357,1.49327e-12,-8.32011e-06,1.20216e-05,0.0101639,0.0065978304168388124,1.4932499681208355e-12,-8.320075387979742e-06,0.0065978304168388124,1.202167225966555e-05,-0.011292752724281985
26,0.0072136,458.277,495.532,0.236724,0.0160813,0.0898364,-0.0442285,0.00718772,0.00718772,-0.0125482,1.3798e-10,-8.56472e-06,1.47763e-05,0.0113531,0.007213613661016582,1.3798007181264893e-10,-8.564683322886957e-06,0.007213613661016582,1.4776409170025318e-05,-0.012469799608930687
27,0.0074445,461.068,497.389,-0.173548,0.0139569,0.0567323,-0.0946262,0.00741696,0.00741696,-0.0129986,-5.6369e-11,-8.88122e-06,1.39595e-05,0.0118021,0.007444533776864715,-5.6369020562385685e-11,-8.881180562081425e-06,0.007444533776864715,1.3959597434221038e-05,-0.012914483060955995
28,0.0077909,465.055,501.088,-0.285217,0.0122406,0.0511572,-0.109958,0.00776073,0.00776072,-0.0136716,1.89203e-10,-8.96248e-06,1.35981e-05,0.0124741,0.007790922519858912,1.8920309763359455e-10,-8.962439837056912e-06,0.007790912441949738,1.3598192454500335e-05,-0.013578568124167023
29,0.0083105,470.807,508.04,0.418781,0.0124181,0.104971,-0.013853,0.00827615,0.00827615,-0.014677,1.63134e-10,-8.35156e-06,1.57926e-05,0.0134802,0.008310492003893666,1.6313395079237125e-10,-8.351525125793735e-06,0.008310492003893666,1.5792724703755923e-05,-0.01456981784704059
30,0.0085053,472.667,509.068,-0.223733,0.0109585,0.0502384,-0.105394,0.00846936,0.00846936,-0.0150591,5.22832e-11,-8.94784e-06,1.4436e-05,0.0138612,0.008505326495433563,5.228328880946265e-11,-8.947799968184178e-06,0.008505326495433563,1.4436104199599953e-05,-0.014946278792197343
31,0.0087976,475.823,511.802,-0.310962,0.00961796,0.0462973,-0.116478,0.00875911,0.00875911,-0.0156275,4.48104e-12,-8.95069e-06,1.40301e-05,0.0144297,0.008797583252438734,4.481082171992057e-12,-8.950649942662814e-06,0.008797583252438734,1.403019842238784e-05,-0.015506024232607607
32,0.009236,480.537,517.169,0.355049,0.00929054,0.102433,-0.019768,0.00919358,0.00919359,-0.0164759,-1.53421e-10,-8.0836e-06,1.56939e-05,0.0152801,0.00923597076464966,-1.534210536391356e-10,-8.083567327843433e-06,0.009235980857009274,1.5694023149936953e-05,-0.016340914711029386
33,0.0094004,481.972,517.939,-0.168645,0.00833881,0.0545569,-0.0972167,0.00935646,0.00935646,-0.0167985,1.66247e-10,-8.58874e-06,1.45518e-05,0.0156021,0.009400368507756385,1.662470161534202e-10,-8.588703116929608e-06,0.009400368507756385,1.4551905877846494e-05,-0.016658191952372947
34,0.009647,484.54,520.099,-0.180573,0.00739289,0.0559828,-0.0975942,0.00960073,0.00960073,-0.017278,1.5414e-11,-8.46583e-06,1.43346e-05,0.0160824,0.009646964852590312,1.5413892384685823e-11,-8.465794164913554e-06,0.009646964852590312,1.433470274081472e-05,-0.017129591322300852
35,0.010017,488.149,524.069,0.149216,0.00698225,0.0865548,-0.0478476,0.00996702,0.00996702,-0.0179954,-6.17133e-11,-7.90538e-06,1.50397e-05,0.0168017,0.010016856178957534,-6.17133011360238e-11,-7.905348752612618e-06,0.010016856178957534,1.5039813096917598e-05,-0.01783444969055914
36,0.010572,491.543,529.46,-0.467242,0.00841416,0.0440596,-0.136257,0.0105162,0.0105162,-0.0190783,1.54248e-10,-8.86997e-06,1.40117e-05,0.0178858,0.010571689573791065,1.5424794774787642e-10,-8.869930661958847e-06,0.010571689573791065,1.4011798164403899e-05,-0.0188974610935847
37,0.01078,494.471,531.67,0.272629,0.00747381,0.104723,-0.0253965,0.0107221,0.0107221,-0.0194788,2.20218e-11,-7.88162e-06,1.53788e-05,0.0182888,0.010779787707641875,2.202171778264983e-11,-7.881588940161777e-06,0.010779787707641875,1.5378918254427276e-05,-0.01929031398637382
38,0.011092,497.384,534.346,0.368804,0.00673687,0.107373,-0.0147711,0.0110308,0.0110308,-0.0200853,-1.76254e-10,-7.55611e-06,1.56199e-05,0.0188974,0.011091863594542062,-1.7625401138587904e-10,-7.556081452642083e-06,0.011091863594542062,1.562002199118062e-05,-0.019884934074172245
39,0.01156,500.148,538.077,-0.318767,0.00704159,0.0501935,-0.115722,0.0114937,0.0114937,-0.0210001,9.18185e-10,-8.38407e-06,1.42435e-05,0.0198138,0.011560006361484021,9.181850835204841e-10,-8.384034853814448e-06,0.011560006361484021,1.4243601439201115e-05,-0.020781133352431924
40,0.011736,502.432,539.698,0.189157,0.00633528,0.0956786,-0.0389375,0.0116672,0.0116672,-0.0213387,-2.61291e-10,-7.63352e-06,1.51458e-05,0.0201546,0.011735527248584399,-2.612909888455306e-10,-7.63349086474463e-06,0.011735527248584399,1.5145914698200258e-05,-0.021112640733311983
41,0.011999,504.748,541.646,0.182006,0.00568642,0.0908285,-0.0420311,0.0119275,0.0119275,-0.021851,2.98557e-10,-7.471e-06,1.50633e-05,0.0206689,0.011998916284923222,2.985569569347035e-10,-7.470972092193939e-06,0.011998916284923222,1.5063413452143237e-05,-0.021613996294272297
42,0.012394,507.389,544.773,-0.0664093,0.00561201,0.0675311,-0.0793357,0.0123177,0.0123177,-0.022621,4.18036e-10,-7.66177e-06,1.4522e-05,0.0214414,0.012393875313552849,4.180360502203939e-10,-7.661740648701176e-06,0.012393875313552849,1.4522105444836342e-05,-0.022367063549024735
43,0.012986,511.411,551.01,0.543276,0.00736705,0.112035,0.00259772,0.0129028,0.0129028,-0.0237704,2.45497e-10,-7.03054e-06,1.66007e-05,0.0225969,0.01298640029627851,2.454969560972131e-10,-7.030515285832983e-06,0.01298640029627851,1.6600837792424272e-05,-0.02349010930814388
44,0.013209,512.686,551.513,-0.257261,0.00654089,0.0438931,-0.111756,0.0131221,0.0131221,-0.0242072,-1.55801e-10,-7.80243e-06,1.49242e-05,0.0230342,0.013208572574163524,-1.5580103873702456e-10,-7.80239956110762e-06,0.013208572574163524,1.4924311366515397e-05,-0.023916555685728924
45,0.013542,515.765,554.341,0.239908,0.00595528,0.0937252,-0.0359595,0.013451,0.013451,-0.0248527,1.43797e-09,-6.93072e-06,1.58944e-05,0.0236838,0.013541871681716833,1.4379699653233047e-09,-6.93069598256546e-06,0.013541871681716833,1.5894526316673208e-05,-0.024546414240315007
46,0.014042,519.102,558.725,0.516955,0.00644644,0.110337,-0.000855108,0.0139441,0.0139441,-0.0258237,1.37499e-09,-6.47172e-06,1.68982e-05,0.0246602,0.014041772419040699,1.3749898997161836e-09,-6.471699058430147e-06,0.014041772419040699,1.689834277529556e-05,-0.025493119972072154
47,0.014792,521.301,564.436,-0.706856,0.00994176,0.0350804,-0.164721,0.0146833,0.0146833,-0.0272896,-4.195e-10,-8.47156e-06,1.53056e-05,0.0261315,0.014791629210138213,-4.1949999030066465e-10,-8.47152411642682e-06,0.014791629210138213,1.5305717131264274e-05,-0.02692060307814037
48,0.015042,524.112,566.041,-0.206658,0.00869308,0.0515351,-0.105236,0.0149296,0.0149296,-0.0277729,7.1391e-10,-8.16366e-06,1.58042e-05,0.0266186,0.01504160317144243,7.139100421937883e-10,-8.163626677437641e-06,0.01504160317144243,1.580432488701433e-05,-0.027390778723576092
49,0.015417,526.855,568.201,-0.263071,0.00772554,0.0466637,-0.115155,0.015299,0.015299,-0.0285024,1.43686e-09,-8.17931e-06,1.53892e-05,0.0273524,0.0154166288026234,1.4368599643432844e-09,-8.179276549502568e-06,0.0154166288026234,1.5389318414271713e-05,-0.028100038416570272
50,0.015979,530.711,573.016,0.438223,0.00808994,0.105965,-0.014392,0.0158528,0.0158528,-0.0295921,1.38177e-09,-7.26445e-06,1.72882e-05,0.0284501,0.015979122271719826,1.3817700317275694e-09,-7.26442361398405e-06,0.015979122271719826,1.728834944181301e-05,-0.029158540974846048
51,0.01619,531.926,573.235,-0.214245,0.00718095,0.0481073,-0.107443,0.0160604,0.0160604,-0.0300058,1.36285e-09,-7.89727e-06,1.58995e-05,0.0288653,0.016190061432230785,1.3628500550311173e-09,-7.897238816667596e-06,0.016190061432230785,1.5899626397697375e-05,-0.029560095019263488
52,0.016506,534.13,574.837,-0.312587,0.00637792,0.0422907,-0.12034,0.0163717,0.0163717,-0.0306214,1.29709e-09,-7.90624e-06,1.54193e-05,0.0294847,0.016506450641780024,1.2970899909703348e-09,-7.906208745800392e-06,0.016506450641780024,1.5419418877948843e-05,-0.03015731398191268
53,0.016981,537.526,578.736,0.419141,0.00634182,0.106888,-0.0135211,0.0168385,0.0168385,-0.0315396,1.20327e-09,-6.8118e-06,1.70916e-05,0.0304104,0.016981066619690566,1.2032699281405712e-09,-6.811776799731106e-06,0.016981066619690566,1.7091746062236624e-05,-0.03104741482837947
54,0.017159,538.41,578.842,-0.185735,0.00571711,0.0494228,-0.103272,0.0170135,0.0170135,-0.0318889,1.09067e-10,-7.44485e-06,1.57807e-05,0.030761,0.017159053879779895,1.0906697767154583e-10,-7.444822287205888e-06,0.017159053879779895,1.5780824515809755e-05,-0.03138581086207193
55,0.017426,540.271,580.17,-0.205608,0.00511601,0.0502218,-0.104863,0.0172759,0.0172759,-0.0324077,1.14483e-09,-7.3343e-06,1.55105e-05,0.0312833,0.017425991436193833,1.1448300085703522e-09,-7.33427310406487e-06,0.017425991436193833,1.551062028837258e-05,-0.03188819757301564
56,0.017826,542.915,583.068,0.199462,0.00494656,0.0892818,-0.0435687,0.0176694,0.0176694,-0.0331833,1.41967e-10,-6.61097e-06,1.63117e-05,0.0320652,0.017826427344421747,1.419671047386828e-10,-6.610948147578455e-06,0.017826427344421747,1.631183303651973e-05,-0.03263877397582293
57,0.018427,544.669,586.803,-0.519226,0.00626264,0.0365419,-0.143522,0.0182594,0.0182594,-0.0343543,1.07472e-09,-7.60053e-06,1.48793e-05,0.033243,0.018427122124089923,1.0747200906990884e-09,-7.600501116034053e-06,0.018427122124089923,1.4879410697332673e-05,-0.03377089098761976
58,0.018652,547.198,588.507,0.312834,0.00558981,0.107387,-0.0221924,0.0184806,0.0184806,-0.0347869,-3.27424e-11,-6.47549e-06,1.63775e-05,0.0336805,0.01865242312087534,-3.274236437533773e-11,-6.475469034095127e-06,0.01865242312087534,1.6377634111996997e-05,-0.034188791301823285
59,0.01899,549.361,590.334,0.404235,0.00509841,0.108992,-0.0128376,0.0188122,0.0188122,-0.0354424,1.66625e-10,-6.14044e-06,1.65792e-05,0.034341,0.01899026427534989,1.666249360710026e-10,-6.140421147549091e-06,0.01899026427534989,1.657933743559603e-05,-0.03482167309945439
60,0.019497,550.996,592.896,-0.292252,0.00548595,0.0488905,-0.113289,0.0193095,0.0193095,-0.0364303,9.42632e-10,-6.94476e-06,1.51314e-05,0.035335,0.019497134156523988,9.426319724781251e-10,-6.944735885250353e-06,0.019497134156523988,1.5131514480293262e-05,-0.03577470194249366
61,0.019687,552.89,594.04,0.186469,0.00495099,0.0930154,-0.042318,0.0194959,0.0194959,-0.0367963,-1.56868e-10,-6.21574e-06,1.59513e-05,0.0357049,0.019687186134624834,-1.5686796306368933e-10,-6.215720682378745e-06,0.019687186134624834,1.5951427222660186e-05,-0.03612754382757888
62,0.019972,554.103,594.803,-0.374557,0.00447577,0.0314557,-0.130272,0.0197754,0.0197754,-0.0373527,8.81983e-10,-6.94292e-06,1.45144e-05,0.0362646,0.01997222853596936,8.81982931133507e-10,-6.9428958979766975e-06,0.01997222853596936,1.451450533451748e-05,-0.03666369329158059
63,0.0204,556.87,597.995,0.344655,0.00450207,0.0996307,-0.0225041,0.0201946,0.0201946,-0.0381783,7.96503e-10,-5.80699e-06,1.60132e-05,0.037098,0.020399890525861997,7.965030857093325e-10,-5.806973139454996e-06,0.020399890525861997,1.6013328211883504e-05,-0.03745869552432024
64,0.021041,558.063,601.504,-0.621642,0.00615925,0.0270391,-0.154879,0.020823,0.020823,-0.0394281,-6.35922e-11,-7.16722e-06,1.41414e-05,0.0383558,0.021041311330377788,-6.359224258289942e-11,-7.167194315593761e-06,0.021041311330377788,1.4141499990127926e-05,-0.038660928214954926
65,0.021683,560.518,605.532,-0.613882,0.00725346,0.0279007,-0.15339,0.021451,0.021451,-0.0406719,8.51053e-10,-7.5867e-06,1.39375e-05,0.0396098,0.021682726657225704,8.510530058458698e-10,-7.586671221027075e-06,0.021682726657225704,1.3937597127311463e-05,-0.03985589844639881
66,0.022164,563.219,608.021,-0.413626,0.00683791,0.0372753,-0.129458,0.0219218,0.0219218,-0.0416032,-4.59368e-10,-7.53085e-06,1.39033e-05,0.0405493,0.022163848132044306,-4.5936798809265156e-10,-7.530821643175756e-06,0.022163848132044306,1.390339665130469e-05,-0.04074966440146033
67,0.022645,566.325,611.003,0.283229,0.00651369,0.0953145,-0.0301482,0.0223923,0.0223923,-0.0425313,7.74299e-10,-6.55686e-06,1.53337e-05,0.0414867,0.022644889378669486,7.742990693060392e-10,-6.556838503812834e-06,0.022644889378669486,1.5333817561691276e-05,-0.04163953163116596
68,0.022825,567.278,610.99,-0.136238,0.0058815,0.0542479,-0.0928657,0.0225687,0.0225687,-0.0428831,7.66828e-10,-6.97776e-06,1.43858e-05,0.0418409,0.02282529984889159,7.668279344841267e-10,-6.9777356555000836e-06,0.02282529984889159,1.4385903476021866e-05,-0.04197662354599374
69,0.023096,569.442,612.368,0.331657,0.00524301,0.106497,-0.0192543,0.0228333,0.0228333,-0.0434045,7.00129e-10,-6.05885e-06,1.53082e-05,0.0423678,0.023095975232005683,7.001290658337211e-10,-6.058831645172624e-06,0.023095975232005683,1.530831717100334e-05,-0.04247600673396623
70,0.023502,571.391,614.265,0.33159,0.00495567,0.0997876,-0.0230698,0.02323,0.0232299,-0.0441905,6.66707e-10,-5.85245e-06,1.5361e-05,0.0431607,0.02350191791878853,6.667069119004054e-10,-5.852432874431379e-06,0.023501815568601758,1.5361117980727812e-05,-0.04322832489290529
71,0.024111,572.973,617.473,-0.086909,0.00596304,0.0660972,-0.0817026,0.0238247,0.0238247,-0.0453717,-3.37466e-10,-6.33531e-06,1.47806e-05,0.0443514,0.024110775535242546,-3.374660551003217e-10,-6.335289931991284e-06,0.024110775535242546,1.4780709233663814e-05,-0.04435779639834769
72,0.024339,574.687,618.283,0.116152,0.00533132,0.0836409,-0.0522958,0.0240476,0.0240476,-0.0458123,6.39878e-10,-5.93861e-06,1.50546e-05,0.0447965,0.02433907527016954,6.398779284211287e-10,-5.938592366527828e-06,0.02433907527016954,1.5054713321083213e-05,-0.0447787596082494
73,0.024682,576.186,619.329,-0.175655,0.00484537,0.0524594,-0.0977317,0.0243819,0.0243819,-0.0464766,6.25427e-10,-6.22276e-06,1.42434e-05,0.0454662,0.02468156906768093,6.254270434880027e-10,-6.2227406386616835e-06,0.02468156906768093,1.4243501437638528e-05,-0.04541310235796958
74,0.025195,578.839,622.726,0.563845,0.00512623,0.116787,0.00965238,0.0248831,0.0248831,-0.0474661,5.60955e-10,-5.06175e-06,1.60358e-05,0.0464662,0.025195268192344855,5.609550601803903e-10,-5.0617371893935115e-06,0.025195268192344855,1.603592857413183e-05,-0.04635719892437895
75,0.025388,579.309,622.416,-0.226649,0.00463462,0.0415624,-0.107579,0.025071,0.025071,-0.0478431,5.84569e-10,-5.93248e-06,1.43695e-05,0.0468452,0.025387920482353943,5.845690598249575e-10,-5.932462402880034e-06,0.025387920482353943,1.4369603241748408e-05,-0.04671665449875129
76,0.025677,580.794,623.396,-0.270621,0.00419374,0.0405634,-0.112592,0.0253528,0.0253528,-0.0484021,-2.10398e-10,-5.87145e-06,1.40287e-05,0.0474093,0.02567691551583362,-2.1039803232980603e-10,-5.871432763093765e-06,0.02567691551583362,1.4028798402732079e-05,-0.04724939097516878
77,0.02611,583.048,625.995,0.281589,0.00419607,0.094286,-0.0294894,0.0257753,0.0257753,-0.0492368,4.98624e-10,-4.93412e-06,1.51609e-05,0.0482528,0.026110355570402977,4.986240309534651e-10,-4.934107827203604e-06,0.026110355570402977,1.5161014927045358e-05,-0.0480443200986983
78,0.026761,585.08,630.207,0.657848,0.00566297,0.11549,0.0149963,0.0264088,0.0264088,-0.0504911,4.78878e-10,-4.43248e-06,1.66163e-05,0.0495195,0.026760602424601432,4.788780483266919e-10,-4.432470176563008e-06,0.026760602424601432,1.661643805150881e-05,-0.04923760958005319
79,0.027736,584.933,635.479,-0.762685,0.0109427,0.0354725,-0.16314,0.0273582,0.0273582,-0.0523833,-3.54569e-10,-7.0013e-06,1.54449e-05,0.0514267,0.02773587182767323,-3.545690407946722e-10,-7.001275490914338e-06,0.02773587182767323,1.5445019273085947e-05,-0.05103494118350882
80,0.027986,587.413,636.275,-0.17716,0.00960097,0.0504619,-0.101346,0.0276014,0.0276014,-0.0528624,-3.16051e-10,-6.71417e-06,1.59954e-05,0.0519117,0.027985847587521873,-3.1605096317832704e-10,-6.714147460007425e-06,0.027985847587521873,1.599552792708181e-05,-0.05148948144937271
81,0.028361,589.457,637.054,-0.311247,0.00832416,0.0365165,-0.123635,0.0279662,0.0279662,-0.0535867,6.45601e-10,-6.85027e-06,1.53718e-05,0.052643,0.02836092523472522,6.456009060684664e-10,-6.850246536904692e-06,0.02836092523472522,1.5371918146822594e-05,-0.05217623887873246
82,0.028923,592.524,640.194,0.548996,0.00790274,0.114617,0.00252159,0.028513,0.028513,-0.0546669,-3.02977e-10,-5.54523e-06,1.74457e-05,0.0537355,0.028923386751608104,-3.029769768403412e-10,-5.5452146252576995e-06,0.028923386751608104,1.7445852177111476e-05,-0.05319952532898364
83,0.029134,593.17,639.68,-0.245459,0.00706023,0.0401802,-0.112691,0.028718,0.028718,-0.0550781,6.03363e-10,-6.4072e-06,1.57821e-05,0.0541495,0.0291343376676223,6.033629151858122e-10,-6.407179473977287e-06,0.0291343376676223,1.5782224537908007e-05,-0.05358876965005133
84,0.029451,594.804,640.426,-0.312109,0.00622756,0.0373663,-0.12086,0.0290254,0.0290254,-0.0556885,5.78742e-10,-6.38149e-06,1.53655e-05,0.0547659,0.02945074219190502,5.7874194325791e-10,-6.381469638383486e-06,0.02945074219190502,1.536561804993397e-05,-0.05416628279011537
85,0.029925,597.288,642.971,0.363805,0.00588645,0.101675,-0.0206129,0.0294863,0.0294863,-0.0565995,5.15156e-10,-5.2807e-06,1.67961e-05,0.0556873,0.029925325398280078,5.151559179239484e-10,-5.280686057096418e-06,0.029925325398280078,1.6796241055327954e-05,-0.05502754494201845
86,0.030637,597.835,645.691,-0.700206,0.00726522,0.020566,-0.165319,0.0301773,0.0301773,-0.0579774,5.71029e-10,-6.83908e-06,1.47209e-05,0.0570769,0.03063724973966253,5.710290018612341e-10,-6.839056613583416e-06,0.03063724973966253,1.4721008352980292e-05,-0.05632872583339832
87,0.030815,600.024,646.819,0.2765,0.00659152,0.104863,-0.0283159,0.03035,0.03035,-0.0583145,5.18528e-10,-5.60755e-06,1.63975e-05,0.0574195,0.030815256163104987,5.185281093389449e-10,-5.6075342776962245e-06,0.030815256163104987,1.639763443983533e-05,-0.05664678380823629
88,0.030993,600.988,646.844,0.0863501,0.00598097,0.0795737,-0.0600758,0.0305226,0.0305226,-0.0586583,-7.18458e-11,-5.79089e-06,1.5905e-05,0.0577665,0.030993190231586976,-7.184575157026529e-11,-5.7908732328249e-06,0.030993190231586976,1.5905126485193932e-05,-0.056971052898912244
89,0.03126,602.404,647.46,0.0931827,0.00532774,0.0793282,-0.0586562,0.0307815,0.0307815,-0.0591722,4.9336e-10,-5.61417e-06,1.58099e-05,0.0582858,0.03126014892484963,4.933600195045074e-10,-5.614154240607405e-06,0.03126014892484963,1.5810024977191972e-05,-0.05745555097238486
90,0.031661,603.87,648.775,-0.00229971,0.00492549,0.0692243,-0.0726727,0.0311698,0.0311698,-0.0599435,-2.23562e-10,-5.57608e-06,1.54964e-05,0.0590649,0.03166066499583997,-2.235619467327865e-10,-5.57606445372727e-06,0.03166066499583997,1.549652006982427e-05,-0.058182255216401524
91,0.032261,605.657,651.951,0.302325,0.0055716,0.0944966,-0.0295732,0.0317518,0.0317518,-0.0610977,4.48209e-10,-5.07387e-06,1.6404e-05,0.0602314,0.03226126626088255,4.4820902544984165e-10,-5.0738571278907685e-06,0.03226126626088255,1.6404134546288418e-05,-0.059268674164447255
92,0.033162,606.129,656.701,-0.254918,0.00915944,0.0608452,-0.103167,0.0326243,0.0326243,-0.062834,5.40872e-10,-6.27979e-06,1.64435e-05,0.0619844,0.033162307237661004,5.408720138433409e-10,-6.279770282113795e-06,0.033162307237661004,1.644363519504033e-05,-0.06090064875675527
93,0.033412,608.225,657.328,0.198869,0.0080884,0.0933564,-0.0417286,0.0328663,0.0328663,-0.0633118,5.05143e-10,-5.66758e-06,1.71444e-05,0.0624683,0.03341236277151172,5.051430385094591e-10,-5.6675639392711474e-06,0.03341236277151172,1.714454696610801e-05,-0.06134924324902091
94,0.033787,609.482,657.536,-0.406999,0.00709465,0.0286245,-0.135847,0.0332291,0.0332291,-0.0640358,5.17638e-10,-6.46436e-06,1.55771e-05,0.0631989,0.03378735279580258,5.176379325178004e-10,-6.4643391061158795e-06,0.03378735279580258,1.5577221323725965e-05,-0.062028580447168524
95,0.03435,611.232,659.542,-0.478479,0.00688414,0.0304515,-0.140393,0.033773,0.033773,-0.0651168,5.04339e-10,-6.58341e-06,1.51514e-05,0.0642912,0.03434978267592892,5.043390149950255e-10,-6.583388329373108e-06,0.03434978267592892,1.5151514783040554e-05,-0.06304197971071823
96,0.034561,613.157,660.402,0.177332,0.00618631,0.0909913,-0.0450259,0.0339769,0.0339769,-0.065518,4.62222e-10,-5.65234e-06,1.62725e-05,0.0646981,0.03456070809973277,4.6222203842205545e-10,-5.652324025606781e-06,0.03456070809973277,1.6272632397784648e-05,-0.06341781187148565
97,0.034877,614.689,661.129,0.21428,0.00550037,0.0909198,-0.0414208,0.0342827,0.0342827,-0.0661252,-2.34559e-10,-5.42186e-06,1.626e-05,0.065312,0.0348771251419695,-2.3455903885860607e-10,-5.421845301722961e-06,0.0348771251419695,1.6260132194467758e-05,-0.06398633195595227
98,0.035352,615.938,662.504,-0.080492,0.00526762,0.0626105,-0.0840929,0.0347412,0.0347412,-0.0670378,-1.43626e-10,-5.66417e-06,1.55769e-05,0.0662338,0.035351725097572784,-1.436259999820777e-10,-5.66415395863995e-06,0.035351725097572784,1.5577021320600792e-05,-0.06484014837372021
99,0.036064,617.956,666.647,0.658266,0.00660209,0.115541,0.0118649,0.0354286,0.0354286,-0.0683995,-1.74883e-10,-4.79228e-06,1.77357e-05,0.0676114,0.03606367054101978,-1.7488299697276943e-10,-4.792268517017639e-06,0.03606367054101978,1.773585727837812e-05,-0.06611268893780509
100,0.036314,618.413,666.018,-0.276003,0.0058785,0.0362127,-0.117394,0.0356699,0.0356699,-0.0688841,4.34096e-10,-5.72325e-06,1.58604e-05,0.0680997,0.03631370286990854,4.340960924054116e-10,-5.723233622245694e-06,0.03631370286990854,1.5860525776734136e-05,-0.06656514109073486
101,0.036689,619.774,666.766,-0.460842,0.0052941,0.0231972,-0.142318,0.0360317,0.0360317,-0.069604,4.21998e-10,-5.88953e-06,1.51381e-05,0.0688272,0.03668870900212551,4.2199799210607125e-10,-5.889512656787055e-06,0.03668870900212551,1.5138214581655873e-05,-0.06723687902458331
102,0.037251,621.191,668.877,-0.512939,0.00549335,0.0265557,-0.144799,0.0365741,0.0365741,-0.0706823,4.11248e-10,-5.99882e-06,1.47059e-05,0.0699171,0.037251161481211215,4.112479246032308e-10,-5.9988020071344295e-06,0.037251161481211215,1.4706008132359116e-05,-0.06824213541654378
103,0.037462,623.024,669.807,0.18229,0.00496232,0.0907218,-0.0437555,0.0367775,0.0367775,-0.0710824,3.70414e-10,-5.02491e-06,1.59019e-05,0.070323,0.03746215982526069,3.7041392175751753e-10,-5.024897375194293e-06,0.03746215982526069,1.590202643586558e-05,-0.06861485717020477
104,0.037779,624.389,670.555,0.219323,0.00447449,0.0906342,-0.0401336,0.0370824,0.0370824,-0.0716882,3.50495e-10,-4.79773e-06,1.58923e-05,0.0709356,0.037778530266014076,3.5049496638350774e-10,-4.797718490934244e-06,0.037778530266014076,1.5892426283192762e-05,-0.06917891941802556
105,0.038253,625.434,671.915,-0.0812088,0.00444423,0.0615496,-0.0837576,0.0375396,0.0375396,-0.0725986,3.48411e-10,-5.05133e-06,1.51934e-05,0.0718555,0.03825311109096141,3.484110777662863e-10,-5.051317242044107e-06,0.03825311109096141,1.5193515420230952e-05,-0.07002595330145978
106,0.038965,627.203,675.971,0.639215,0.00592778,0.11371,0.0102444,0.0382251,0.0382251,-0.0739571,3.22405e-10,-4.18729e-06,1.72752e-05,0.0732303,0.038965077597254316,3.2240499159286173e-10,-4.187281233303253e-06,0.038965077597254316,1.727534921713847e-05,-0.07128846528846644
107,0.039215,627.599,675.359,-0.263585,0.00529932,0.0365698,-0.114983,0.0384657,0.0384657,-0.0744405,3.48501e-10,-5.0908e-06,1.54584e-05,0.0737174,0.039215082669328494,3.4850100583128096e-10,-5.090787041917011e-06,0.039215082669328494,1.5458519481592603e-05,-0.0717372959532343
108,0.03959,628.862,676.083,-0.432836,0.00481525,0.0246664,-0.137817,0.0388265,0.0388265,-0.0751586,3.39463e-10,-5.23534e-06,1.47817e-05,0.0744433,0.03959009912005507,3.394629022324125e-10,-5.235326295593978e-06,0.03959009912005507,1.4781809249964084e-05,-0.07240364212078443
109,0.040153,630.15,678.125,-0.472435,0.00509147,0.0285139,-0.13892,0.0393674,0.0393674,-0.0762342,3.31025e-10,-5.31706e-06,1.4394e-05,0.0755309,0.04015256550999058,3.310249852006564e-10,-5.3170458644835605e-06,0.04015256550999058,1.4394103594161933e-05,-0.07340082838041051
110,0.040363,631.867,678.976,0.166278,0.00461039,0.0878652,-0.0458841,0.0395702,0.0395702,-0.0766336,2.93925e-10,-4.41092e-06,1.54866e-05,0.0759361,0.04036352984133629,2.9392510647596737e-10,-4.41091027192364e-06,0.04036352984133629,1.5486719918023084e-05,-0.07377083819367702
111,0.04068,633.146,679.672,0.194649,0.00417668,0.0872333,-0.0433838,0.0398742,0.0398742,-0.0772379,2.77281e-10,-4.20308e-06,1.5452e-05,0.0765474,0.0406798484323978,2.7728108697999687e-10,-4.203071167108163e-06,0.0406798484323978,1.5452119382697305e-05,-0.07433038939073433
112,0.041155,634.14,681.002,-0.0563733,0.00418722,0.0627585,-0.0797194,0.0403302,0.0403302,-0.0781459,-1.61466e-10,-4.39056e-06,1.48585e-05,0.0774651,0.04115450665713327,-1.6146595172017442e-10,-4.390550361499379e-06,0.04115450665713327,1.4858610388079896e-05,-0.07517051592200119
113,0.041866,635.799,684.944,0.680444,0.00566245,0.120644,0.0212981,0.0410137,0.0410137,-0.079501,2.40364e-10,-3.39395e-06,1.707e-05,0.0788368,0.041866379017098554,2.4036395096516117e-10,-3.3939442405372944e-06,0.041866379017098554,1.7070145693187655e-05,-0.07642290360895176
114,0.042116,636.082,684.244,-0.277555,0.00507274,0.0339942,-0.116561,0.0412537,0.0412537,-0.0799835,2.75359e-10,-4.42382e-06,1.50927e-05,0.0793231,0.04211645695621491,2.753590688797658e-10,-4.423810214926327e-06,0.04211645695621491,1.5092813895334345e-05,-0.07686842206798894
115,0.042491,637.27,684.911,-0.446198,0.00462339,0.0220142,-0.139518,0.0416134,0.0416134,-0.0806998,2.69625e-10,-4.57689e-06,1.4411e-05,0.0800474,0.04249137367051081,2.696249890021818e-10,-4.576879526041466e-06,0.04249137367051081,1.4411103838929407e-05,-0.07752942445099564
116,0.043054,638.482,686.873,-0.46696,0.00490817,0.0275884,-0.137938,0.0421529,0.0421529,-0.0817727,2.62768e-10,-4.63287e-06,1.40577e-05,0.0811325,0.043053949507792844,2.627680295574919e-10,-4.6328592683275716e-06,0.043053949507792844,1.4057798809918864e-05,-0.07851861238674496
117,0.043265,640.144,687.685,0.160283,0.0044515,0.0861796,-0.0464705,0.0423551,0.0423551,-0.0821712,2.27285e-10,-3.7411e-06,1.51308e-05,0.0815369,0.043264876340367575,2.2728507964586697e-10,-3.741093002052054e-06,0.043264876340367575,1.513091447113979e-05,-0.07888574956276795
118,0.043581,641.361,688.328,0.185327,0.00404079,0.085359,-0.0443828,0.0426583,0.0426583,-0.082774,2.13091e-10,-3.5432e-06,1.50872e-05,0.0821468,0.04358124220951609,2.1309110032063927e-10,-3.543193722865823e-06,0.04358124220951609,1.508731381227868e-05,-0.0794408299149052
119,0.044056,642.299,689.596,-0.0467422,0.00405876,0.0625729,-0.0779436,0.043113,0.043113,-0.0836797,-1.67887e-10,-3.7082e-06,1.45326e-05,0.0830624,0.044055866498003304,-1.6788703760539647e-10,-3.708193124674075e-06,0.044055866498003304,1.4532705598702123e-05,-0.08027420290532505
120,0.044768,643.807,693.359,0.638852,0.00549587,0.116971,0.01645,0.0437946,0.0437946,-0.0850317,1.7846e-10,-2.77068e-06,1.65954e-05,0.0844313,0.04476773755470442,1.7845991351350676e-10,-2.770676161722996e-06,0.04476773755470442,1.6595537704500174e-05,-0.08151683197646109
121,0.045018,644.106,692.692,-0.254368,0.00493157,0.0355957,-0.112474,0.0440339,0.0440339,-0.0855126,2.12312e-10,-3.73155e-06,1.47415e-05,0.0849162,0.04501778039073345,2.1231194580195734e-10,-3.731543037788221e-06,0.04501778039073345,1.4741608656443361e-05,-0.08195842434256884
122,0.045393,645.249,693.32,-0.405966,0.00450204,0.0247193,-0.133205,0.0443927,0.0443927,-0.0862271,2.08493e-10,-3.85935e-06,1.41129e-05,0.0856388,0.045392800044840254,2.0849300064185172e-10,-3.859342552758882e-06,0.045392800044840254,1.4112999587423403e-05,-0.08261413076935964
123,0.045955,647.407,696.199,0.595144,0.00478228,0.116924,0.0128767,0.0449306,0.0449306,-0.0872914,1.44956e-10,-2.34062e-06,1.63772e-05,0.0867175,0.04595526809420436,1.4495604716557864e-10,-2.340617260787603e-06,0.04595526809420436,1.6377334107087194e-05,-0.08358998515695415
124,0.046166,647.562,695.517,-0.25332,0.0043386,0.0336191,-0.112995,0.0451323,0.0451323,-0.0876974,1.83098e-10,-3.33378e-06,1.45906e-05,0.0871266,0.04616625854945111,1.8309798122118082e-10,-3.3337744429484673e-06,0.04616625854945111,1.459070644327376e-05,-0.08396197210452039
125,0.046483,648.677,696.067,-0.279186,0.00394182,0.0348184,-0.115187,0.0454347,0.0454347,-0.088299,1.74187e-10,-3.26209e-06,1.4282e-05,0.0877354,0.04648266706459281,1.7418710918093439e-10,-3.2620846793784963e-06,0.04648266706459281,1.4282101988172258e-05,-0.08451289484792512
126,0.046957,650.343,698.045,0.281433,0.00395845,0.091046,-0.0306294,0.0458881,0.0458881,-0.0891979,1.31563e-10,-2.30534e-06,1.54183e-05,0.0886459,0.04695724988563521,1.3156298273031553e-10,-2.305337342689562e-06,0.04695724988563521,1.5418418862545025e-05,-0.08533545645104657
127,0.047669,650.112,700.077,-0.675782,0.00536529,0.0173187,-0.161361,0.0465678,0.0465678,-0.0905559,1.78589e-10,-3.64943e-06,1.34206e-05,0.0900179,0.047669108626169354,1.785889214289682e-10,-3.6494233408568277e-06,0.047669108626169354,1.3420690056609175e-05,-0.0865767278871219
128,0.047919,651.806,700.814,-0.126094,0.00482402,0.0500063,-0.091681,0.0468064,0.0468064,-0.0910274,1.61042e-10,-3.14576e-06,1.41124e-05,0.0904961,0.047919112299739774,1.6104206856937253e-10,-3.1457550521141187e-06,0.047919112299739774,1.4112499580276605e-05,-0.08700730544328739
129,0.048294,652.892,701.387,-0.281779,0.00440911,0.0341278,-0.116069,0.0471642,0.0471642,-0.0917401,1.60465e-10,-3.30203e-06,1.35004e-05,0.0912171,0.04829412484386397,1.6046497464117238e-10,-3.3020245483461608e-06,0.04829412484386397,1.3500491130802317e-05,-0.08765776351843002
130,0.048857,654.769,703.971,0.50727,0.00468175,0.108785,0.0013196,0.0477007,0.0477007,-0.092803,1.11581e-10,-2.04515e-06,1.53315e-05,0.0922941,0.048856685535254574,1.1158096668850703e-10,-2.0451479086913693e-06,0.048856685535254574,1.5331617527980512e-05,-0.0886269769018857
131,0.049068,655.028,703.403,-0.203692,0.0042529,0.0389781,-0.104044,0.0479018,0.0479018,-0.0932071,1.4004e-10,-2.85947e-06,1.38213e-05,0.0927018,0.049067631824654345,1.4003997961253845e-10,-2.8594659117198162e-06,0.049067631824654345,1.3821395514534984e-05,-0.08899518833838826
132,0.049384,656.101,703.913,-0.228528,0.00386808,0.0393739,-0.106516,0.0482033,0.0482033,-0.0938073,-1.47954e-10,-2.78431e-06,1.35371e-05,0.0933091,0.04938397340174583,-1.4795398239897395e-10,-2.7843061237708966e-06,0.04938397340174583,1.3537191626999956e-05,-0.08954180936896672
133,0.049859,657.625,705.739,0.24681,0.00388296,0.0873539,-0.03456,0.0486555,0.0486555,-0.0947043,9.84175e-11,-1.94702e-06,1.44931e-05,0.0942178,0.04985861214224929,9.84174963747364e-11,-1.9470181045200263e-06,0.04985861214224929,1.4493205025445377e-05,-0.09035812419402922
134,0.050571,657.502,707.839,-0.530482,0.00524789,0.027131,-0.140861,0.0493334,0.0493334,-0.0960579,1.35115e-10,-3.03918e-06,1.29276e-05,0.0955859,0.05057055258036769,1.3511503027530125e-10,-3.039175381691628e-06,0.05057055258036769,1.2927683561869685e-05,-0.09158858247508173
135,0.050821,659.438,708.833,0.301306,0.00472653,0.10037,-0.0224591,0.0495713,0.0495713,-0.0965265,9.41697e-11,-1.91185e-06,1.43923e-05,0.0960619,0.05082051304644519,9.416978308252055e-11,-1.9118481724422765e-06,0.05082051304644519,1.4392403569596368e-05,-0.09201416434371434
136,0.051196,660.663,709.547,0.333922,0.00432712,0.0969558,-0.0215653,0.0499281,0.0499281,-0.0972364,8.30214e-11,-1.69373e-06,1.44271e-05,0.0967805,0.05119551270146028,8.302136755844458e-11,-1.693728565621555e-06,0.05119551270146028,1.4427204071187916e-05,-0.09265851474920994
137,0.051758,661.229,710.827,-0.122009,0.00459666,0.0545474,-0.0868692,0.0504631,0.0504631,-0.0983037,9.93756e-11,-2.19151e-06,1.34919e-05,0.0978597,0.05175805276680534,9.937561884498791e-11,-2.1915075986145283e-06,0.05175805276680534,1.3491991016190141e-05,-0.09362640371059461
138,0.051969,662.39,711.169,0.103194,0.00418303,0.0762047,-0.0542338,0.0506636,0.0506636,-0.0987015,-8.14821e-11,-1.78624e-06,1.38145e-05,0.0982628,0.051968951398266405,-8.148215435710426e-11,-1.7862384046329893e-06,0.051968951398266405,1.3814595420713616e-05,-0.0939868874222346
139,0.052285,663.193,711.412,-0.152696,0.0038081,0.0464341,-0.0943919,0.0509643,0.0509643,-0.0993014,9.01833e-11,-2.06999e-06,1.30932e-05,0.0988696,0.05228532602649327,9.018319424569654e-11,-2.0699878575669572e-06,0.05228532602649327,1.3093285716303527e-05,-0.09453024169306123
140,0.05276,664.749,713.256,0.40337,0.00382018,0.101151,-0.0105358,0.0514153,0.0514153,-0.100196,5.12826e-11,-1.08744e-06,1.42997e-05,0.0997759,0.052760013742565226,5.128253377506553e-11,-1.0874394087423411e-06,0.052760013742565226,1.42998022412133e-05,-0.09533991271899378
141,0.053472,665.589,716.266,0.648499,0.00514423,0.111548,0.0150769,0.0520913,0.0520913,-0.10154,3.59425e-11,-7.1654e-07,1.54126e-05,0.101137,0.05347192010909674,3.594258224381974e-11,-7.165397433173126e-07,0.05347192010909674,1.5412718774809875e-05,-0.09655495918217771
142,0.054472,664.553,719.914,-0.342957,0.0090339,0.049957,-0.10899,0.0530401,0.0530401,-0.103435,1.14514e-10,-2.4194e-06,1.48124e-05,0.103052,0.05447192859590322,1.1451395387496177e-10,-2.4193970732389047e-06,0.05447192859590322,1.481250970414294e-05,-0.09826536641183448
143,0.054722,666.528,720.331,0.241462,0.00804769,0.093496,-0.03311,0.0532771,0.0532771,-0.103903,8.41344e-11,-1.68253e-06,1.57195e-05,0.103528,0.05472186805963708,8.413447716293376e-11,-1.682528584567855e-06,0.05472186805963708,1.571962355195744e-05,-0.0986872794849939
144,0.055097,668.047,720.582,0.230151,0.007065,0.0861501,-0.0390954,0.0536326,0.0536326,-0.104611,7.65768e-11,-1.55304e-06,1.56052e-05,0.104244,0.05509688833963744,7.657674494510047e-11,-1.5530387940110302e-06,0.05509688833963744,1.5605321761702484e-05,-0.0993251830466112
145,0.055659,669.188,721.578,-0.00905413,0.00664995,0.0634626,-0.0728874,0.0541656,0.0541656,-0.105673,8.29251e-11,-1.75199e-06,1.5131e-05,0.105319,0.05565940487846288,8.292500019990712e-11,-1.7519884653038886e-06,0.05565940487846288,1.5131114474264962e-05,-0.1002811919716241
146,0.056503,670.757,725.436,0.811179,0.00819281,0.125348,0.0355867,0.0549645,0.0549645,-0.107259,4.43316e-11,-8.03147e-07,1.79087e-05,0.106926,0.05650310814941806,4.433164946249235e-11,-8.031466774971463e-07,0.05650310814941806,1.7908860361792733e-05,-0.10170701502460022
147,0.056753,670.964,724.22,-0.291619,0.00730619,0.0275064,-0.119807,0.0552011,0.0552011,-0.107737,-1.12302e-10,-1.99409e-06,1.57083e-05,0.107408,0.05675310635842812,-1.1230194552069861e-10,-1.9940880118252124e-06,0.05675310635842812,1.57084233760596e-05,-0.10213629646498057
148,0.057128,672.228,724.377,-0.448131,0.00644959,0.0164955,-0.141075,0.0555559,0.0555559,-0.108444,9.85303e-11,-2.14665e-06,1.5055e-05,0.108123,0.057128108882077866,9.853029503403832e-11,-2.1466476959330905e-06,0.057128108882077866,1.5055113327111513e-05,-0.10277086175811656
149,0.057691,674.535,726.686,0.599482,0.00616294,0.115876,0.0123653,0.0560879,0.0560879,-0.109497,2.8204e-11,-5.37814e-07,1.73672e-05,0.109192,0.05769065065884815,2.8204105717577477e-11,-5.37813855339131e-07,0.05769065065884815,1.7367350810593152e-05,-0.10371514678736471
150,0.057902,674.687,725.818,-0.248245,0.00558468,0.0308919,-0.11368,0.0562873,0.0562873,-0.109899,7.32304e-11,-1.56223e-06,1.55801e-05,0.109597,0.0579015752030676,7.323031070427533e-11,-1.562228779672381e-06,0.0579015752030676,1.558022137038151e-05,-0.10407538088645096
151,0.058218,675.809,726.115,-0.25423,0.00499733,0.0340078,-0.113007,0.0565863,0.0565863,-0.110494,6.73162e-11,-1.46808e-06,1.53224e-05,0.1102,0.058217935067496285,6.731615265209712e-11,-1.468078922317595e-06,0.058217935067496285,1.532251738867174e-05,-0.10460829747641587
152,0.058693,677.369,727.635,0.236115,0.00473434,0.0845592,-0.0386293,0.0570347,0.0570347,-0.111384,2.94395e-11,-6.09092e-07,1.62805e-05,0.111102,0.05869254638948651,2.943956189938035e-11,-6.090918145407187e-07,0.05869254638948651,1.628063252812062e-05,-0.10540484157695851
153,0.059405,677.242,729.321,-0.526935,0.00570238,0.0240875,-0.143333,0.057707,0.057707,-0.112727,-8.0065e-11,-1.68736e-06,1.46838e-05,0.11246,0.05940454469983836,-8.006495466617025e-11,-1.6873585764187737e-06,0.05940454469983836,1.4683907807455654e-05,-0.10660547646793106
154,0.059655,679.115,730.19,0.288453,0.00513504,0.0969908,-0.0270575,0.0579429,0.0579429,-0.113192,2.70835e-11,-5.75244e-07,1.61147e-05,0.112933,0.05965448771155235,2.7083446596520844e-11,-5.75243834566308e-07,0.05965448771155235,1.6114829842539535e-05,-0.10702080834922734
155,0.06003,680.262,730.721,0.305145,0.0046546,0.0923692,-0.0282048,0.0582967,0.0582967,-0.113897,1.83633e-11,-3.92915e-07,1.60953e-05,0.113646,0.060029459797955376,1.8363310871905014e-11,-3.9291492281989804e-07,0.060029459797955376,1.6095429530071925e-05,-0.10765013681499092
156,0.060592,680.807,731.812,-0.0843798,0.00477361,0.0553893,-0.0840333,0.0588272,0.0588272,-0.114955,-4.84398e-11,-8.07812e-07,1.52768e-05,0.114717,0.060591954614936494,-4.843980772051282e-11,-8.078116737753049e-07,0.060591954614936494,1.527691669100939e-05,-0.10859374371417108
157,0.061436,681.957,735.877,0.76622,0.00677421,0.114812,0.0235059,0.0596225,0.0596225,-0.116534,-1.3299e-11,5.15408e-08,1.78898e-05,0.116317,0.06143577889869145,-1.3299028545077363e-11,5.15408014045704e-08,0.06143577889869145,1.7889960023387275e-05,-0.11000016353218811
158,0.062069,683.0,737.058,0.540616,0.00669695,0.105218,-0.00102539,0.0602185,0.0602185,-0.117723,-5.54092e-12,2.04951e-07,1.80164e-05,0.11752,0.06206858317985886,-5.540901071299231e-12,2.049510210433425e-07,0.06206858317985886,1.8016562296274685e-05,-0.11105774448128036
159,0.062701,683.73,737.91,0.0045561,0.00663156,0.0649161,-0.0696071,0.0608141,0.0608141,-0.118912,1.22974e-11,-2.57058e-07,1.71958e-05,0.118724,0.06270133964417068,1.2297496354563009e-11,-2.57057966912555e-07,0.06270133964417068,1.7195947848547277e-05,-0.11211406871389029
160,0.062939,684.932,737.899,0.0867534,0.0059718,0.0715352,-0.0611792,0.0610374,0.0610374,-0.119356,1.9989e-12,-4.19384e-08,1.71961e-05,0.119174,0.06293866734996545,1.998845533535132e-12,-4.1938399086838274e-08,0.06293866734996545,1.7196247853679125e-05,-0.11250820256319194
161,0.063295,686.015,738.033,-0.0573619,0.00533498,0.0542856,-0.0841327,0.0613722,0.0613722,-0.120024,6.72343e-12,-1.45917e-07,1.67164e-05,0.11985,0.06329459879539345,6.723510637129948e-12,-1.459169893802681e-07,0.06329459879539345,1.6716539719796586e-05,-0.11310084911789264
162,0.063829,687.444,739.494,0.287191,0.0051649,0.0872381,-0.0326301,0.0618743,0.0618743,-0.121022,-2.35636e-11,4.93465e-07,1.7467e-05,0.120861,0.06382861306651244,-2.3563595519249247e-11,4.934651216537134e-07,0.06382861306651244,1.7467152549022202e-05,-0.11398553293981684
163,0.064629,687.299,741.583,-0.349104,0.00660996,0.0390836,-0.118393,0.0626268,0.0626268,-0.122524,-3.7723e-11,-4.76927e-07,1.64282e-05,0.122381,0.06462944537321058,-3.7723046908411106e-11,-4.769268863169529e-07,0.06462944537321058,1.6428334943530132e-05,-0.11531532774344178
164,0.064879,688.984,742.064,0.209732,0.00593938,0.0863043,-0.0412871,0.0628616,0.0628616,-0.122989,-1.33767e-11,2.86809e-07,1.73361e-05,0.122853,0.06487944971634563,-1.3376744156801124e-11,2.86809041183389e-07,0.06487944971634563,1.733625027111607e-05,-0.11572661048539279
165,0.065254,689.555,741.759,-0.431194,0.00531672,0.0144339,-0.141098,0.0632137,0.0632137,-0.123694,2.68009e-11,-6.38264e-07,1.56966e-05,0.123565,0.06525445978723932,2.6801005859056204e-11,-6.382637962598636e-07,0.06525445978723932,1.5696723192348827e-05,-0.11634980352364277
166,0.065817,691.466,743.878,0.459569,0.00524364,0.100056,-0.010255,0.0637416,0.0637416,-0.12474,-3.36834e-11,7.21813e-07,1.7591e-05,0.124627,0.06581695607439308,-3.368338941101001e-11,7.218132604958072e-07,0.06581695607439308,1.759115472244055e-05,-0.11727361838975203
167,0.066661,690.6,745.623,-0.749102,0.00700036,0.00701816,-0.172275,0.064533,0.064533,-0.126324,4.57845e-11,-1.14372e-06,1.52804e-05,0.126228,0.06666077746951493,4.578448731251683e-11,-1.1437193458974093e-06,0.06666077746951493,1.5280516745930228e-05,-0.11867075015773887
168,0.067294,692.029,747.019,-0.586423,0.00680911,0.0116333,-0.15606,0.065126,0.065126,-0.127504,5.17677e-11,-1.32659e-06,1.50341e-05,0.127424,0.06729349489272907,5.1767701236826724e-11,-1.3265891201097446e-06,0.06729349489272907,1.5034213012743436e-05,-0.1197101053323999
169,0.067926,694.418,749.386,0.556335,0.00666397,0.10894,0.00509161,0.0657188,0.0657188,-0.128678,-9.20333e-12,2.04316e-07,1.75131e-05,0.128616,0.06792637404334845,-9.203304784932698e-12,2.0431602076875777e-07,0.06792637404334845,1.7513253355305736e-05,-0.12074295926485146
170,0.068164,694.7,748.442,-0.25899,0.00600422,0.0285591,-0.115555,0.065941,0.065941,-0.129126,3.10922e-11,-7.69135e-07,1.57711e-05,0.129067,0.06816369364889252,3.109223989383736e-11,-7.691347042593222e-07,0.06816369364889252,1.5771224364469205e-05,-0.12113677819707325
171,0.06852,695.863,748.627,-0.290193,0.0053621,0.0294033,-0.11847,0.0662742,0.0662742,-0.129789,2.84149e-11,-7.21673e-07,1.54395e-05,0.12974,0.06851966509316565,2.841482604765133e-11,-7.216727395675804e-07,0.06851966509316565,1.5439619189594467e-05,-0.12171927139529626
172,0.069054,697.519,750.253,0.322124,0.00516045,0.0906108,-0.0268545,0.0667737,0.0667737,-0.130781,-1.23809e-11,2.92645e-07,1.67159e-05,0.130745,0.06905352398603837,-1.2380874103712358e-11,2.926450428653027e-07,0.06905352398603837,1.6716039711539565e-05,-0.12259009387870823
173,0.069854,698.294,753.149,0.656006,0.00651079,0.108442,0.010648,0.0675226,0.0675226,-0.132271,-3.04026e-11,6.70598e-07,1.81159e-05,0.132255,0.06985443803498437,-3.040256935094021e-11,6.705982249499698e-07,0.06985443803498437,1.8116064093964823e-05,-0.12389646115352038
174,0.070854,697.344,755.719,-0.371657,0.00934638,0.0435194,-0.115237,0.0684569,0.0684569,-0.134139,4.10642e-11,-9.67414e-07,1.71993e-05,0.134145,0.07085447012868751,4.1064263101020515e-11,-9.674135320603128e-07,0.07085447012868751,1.7199447908788912e-05,-0.12553149496705995
175,0.071104,699.269,756.008,0.23834,0.00836436,0.090857,-0.0372159,0.0686903,0.0686903,-0.134601,8.65106e-12,-1.94007e-07,1.81301e-05,0.134614,0.07110443673198352,8.651079852484145e-12,-1.9400698114679926e-07,0.07110443673198352,1.8130264351157166e-05,-0.12593540610572773
176,0.071479,700.003,755.315,-0.47004,0.00733841,0.00974028,-0.148308,0.0690404,0.0690404,-0.135302,4.99781e-11,-1.25107e-06,1.63262e-05,0.135323,0.07147949604558534,4.997802172113097e-11,-1.251069217445e-06,0.07147949604558534,1.6326333273086746e-05,-0.12654791067811288
177,0.072042,702.214,757.091,0.47237,0.00677526,0.102067,-0.00940056,0.0695652,0.0695652,-0.136342,-9.19928e-12,2.0683e-07,1.83165e-05,0.136379,0.07204195606170893,-9.199307982044047e-12,2.0683002133203843e-07,0.07204195606170893,1.831666774809726e-05,-0.1274558286518277
178,0.072886,701.553,758.356,-0.757743,0.00794981,0.00583674,-0.17468,0.0703519,0.0703519,-0.137917,6.4001e-11,-1.6751e-06,1.59148e-05,0.137971,0.07288566329726986,6.40010267005664e-11,-1.6750985970537258e-06,0.07288566329726986,1.5914926640991922e-05,-0.12882900406220432
179,0.073097,703.673,759.17,0.304757,0.00722368,0.100334,-0.0264288,0.0705485,0.0705485,-0.138303,1.32764e-11,-3.1229e-07,1.77578e-05,0.138364,0.07309661335438533,1.3276491017677472e-11,-3.122899512320032e-07,0.07309661335438533,1.7757957670561098e-05,-0.1291652111744892
180,0.073308,704.445,758.78,0.0907418,0.00656338,0.0715275,-0.0619655,0.0707451,0.0707451,-0.138695,2.30158e-11,-5.60178e-07,1.72104e-05,0.138762,0.07330760488835897,2.3015811478899195e-11,-5.601778431119087e-07,0.07330760488835897,1.7210548099777512e-05,-0.12950651151247206
181,0.073624,705.58,758.869,0.11034,0.00584558,0.0728448,-0.0585062,0.0710398,0.0710398,-0.139283,1.56597e-11,-3.84235e-07,1.71436e-05,0.139357,0.07362395525145593,1.5659695762337833e-11,-3.842349262095368e-07,0.07362395525145593,1.7143746952275052e-05,-0.13001821122924284
182,0.074099,706.513,759.449,-0.000696788,0.00536959,0.0610759,-0.0746004,0.0714818,0.0714818,-0.140164,1.61754e-11,-4.07566e-07,1.67995e-05,0.140249,0.07409860192886542,1.617550537957868e-11,-4.075659169044954e-07,0.07409860192886542,1.679964111245269e-05,-0.1307843276613091
183,0.074811,707.487,761.78,0.387418,0.0059636,0.0942918,-0.0194492,0.0721444,0.0721444,-0.141482,-7.61754e-12,1.81376e-07,1.7944e-05,0.141585,0.07481053550004857,-7.617573238860587e-12,1.81376016428203e-07,0.07481053550004857,1.7944160994431968e-05,-0.13192919928132196
184,0.075811,706.634,764.761,-0.277629,0.00883391,0.0501493,-0.105136,0.0730743,0.0730743,-0.143339,-7.02539e-11,-1.09254e-06,1.7566e-05,0.143465,0.07581046666294955,-7.025391379755774e-11,-1.0925394031691127e-06,0.07581046666294955,1.7566154283166213e-05,-0.13353971093537187
185,0.076061,708.319,764.925,0.178693,0.00792152,0.08349,-0.0471293,0.0733067,0.0733067,-0.1438,2.15225e-11,-5.12795e-07,1.82243e-05,0.143933,0.07606051406978542,2.152256151077836e-11,-5.127948685679229e-07,0.07606051406978542,1.822446606358774e-05,-0.1339390570722736
186,0.076436,709.139,764.445,-0.337236,0.00697418,0.023843,-0.128405,0.0736551,0.0736551,-0.144497,4.84208e-11,-1.25279e-06,1.68632e-05,0.144638,0.0764354788679622,4.842082290679173e-11,-1.252789215255845e-06,0.0764354788679622,1.686334218464758e-05,-0.13454249122826134
187,0.076998,710.091,765.09,-0.533373,0.00647254,0.012807,-0.151892,0.0741775,0.0741775,-0.145539,5.60862e-11,-1.53026e-06,1.61058e-05,0.145694,0.07699795566827139,5.608624675801366e-11,-1.5302588292076535e-06,0.07699795566827139,1.6105929699028465e-05,-0.13544382827424728
188,0.077842,711.793,768.742,0.704866,0.00763449,0.111905,0.0147191,0.0749607,0.0749607,-0.147093,-2.26095e-11,-1.30851e-07,1.92585e-05,0.14727,0.07784179086988141,-2.2609469851886388e-11,-1.308509914865752e-07,0.07784179086988141,1.9258685446166268e-05,-0.13678630519038126
189,0.078686,711.109,769.428,-0.735612,0.0084619,0.00701098,-0.172875,0.0757432,0.0757432,-0.148661,7.7066e-11,-2.08853e-06,1.65609e-05,0.148856,0.0786855321419575,7.706590920975032e-11,-2.0885278190219125e-06,0.0786855321419575,1.656103713254531e-05,-0.1381387636593041
190,0.079529,713.552,772.753,0.722529,0.00900784,0.114025,0.0159475,0.0765251,0.0765251,-0.150211,2.50712e-11,-5.68633e-07,1.99937e-05,0.150429,0.07952928618219435,2.507127838669021e-11,-5.686328383713857e-07,0.07952928618219435,1.999389987528133e-05,-0.1394736137995255
191,0.080162,713.859,772.212,-0.490039,0.00825848,0.0189413,-0.146027,0.0771111,0.0771111,-0.151386,7.50158e-11,-1.95535e-06,1.75323e-05,0.151617,0.08016207573312739,7.50157713724775e-11,-1.9553480883338636e-06,0.08016207573312739,1.7532453691737615e-05,-0.14048413850378427
192,0.080795,715.244,772.981,-0.492918,0.00767909,0.0187933,-0.146109,0.0776968,0.0776968,-0.152553,-1.10077e-10,-2.13269e-06,1.71249e-05,0.1528,0.08079491196888511,-1.1007694755704733e-10,-2.1326877258642796e-06,0.08079491196888511,1.7125046631871754e-05,-0.1414866084591604
193,0.081032,717.008,773.377,0.167485,0.00693399,0.0821399,-0.0502394,0.0779163,0.0779163,-0.152987,4.67457e-11,-1.1821e-06,1.82619e-05,0.153241,0.08103217249045191,4.674571840723729e-11,-1.1820993013333947e-06,0.08103217249045191,1.826206674948594e-05,-0.14185912242971044
194,0.081388,717.612,772.787,-0.441874,0.00615079,0.0124081,-0.14466,0.0782455,0.0782455,-0.153646,7.48809e-11,-2.08009e-06,1.66957e-05,0.153908,0.08138810686521936,7.488099029728801e-11,-2.0800878366422637e-06,0.08138810686521936,1.6695839373914723e-05,-0.14242445097181533
195,0.081922,718.562,773.407,-0.55255,0.00573048,0.0101577,-0.155652,0.0787392,0.0787392,-0.154631,7.67079e-11,-2.22672e-06,1.60786e-05,0.154906,0.08192211998387045,7.670797330661117e-11,-2.226717520814603e-06,0.08192211998387045,1.6078729261348457e-05,-0.1432687470035493
196,0.082723,720.288,776.835,0.726993,0.00671363,0.116071,0.0194792,0.0794792,0.0794792,-0.156099,2.62823e-11,-6.44968e-07,1.91995e-05,0.156395,0.08272303865601849,2.628230966195133e-11,-6.449677920628005e-07,0.08272303865601849,1.9199684311521636e-05,-0.14452550579629875
197,0.082973,720.311,775.641,-0.292162,0.00604913,0.0247729,-0.122798,0.07971,0.07971,-0.156565,6.43016e-11,-1.77105e-06,1.71568e-05,0.156866,0.08297295997315102,6.430167509563489e-11,-1.7710484316868502e-06,0.08297295997315102,1.71569471787425e-05,-0.14492406403931468
198,0.083348,721.348,775.734,-0.356156,0.00540884,0.0229815,-0.13021,0.0800562,0.0800562,-0.157255,6.2689e-11,-1.77839e-06,1.67306e-05,0.157565,0.08334795011894247,6.268896513006439e-11,-1.7783884186384213e-06,0.08334795011894247,1.673073995722696e-05,-0.14551386293110957
199,0.08391,723.0,777.438,0.405729,0.00523031,0.098876,-0.0166504,0.0805753,0.0805753,-0.158285,2.06607e-11,-5.37882e-07,1.83498e-05,0.158611,0.08391046202718355,2.0660806399064313e-11,-5.378818553891662e-07,0.08391046202718355,1.8349968358588598e-05,-0.14639353054569915
200,0.084754,723.499,780.23,0.716098,0.00666536,0.113003,0.0159239,0.0813534,0.0813535,-0.159835,-2.96632e-11,-1.93559e-07,1.97669e-05,0.160181,0.08475418096397092,-2.966316081653986e-11,-1.9355898128736726e-07,0.08475428943939445,1.9767095366551857e-05,-0.14771559570816395
201,0.085754,722.412,782.282,-0.360319,0.00906514,0.0434072,-0.115686,0.0822749,0.0822749,-0.161678,6.81406e-11,-1.78548e-06,1.86203e-05,0.162047,0.08575424264938292,6.814060427018376e-11,-1.7854784060133966e-06,0.08575424264938292,1.862047335876582e-05,-0.1492849092985995
202,0.086004,724.221,782.499,0.226755,0.00814733,0.0900299,-0.0410705,0.0825051,0.0825051,-0.162134,4.08746e-11,-1.02526e-06,1.95063e-05,0.16251,0.08600421204641462,4.087463700841454e-11,-1.0252594744297738e-06,0.08600421204641462,1.9506490249066033e-05,-0.14967274694625532
203,0.086379,724.894,781.754,-0.4314,0.00717217,0.0134069,-0.144592,0.0828504,0.0828504,-0.162826,7.3039e-11,-2.01474e-06,1.78126e-05,0.16321,0.08637927405156276,7.303890825482995e-11,-2.0147379704571478e-06,0.08637927405156276,1.781275864520815e-05,-0.15026096985676818
204,0.086942,726.859,783.222,0.388268,0.00659711,0.0956751,-0.0228523,0.083368,0.083368,-0.163853,2.78733e-11,-7.06599e-07,1.95043e-05,0.164252,0.08694172951472834,2.787325925623918e-11,-7.065987503995785e-07,0.08694172951472834,1.9504490210042746e-05,-0.15113320387189433
205,0.087785,727.655,785.736,0.742748,0.00759025,0.115366,0.0179476,0.084144,0.084144,-0.165398,1.12962e-11,-2.68189e-07,2.10215e-05,0.165819,0.0877855236466123,1.1296297230956043e-11,-2.6818896403657533e-07,0.0877855236466123,2.102172095330701e-05,-0.15244369046034234
206,0.088785,726.632,787.418,-0.444847,0.00962328,0.037519,-0.12781,0.0850628,0.0850628,-0.167237,7.74859e-11,-1.99829e-06,1.95664e-05,0.16768,0.08878544027709534,7.748579555766355e-11,-1.99828800340196e-06,0.08878544027709534,1.956659142332562e-05,-0.15400091420748296
207,0.089035,728.581,787.705,0.257493,0.00864988,0.0940218,-0.0375725,0.0852924,0.0852924,-0.16769,4.51001e-11,-1.1045e-06,2.066e-05,0.168141,0.08903545411467317,4.5100145840137884e-11,-1.1044993900588551e-06,0.08903545411467317,2.0660213419176898e-05,-0.15438406500313961
208,0.08941,729.909,787.516,0.221655,0.0076022,0.0839848,-0.046824,0.0856367,0.0856367,-0.168377,4.14887e-11,-1.02974e-06,2.04686e-05,0.168837,0.0894104735774206,4.148859034103225e-11,-1.029739469804447e-06,0.0894104735774206,2.046880948314289e-05,-0.15496480364391851
209,0.089973,730.882,787.878,0.0135059,0.00692738,0.0629111,-0.0763928,0.0861529,0.0861529,-0.169407,4.65082e-11,-1.18962e-06,1.99823e-05,0.169881,0.08997297243234548,4.650813067996751e-11,-1.1896192924076843e-06,0.08997297243234548,1.9982499647408503e-05,-0.15583474180110446
210,0.090817,732.002,790.563,0.652483,0.00778035,0.114491,0.0111196,0.0869267,0.0869267,-0.170946,1.46499e-11,-3.43012e-07,2.20273e-05,0.171442,0.09081671992221674,1.464983689913879e-11,-3.430119411840238e-07,0.09081671992221674,2.2027542602831574e-05,-0.15713291293455656
211,0.091817,730.829,791.978,-0.701091,0.00968804,0.0202786,-0.161277,0.087843,0.087843,-0.172781,9.21272e-11,-2.40988e-06,1.99268e-05,0.173299,0.09181669335054243,9.212719476181519e-11,-2.409877096209989e-06,0.09181669335054243,1.992699853992086e-05,-0.15867815584535272
212,0.092067,733.106,792.593,0.341019,0.00871606,0.104738,-0.0252834,0.088072,0.088072,-0.173232,-7.51242e-11,-1.13846e-06,2.16306e-05,0.173757,0.09206674800348469,-7.512424016198338e-11,-1.1384593519014885e-06,0.09206674800348469,2.1630833943131478e-05,-0.15905750644707572
213,0.092442,734.442,792.399,0.323025,0.007662,0.0949618,-0.0326529,0.0884153,0.0884153,-0.173916,4.21427e-11,-1.02813e-06,2.15057e-05,0.174451,0.09244171887814212,4.214273374714139e-11,-1.028129471447592e-06,0.09244171887814212,2.150593124916611e-05,-0.1596325144375148
214,0.093004,735.225,792.544,-0.0655003,0.00696712,0.0556588,-0.0888456,0.0889301,0.0889301,-0.174945,5.67772e-11,-1.45322e-06,2.06192e-05,0.175493,0.0930042526587922,5.6777249568540356e-11,-1.4532189440696897e-06,0.0930042526587922,2.0619412577138618e-05,-0.16049680782494835
215,0.093848,736.505,795.336,0.742216,0.00776877,0.115984,0.0158928,0.0897017,0.0897017,-0.176479,2.05241e-11,-4.77128e-07,2.29e-05,0.177049,0.09384794019293596,2.0524026922430494e-11,-4.77127886200357e-07,0.09384794019293596,2.2900262206970723e-05,-0.16178361848562928
216,0.094098,736.594,794.068,-0.24157,0.00700053,0.029932,-0.119681,0.0899303,0.0899303,-0.17694,6.01115e-11,-1.53179e-06,2.09454e-05,0.177515,0.0940980224153729,6.011147135609463e-11,-1.5317888267807334e-06,0.0940980224153729,2.0945619356504963e-05,-0.16216994718190092
217,0.094473,737.66,793.99,-0.317286,0.00621404,0.0258709,-0.129326,0.090273,0.090273,-0.177624,5.95886e-11,-1.55756e-06,2.04981e-05,0.178208,0.09447303406223018,5.958855631149618e-11,-1.5575587870575447e-06,0.09447303406223018,2.0498310087546656e-05,-0.16274282699079845
218,0.095035,739.293,795.402,0.37852,0.00582393,0.0960978,-0.0252633,0.0907868,0.0907868,-0.178644,1.61638e-11,-3.96867e-07,2.1947e-05,0.179244,0.0950355187970855,1.6163737015517654e-11,-3.968669212150999e-07,0.0950355187970855,2.194724083715016e-05,-0.16359639391413272
219,0.095879,739.887,797.94,0.74304,0.00693426,0.115607,0.0156857,0.091557,0.091557,-0.180178,-2.50905e-12,5.82689e-08,2.34018e-05,0.180799,0.09587924002900095,-2.5091040356528538e-12,5.826890170368415e-08,0.09587924002900095,2.340207382434123e-05,-0.16487845345479357
220,0.096879,738.663,799.571,-0.456483,0.00901341,0.035189,-0.133072,0.0924691,0.0924691,-0.182004,6.66833e-11,-1.67925e-06,2.17987e-05,0.182647,0.09687924746789611,6.668332552806078e-11,-1.6792485900696263e-06,0.09687924746789611,2.179893759346463e-05,-0.16640199398295752
221,0.097129,740.544,799.883,0.255288,0.00812294,0.0930097,-0.0410848,0.092697,0.092697,-0.182454,3.20912e-11,-7.70761e-07,2.29122e-05,0.183105,0.09712925473564016,3.2091218571395075e-11,-7.707607029283636e-07,0.09712925473564016,2.291246248642409e-05,-0.166777028696526
222,0.097504,741.775,799.692,0.214594,0.00716631,0.0825632,-0.0509174,0.0930387,0.0930387,-0.183136,2.91046e-11,-7.08209e-07,2.26994e-05,0.183796,0.09750420785907621,2.910449659054848e-11,-7.082087492005229e-07,0.09750420785907621,2.2699657633351578e-05,-0.16734509303099854
223,0.098067,742.665,800.041,0.0210867,0.00656594,0.0627578,-0.0783941,0.0935511,0.0935511,-0.184159,3.40087e-11,-8.49989e-07,2.22228e-05,0.184832,0.09806671311672277,3.4008795779527645e-11,-8.4998863880692e-07,0.09806671311672277,2.2223046928226964e-05,-0.16819646345060946
224,0.09891,743.634,802.594,0.610044,0.00742412,0.110887,0.00285371,0.0943192,0.0943192,-0.185687,2.34209e-12,-5.44494e-08,2.40885e-05,0.186383,0.09891046215940502,2.3421264927492302e-12,-5.444939854548636e-08,0.09891046215940502,2.4088790130161186e-05,-0.16946648870805736
225,0.09991,742.508,804.046,-0.595038,0.00928785,0.0259513,-0.151385,0.0952288,0.0952288,-0.187508,7.51638e-11,-1.91091e-06,2.22423e-05,0.188226,0.09991048585761386,7.51638751239625e-11,-1.9109081742518796e-06,0.09991048585761386,2.2242547361717158e-05,-0.17097751402601624
226,0.1002,744.575,804.508,0.292824,0.0083741,0.0978253,-0.0360693,0.0954561,0.0954561,-0.187956,3.39459e-11,-8.13022e-07,2.36665e-05,0.188682,0.1001605239267993,3.394595715633386e-11,-8.130216695434456e-07,0.1001605239267993,2.366678005372158e-05,-0.17134883291809033
227,0.1005,745.832,804.286,0.262706,0.00738194,0.0877948,-0.044627,0.0957969,0.0957969,-0.188636,3.01633e-11,-7.30531e-07,2.34882e-05,0.189371,0.10053552252948594,3.016320526683103e-11,-7.305307331284538e-07,0.10053552252948594,2.3488475849875456e-05,-0.17191212417097457
228,0.1011,746.653,804.489,-0.0182289,0.00672903,0.059057,-0.0850374,0.0963079,0.0963079,-0.189657,3.99978e-11,-1.00274e-06,2.28133e-05,0.190405,0.10109803989244415,3.999778286356559e-11,-1.0027394972134118e-06,0.10109803989244415,2.2813560225376506e-05,-0.17275717042267524
229,0.1019,747.822,807.141,0.749826,0.00750601,0.121781,0.0208461,0.0970738,0.0970738,-0.19118,-2.64737e-12,6.0799e-08,2.51028e-05,0.191951,0.10194169391726593,-2.6473268022186858e-12,6.07990018330895e-08,0.10194169391726593,2.510311507797347e-05,-0.1740161023321284
230,0.1022,747.861,805.862,-0.237833,0.00677783,0.029517,-0.121847,0.0973007,0.0973007,-0.191638,4.30381e-11,-1.07904e-06,2.30489e-05,0.192413,0.10219175285572946,4.303801759419912e-11,-1.0790394178172846e-06,0.10219175285572946,2.3049165627897494e-05,-0.1743943163396413
231,0.1026,748.882,805.766,-0.30592,0.00603027,0.0258338,-0.130714,0.0976409,0.0976409,-0.192317,4.28576e-11,-1.09922e-06,2.26104e-05,0.193101,0.1025667822789389,4.285749533039507e-11,-1.0992193958392349e-06,0.1025667822789389,2.26106556169281e-05,-0.17495471232287985
232,0.1031,750.427,807.088,0.356503,0.00565745,0.0933313,-0.0313127,0.0981509,0.0981509,-0.19333,-7.41674e-13,1.80397e-08,2.39676e-05,0.19413,0.10312923475109037,-7.416289804496046e-13,1.803970017810741e-08,0.10312923475109037,2.3967887225140316e-05,-0.17579006002425202
233,0.104,750.908,809.464,0.665906,0.00671857,0.109437,0.00311101,0.0989155,0.0989155,-0.194853,-1.72713e-11,4.02498e-07,2.52114e-05,0.195674,0.10397300989811287,-1.727129550488371e-11,4.024980810868328e-07,0.10397300989811287,2.521171781011411e-05,-0.17704437635849468
234,0.105,749.836,811.185,-0.316439,0.00871401,0.0434559,-0.118412,0.0998209,0.0998209,-0.196665,4.22354e-11,-1.04274e-06,2.40179e-05,0.197509,0.10497299968834084,4.223532634739513e-11,-1.0427394563361503e-06,0.10497299968834084,2.4018188432117782e-05,-0.178534221740977
235,0.1052,751.47,811.295,0.195443,0.00786828,0.0844142,-0.0536163,0.100047,0.100047,-0.197113,1.52858e-11,-3.66868e-07,2.47627e-05,0.197964,0.10522286232947753,1.528577264764408e-11,-3.668679326995772e-07,0.10522286232947753,2.4763006598149673e-05,-0.17890215598621229
236,0.1056,752.138,810.579,-0.354065,0.00695477,0.0192709,-0.140328,0.100386,0.100386,-0.197793,4.67224e-11,-1.19605e-06,2.3296e-05,0.198652,0.10559759639364241,4.672240372372016e-11,-1.1960492847240545e-06,0.10559759639364241,2.3296271354000808e-05,-0.17946031272534269
237,0.1062,753.037,810.943,-0.48048,0.00637748,0.0141407,-0.154209,0.100895,0.100895,-0.198808,5.15052e-11,-1.36309e-06,2.26489e-05,0.199681,0.10616048881417495,5.150524451380534e-11,-1.363089070949286e-06,0.10616048881417495,2.264915648830801e-05,-0.18029273798064405
238,0.107,754.532,813.969,0.686738,0.00719208,0.111395,0.00537949,0.101657,0.101657,-0.200322,-2.36381e-11,8.56389e-08,2.54999e-05,0.201218,0.10700370433096262,-2.3638091484201595e-11,8.56389037462435e-08,0.10700370433096262,2.5500225125263398e-05,-0.18153283578442492
239,0.1073,754.586,812.747,-0.248954,0.00650459,0.0273574,-0.124899,0.101883,0.101883,-0.200778,3.72642e-11,-9.5593e-07,2.35968e-05,0.201678,0.10725391544093177,3.726419173233353e-11,-9.559295430783266e-07,0.10725391544093177,2.3597078406600858e-05,-0.18190597172984602
240,0.1076,755.595,812.681,-0.286963,0.00580125,0.0273146,-0.128886,0.102222,0.102222,-0.201453,-7.37209e-11,-9.24446e-07,2.32282e-05,0.202363,0.10762933814881981,-7.372091825885718e-11,-9.24445572647592e-07,0.10762933814881981,2.3228469776759297e-05,-0.1824579988688091
241,0.1082,757.031,813.924,0.313834,0.00546376,0.0890721,-0.038398,0.10273,0.10273,-0.202462,-4.11278e-12,1.02727e-07,2.44373e-05,0.203388,0.10819215679643235,-4.1128211947238924e-12,1.027270053466367e-07,0.10819215679643235,2.44375985931633e-05,-0.1832824827258953
242,0.109,756.18,814.991,-0.655063,0.00652535,0.0122632,-0.16992,0.103491,0.103491,-0.203986,4.93195e-11,-1.3564e-06,2.23601e-05,0.20493,0.10903581199784385,4.931943742292333e-11,-1.3563990800546932e-06,0.10903581199784385,2.2360349988925776e-05,-0.18452621225959498
243,0.1093,758.053,815.691,0.29292,0.00592094,0.096181,-0.0373841,0.103716,0.103716,-0.20443,4.1062e-12,-1.05396e-07,2.40105e-05,0.205382,0.10928537313011777,4.106270878878604e-12,-1.0539599448744497e-07,0.10928537313011777,2.401078825431391e-05,-0.18488820225362634
244,0.1097,759.005,815.683,0.265612,0.00530875,0.0869834,-0.0448642,0.104054,0.104054,-0.205104,6.79014e-13,-1.76083e-08,2.38437e-05,0.206066,0.10966037495797454,6.790124018607457e-13,-1.760829981822809e-08,0.10966037495797454,2.384398426324985e-05,-0.1854374025040323
245,0.1102,759.475,816.094,-0.0211538,0.00507046,0.0575056,-0.0863183,0.104561,0.104561,-0.206117,1.13272e-11,-3.04133e-07,2.31418e-05,0.207092,0.11022311541072871,1.1327161431040622e-11,-3.041329537101234e-07,0.11022311541072871,2.314206777342953e-05,-0.18626213661694113
246,0.1111,760.293,818.91,0.741982,0.0062137,0.120403,0.0196698,0.105321,0.105321,-0.207628,-3.12349e-11,7.70136e-07,2.53849e-05,0.208625,0.11106720569211892,-3.123490355250169e-11,7.701362965129022e-07,0.11106720569211892,2.538522219919237e-05,-0.18749076606520565
247,0.1121,758.531,820.027,-0.813862,0.00824856,0.00145132,-0.189428,0.10622,0.10622,-0.209432,5.92708e-11,-1.66686e-06,2.24482e-05,0.210451,0.11206650422742492,5.927081048184846e-11,-1.6668586108048444e-06,0.11206650422742492,2.2448451962642224e-05,-0.18895521139637583
248,0.1123,760.311,820.348,-0.102578,0.00746324,0.0459791,-0.101522,0.106445,0.106445,-0.209876,3.7675e-11,-1.01845e-06,2.3403e-05,0.210902,0.11231674734217068,3.767497425144484e-11,-1.0184494814158285e-06,0.11231674734217068,2.3403273852418138e-05,-0.18931523535128336
249,0.1126,761.245,819.994,-0.148713,0.00675753,0.0390099,-0.109675,0.10667,0.10667,-0.210324,3.81572e-11,-1.04712e-06,2.31027e-05,0.211357,0.11256704676795226,3.8157255133342005e-11,-1.0471194518135718e-06,0.11256704676795226,2.310296686935942e-05,-0.1896783407841559
250,0.1129,762.557,820.199,0.121155,0.00602079,0.0717894,-0.0664977,0.107007,0.107007,-0.210995,1.71258e-11,-4.62983e-07,2.35259e-05,0.212038,0.11294204504637384,1.7125856288657815e-11,-4.629828928015556e-07,0.11294204504637384,2.3526176736066162e-05,-0.19022188423826714
251,0.1135,763.07,820.473,-0.19686,0.00562549,0.0411216,-0.112222,0.107512,0.107512,-0.212005,2.96392e-11,-8.36126e-07,2.26526e-05,0.213061,0.11350422271703664,2.9639179999207954e-11,-8.361256504940684e-07,0.11350422271703664,2.265285657210292e-05,-0.191039347246876
252,0.1143,764.05,823.249,0.652016,0.00657787,0.108527,0.00142463,0.108269,0.108269,-0.213511,-8.64389e-12,2.23763e-07,2.48605e-05,0.214589,0.11434746454039546,-8.643863402824081e-12,2.237630249979361e-07,0.11434746454039546,2.4860809024751518e-05,-0.19225672507433
253,0.1153,762.439,824.354,-0.804189,0.00844484,0.00204827,-0.188269,0.109166,0.109166,-0.215309,6.94446e-11,-2.03323e-06,2.21648e-05,0.216409,0.11534748265716166,6.944467223490847e-11,-2.033227933018189e-06,0.11534748265716166,2.2165045640898384e-05,-0.193707742626962
254,0.1156,764.214,824.654,-0.0983801,0.0076435,0.0466848,-0.100755,0.109391,0.109391,-0.215752,4.9109e-11,-1.38133e-06,2.3119e-05,0.21686,0.11559846407511021,4.91089391374544e-11,-1.38132904592414e-06,0.11559846407511021,2.3119267246185515e-05,-0.19406485099163528
255,0.1158,765.145,824.283,-0.147476,0.00692277,0.0393704,-0.109336,0.109615,0.109615,-0.216199,4.9511e-11,-1.41412e-06,2.28146e-05,0.217313,0.11584838612128712,4.951106191697363e-11,-1.4141190001204507e-06,0.11584838612128712,2.2814860255016e-05,-0.1944250234986895
256,0.1162,766.456,824.463,0.12133,0.0061632,0.0720637,-0.0663427,0.109951,0.109951,-0.216867,2.95069e-11,-8.30006e-07,2.32369e-05,0.217992,0.11622337417348882,2.9506841414672635e-11,-8.300056555388124e-07,0.11622337417348882,2.3237169978873595e-05,-0.19496296788956224
257,0.1168,766.974,824.702,-0.195328,0.00573152,0.0413987,-0.111917,0.110454,0.110454,-0.217874,4.09031e-11,-1.20095e-06,2.23651e-05,0.219012,0.11678497576165658,4.090305871784494e-11,-1.2009492789122334e-06,0.11678497576165658,2.236535010080587e-05,-0.19577323214437448
258,0.1176,767.939,827.404,0.634969,0.00662256,0.107636,-0.000570613,0.11121,0.11121,-0.219376,5.77351e-12,-1.55684e-07,2.45194e-05,0.220536,0.11762958442518023,5.773603817260664e-12,-1.5568398792353833e-07,0.11762958442518023,2.4519700603020667e-05,-0.19698027403431007
259,0.1186,766.366,828.493,-0.781361,0.00842452,0.00358355,-0.18543,0.112104,0.112104,-0.221169,7.73665e-11,-2.35571e-06,2.18908e-05,0.222351,0.11862919203167954,7.736655760481881e-11,-2.355707225287773e-06,0.11862919203167954,2.189103960525962e-05,-0.1984187983805037
260,0.1189,768.11,828.771,-0.0944786,0.00762982,0.0473278,-0.10002,0.112328,0.112328,-0.22161,5.85471e-11,-1.71335e-06,2.2822e-05,0.2228,0.11887979303695939,5.854716711439778e-11,-1.7133485321618735e-06,0.11887979303695939,2.2822260423716045e-05,-0.19877221775571785
261,0.1191,769.03,828.397,-0.142619,0.00691455,0.0401708,-0.108403,0.112551,0.112551,-0.222056,5.86603e-11,-1.74296e-06,2.25227e-05,0.223252,0.11912933105326129,5.866040986290955e-11,-1.7429584810990661e-06,0.11912933105326129,2.2522953637915677e-05,-0.19912948566993172
262,0.1195,770.322,828.558,0.117772,0.0061581,0.0718961,-0.0667349,0.112886,0.112886,-0.222723,4.00175e-11,-1.17152e-06,2.29279e-05,0.223929,0.11950430218332175,4.001754483340392e-11,-1.1715193137806779e-06,0.11950430218332175,2.292816284632515e-05,-0.19966348819335067
263,0.1201,770.841,828.79,-0.185272,0.00572093,0.0424586,-0.11035,0.113388,0.113388,-0.223727,4.98274e-11,-1.52108e-06,2.20864e-05,0.224946,0.12006643442640574,4.98274754789918e-11,-1.5210788431030409e-06,0.12006643442640574,2.208664390623838e-05,-0.20046662281016248
264,0.1209,771.754,831.413,0.603423,0.00658413,0.105561,-0.0044955,0.114141,0.114141,-0.225225,1.8626e-11,-5.23832e-07,2.41338e-05,0.226467,0.12091016207512184,1.8625989639531326e-11,-5.238318627753813e-07,0.12091016207512184,2.4134091222594023e-05,-0.20166342717891783
265,0.1219,771.764,834.023,0.770772,0.00834316,0.113833,0.0122972,0.115033,0.115033,-0.227003,1.44593e-11,-3.85677e-07,2.56463e-05,0.22827,0.12191046000624506,1.4459322628113114e-11,-3.856769256183057e-07,0.12191046000624506,2.564662886905822e-05,-0.2030816084686211
266,0.1229,771.108,835.107,-0.162554,0.009556,0.0541252,-0.0975704,0.115924,0.115924,-0.228786,5.7165e-11,-1.59838e-06,2.46566e-05,0.230076,0.12291052769010258,5.716493944873946e-11,-1.5983787226003798e-06,0.12291052769010258,2.465690397635001e-05,-0.204501247976004
267,0.1232,772.555,834.911,0.141829,0.00864862,0.0776325,-0.0637102,0.116147,0.116147,-0.229228,4.19822e-11,-1.1604e-06,2.49907e-05,0.230525,0.12316096466046189,4.1982195497780594e-11,-1.1603993267383927e-06,0.12316096466046189,2.4991012270048074e-05,-0.20485278072993696
268,0.1235,773.464,834.246,-0.20084,0.00763693,0.0358043,-0.118349,0.11648,0.11648,-0.229896,-1.02166e-10,-1.64553e-06,2.39998e-05,0.231202,0.12353503954170475,-1.0216605339508078e-10,-1.6455286461214413e-06,0.12353503954170475,2.4000087997411157e-05,-0.20538376170501893
269,0.1241,775.254,835.209,0.510472,0.00689342,0.108307,-0.0112885,0.116981,0.116981,-0.230891,1.425e-11,-3.8823e-07,2.55373e-05,0.232212,0.124098071624275,1.424993456566881e-11,-3.8822992465270545e-07,0.124098071624275,2.5537626079596976e-05,-0.20617401164757876
270,0.1249,774.479,835.612,-0.6377,0.00740988,0.00845827,-0.172572,0.117731,0.117731,-0.232394,7.02832e-11,-2.1388e-06,2.3011e-05,0.233734,0.12494146140962892,7.028311266310538e-11,-2.13879771271408e-06,0.12494146140962892,2.3011264755012917e-05,-0.20736623592708925
271,0.1252,776.359,836.204,0.292813,0.00673038,0.0962959,-0.0394348,0.117953,0.117953,-0.232832,2.92422e-11,-8.31225e-07,2.46811e-05,0.23418,0.1251912261369208,2.9242164245602e-11,-8.312246545516544e-07,0.1251912261369208,2.468140458078416e-05,-0.20771333349583665
272,0.1256,777.328,836.035,0.245022,0.00600418,0.0850838,-0.0496919,0.118287,0.118287,-0.233497,2.71044e-11,-7.79571e-07,2.44619e-05,0.234854,0.12556710277435457,2.7104318789383797e-11,-7.795706961077897e-07,0.12556710277435457,2.4462199194719147e-05,-0.20824002898340244
273,0.1261,777.898,836.286,0.00506938,0.00558774,0.0598683,-0.0843154,0.118786,0.118786,-0.234496,3.36962e-11,-9.98453e-07,2.38454e-05,0.235866,0.1261289009156179,3.36961569757932e-11,-9.984525015660495e-07,0.1261289009156179,2.3845684303802628e-05,-0.20903060223735825
274,0.127,778.636,838.673,0.629237,0.0064357,0.112372,0.00321304,0.119535,0.119535,-0.235986,3.04997e-12,-8.44247e-08,2.56875e-05,0.237379,0.12697268742100287,3.05000469325023e-12,-8.442469645597583e-08,0.12697268742100287,2.5687829926734906e-05,-0.21020826906036327
275,0.128,777.173,839.778,-0.647734,0.00815928,0.0183498,-0.163473,0.120422,0.120422,-0.237764,6.55382e-11,-2.00498e-06,2.34165e-05,0.239178,0.12797275565944055,6.553824150046239e-11,-2.0049779900777054e-06,0.12797275565944055,2.3416774168394383e-05,-0.21161127111953604
276,0.1282,779.129,840.305,0.290954,0.00740668,0.0965327,-0.039695,0.120644,0.120644,-0.2382,2.85707e-11,-8.21262e-07,2.49675e-05,0.239623,0.12822319340875854,2.8570701360308703e-11,-8.21261662786732e-07,0.12822319340875854,2.496781169059048e-05,-0.21195493368144536
277,0.1286,780.184,840.039,0.24291,0.00658365,0.0847732,-0.0505998,0.120976,0.120976,-0.238864,2.67577e-11,-7.78472e-07,2.47368e-05,0.240296,0.12859782569448863,2.6757707161095823e-11,-7.784716969938543e-07,0.12859782569448863,2.473710595718437e-05,-0.21247802192096643
278,0.1292,780.858,840.171,0.00539672,0.00604493,0.0596973,-0.0848732,0.121474,0.121474,-0.239859,3.3246e-11,-9.96071e-07,2.41205e-05,0.241305,0.12916000738330635,3.324607256161016e-11,-9.960705039668838e-07,0.12916000738330635,2.41207909015273e-05,-0.21326121658519437
279,0.13,781.693,842.408,0.619537,0.00674337,0.111616,0.00138415,0.122221,0.122221,-0.241346,3.20511e-12,-8.98931e-08,2.59258e-05,0.242814,0.1300038050280048,3.205213872092827e-12,-8.989309596696415e-08,0.1300038050280048,2.5926136076437345e-05,-0.21443022778090148
280,0.131,780.338,843.422,-0.627616,0.00833197,0.019404,-0.161518,0.123106,0.123106,-0.243118,6.37306e-11,-1.96929e-06,2.37037e-05,0.244608,0.1310043010496429,6.373057637176771e-11,-1.9692880609545327e-06,0.1310043010496429,2.3703980934985935e-05,-0.21582102480718512
281,0.1313,782.273,843.902,0.281812,0.00756546,0.0952465,-0.041692,0.123327,0.123327,-0.243554,2.80704e-11,-8.17261e-07,2.52025e-05,0.245052,0.13125428062190014,2.8070434865412608e-11,-8.172606660306059e-07,0.13125428062190014,2.5202817585778803e-05,-0.21616285231655707
282,0.1316,783.339,843.607,0.232249,0.00672158,0.0835087,-0.0527002,0.123658,0.123658,-0.244216,2.64175e-11,-7.78584e-07,2.49641e-05,0.245723,0.13162878776629916,2.6417534826350675e-11,-7.785836969587123e-07,0.13162878776629916,2.496441160571017e-05,-0.21668158079025457
283,0.1322,784.046,843.715,0.011931,0.00615048,0.0601641,-0.0844214,0.124155,0.124155,-0.245208,3.20594e-11,-9.71382e-07,2.43809e-05,0.246729,0.13219134705822322,3.2059466192890795e-11,-9.71381528214188e-07,0.13219134705822322,2.438119721648313e-05,-0.21745824737179542
284,0.133,784.862,845.86,0.587985,0.00679583,0.109075,-0.00333294,0.1249,0.1249,-0.246692,4.07287e-12,-1.16061e-07,2.60801e-05,0.248235,0.13303514388707294,4.072964188139849e-12,-1.1606099326044728e-07,0.13303514388707294,2.6080440088671608e-05,-0.21861867808014634
285,0.134,783.622,846.922,-0.556008,0.00832784,0.0242488,-0.15283,0.125783,0.125783,-0.248459,5.96005e-11,-1.85224e-06,2.40843e-05,0.250024,0.13403605575668243,5.960054672016213e-11,-1.852238284638652e-06,0.13403605575668243,2.4084590029005426e-05,-0.21999815974499948
286,0.1343,785.452,847.299,0.254407,0.00756493,0.0915424,-0.0466223,0.126003,0.126003,-0.248894,2.76884e-11,-8.17374e-07,2.53991e-05,0.250467,0.13428557113463402,2.768829610033663e-11,-8.173736659733422e-07,0.13428557113463402,2.53994225598575e-05,-0.22033738675828574
287,0.1347,786.509,846.993,0.203792,0.00672331,0.0802296,-0.0574948,0.126333,0.126333,-0.249554,2.6197e-11,-7.83112e-07,2.51486e-05,0.251136,0.13465994714175222,2.619704453366012e-11,-7.831116933809668e-07,0.13465994714175222,2.5148916228623364e-05,-0.22085179430986035
288,0.1352,787.255,847.128,0.0280989,0.00614744,0.061535,-0.0825645,0.126829,0.126829,-0.250544,2.97009e-11,-9.09093e-07,2.46582e-05,0.25214,0.1352228780708642,2.970090839937711e-11,-9.090925867649702e-07,0.1352228780708642,2.4658504016006333e-05,-0.22162276933788527
289,0.1361,787.979,849.154,0.51656,0.00676982,0.103276,-0.0135158,0.127572,0.127572,-0.252023,6.19401e-12,-1.79983e-07,2.61272e-05,0.253642,0.13606666209621876,6.193934254383748e-12,-1.7998298385002443e-07,0.13606666209621876,2.61275413182549e-05,-0.22277313835444978
290,0.1371,786.969,850.411,-0.393938,0.0082692,0.0357675,-0.132295,0.128452,0.128452,-0.253785,5.13794e-11,-1.59185e-06,2.46745e-05,0.255426,0.1370668407729363,5.1379345222812844e-11,-1.5918487330512932e-06,0.1370668407729363,2.4674804417923468e-05,-0.22414140628662227
291,0.1381,786.869,851.815,-0.77781,0.00929247,0.00179332,-0.189206,0.129331,0.129331,-0.255541,-1.56583e-10,-2.81823e-06,2.35914e-05,0.257206,0.13806676192694112,-1.5658296881326805e-10,-2.8182260287668015e-06,0.13806676192694112,2.359167827936659e-05,-0.2255026184830956
292,0.1388,789.421,853.595,0.586267,0.00864553,0.108391,-0.00823122,0.12999,0.12999,-0.256848,3.88556e-11,-1.14044e-06,2.63597e-05,0.258534,0.13881699509772982,3.885558541583123e-11,-1.140439349733846e-06,0.13881699509772982,2.6360047419959898e-05,-0.22651422533165633
293,0.1396,789.331,852.986,-0.562319,0.00816143,0.0108,-0.166471,0.130648,0.130648,-0.258168,8.23454e-11,-2.69123e-06,2.37937e-05,0.259871,0.13956658326796667,8.234546378105279e-11,-2.691226378637168e-06,0.13956658326796667,2.379398307228442e-05,-0.2275345529898125
294,0.1398,791.171,853.382,0.272567,0.00742221,0.0939316,-0.0446636,0.130867,0.130867,-0.258601,4.68935e-11,-1.44252e-06,2.53217e-05,0.260312,0.1398161756790739,4.689360011411736e-11,-1.4425189596156685e-06,0.1398161756790739,2.532202059701838e-05,-0.22786895812443153
295,0.1402,792.201,853.049,0.20876,0.00660506,0.0814305,-0.0569086,0.131196,0.131196,-0.259258,4.56159e-11,-1.42179e-06,2.50542e-05,0.260978,0.1401912368950593,4.561595545737873e-11,-1.4217889892087499e-06,0.1401912368950593,2.5054513859146255e-05,-0.22837608161063694
296,0.1408,792.937,853.156,0.0347262,0.0060451,0.0627444,-0.0817639,0.13169,0.13169,-0.260243,4.83263e-11,-1.54198e-06,2.45667e-05,0.261977,0.14075463051285153,4.8326231905093664e-11,-1.541978811192557e-06,0.14075463051285153,2.4567001763786678e-05,-0.22913575696871524
297,0.1416,793.63,855.106,0.500872,0.00665279,0.102718,-0.015732,0.132429,0.132429,-0.261716,2.73783e-11,-8.31087e-07,2.59684e-05,0.263471,0.14159795975657619,2.7378321831861285e-11,-8.310866546068496e-07,0.14159795975657619,2.5968737181747414e-05,-0.2302704041259127
298,0.1426,792.661,856.355,-0.35711,0.00811867,0.0386957,-0.127909,0.133305,0.133305,-0.263468,6.69723e-11,-2.1596e-06,2.4609e-05,0.265247,0.14259843771469005,6.697220555906824e-11,-2.1595976680277573e-06,0.14259843771469005,2.4609302804012856e-05,-0.23161778972345015
299,0.1436,792.529,857.701,-0.750185,0.00912346,0.00389359,-0.186167,0.134179,0.134179,-0.265216,9.89656e-11,-3.36228e-06,2.35117e-05,0.267019,0.14359750527818105,9.896550245969138e-11,-3.3622743474959194e-06,0.14359750527818105,2.351197640226843e-05,-0.2329597486132472
300,0.1443,794.995,859.403,0.558723,0.0084967,0.106746,-0.0120671,0.134835,0.134835,-0.266517,5.65454e-11,-1.73471e-06,2.61653e-05,0.268341,0.1443479513610466,5.654543500099862e-11,-1.734708495404469e-06,0.1443479513610466,2.616564231439078e-05,-0.23395701911517486
301,0.1451,794.949,858.842,-0.516891,0.00802626,0.0148287,-0.160592,0.13549,0.13549,-0.267831,9.37622e-11,-3.1847e-06,2.37488e-05,0.269671,0.1450977447997326,9.37621091878782e-11,-3.184694928881626e-06,0.1450977447997326,2.374908200497572e-05,-0.23496293855824868
302,0.1461,796.468,861.766,0.722219,0.00902579,0.112278,0.00326307,0.136363,0.136363,-0.269566,6.04808e-11,-1.81967e-06,2.6984e-05,0.271433,0.14609785161404965,6.048073153408495e-11,-1.8196683444493544e-06,0.14609785161404965,2.698436407144733e-05,-0.2362891270586488
303,0.1468,797.455,862.004,0.568121,0.00842366,0.10744,-0.0119363,0.137017,0.137017,-0.270872,5.34005e-11,-1.60458e-06,2.71491e-05,0.272758,0.14684764476464074,5.340039521684048e-11,-1.6045787126772737e-06,0.14684764476464074,2.714946854021072e-05,-0.23728588243577386
304,0.1476,797.898,861.916,-0.0134695,0.00796258,0.0618603,-0.0866205,0.137671,0.137671,-0.27218,6.94418e-11,-2.17983e-06,2.61129e-05,0.274084,0.14759792844033637,6.944178565504444e-11,-2.179827624182451e-06,0.14759792844033637,2.611324094470291e-05,-0.2382828603358601
305,0.1486,798.929,864.345,0.747942,0.00896081,0.113761,0.00483348,0.138542,0.138542,-0.273915,4.81514e-11,-1.39867e-06,2.8399e-05,0.275844,0.14859792166983965,4.8151482801017664e-11,-1.3986690218237285e-06,0.14859792166983965,2.8399403255496836e-05,-0.23960329376594336
306,0.1496,797.967,864.368,-0.695271,0.00966788,0.012083,-0.175325,0.139412,0.139412,-0.27566,1.05808e-10,-3.41009e-06,2.57577e-05,0.277611,0.14959763667466253,1.0580802900506114e-10,-3.410084185695439e-06,0.14959763667466253,2.5758031732436848e-05,-0.24092902897794122
307,0.1506,800.042,867.061,0.720975,0.0101336,0.112628,0.000170842,0.140282,0.140282,-0.277387,6.92886e-11,-1.98849e-06,2.91072e-05,0.279366,0.15059822180999127,6.928857487764617e-11,-1.988488022908186e-06,0.15059822180999127,2.910762361874042e-05,-0.24223881322066365
308,0.1513,801.281,867.138,0.624032,0.00924798,0.11249,-0.00722949,0.140933,0.140933,-0.278688,5.88821e-11,-1.68129e-06,2.93919e-05,0.280685,0.15134750511764405,5.888201037862473e-11,-1.681288586685703e-06,0.15134750511764405,2.9392331946098693e-05,-0.24322401950900951
309,0.1521,801.723,866.748,-0.0953603,0.00857084,0.0546404,-0.101165,0.141585,0.141585,-0.279992,8.16204e-11,-2.45679e-06,2.80116e-05,0.282006,0.15209842846539035,8.162048814597256e-11,-2.4567869820746324e-06,0.15209842846539035,2.801199232860263e-05,-0.2442102122501577
310,0.1531,801.439,867.599,-0.761451,0.00934336,0.00272373,-0.192256,0.142452,0.142452,-0.281727,1.20355e-10,-3.86722e-06,2.64025e-05,0.283765,0.1530977309378947,1.2035505925211964e-10,-3.867212522323804e-06,0.1530977309378947,2.6402848549045288e-05,-0.24552037064084387
311,0.1541,803.511,870.403,0.730596,0.0098687,0.113859,0.000412339,0.143319,0.143319,-0.283449,8.02478e-11,-2.28551e-06,2.9969e-05,0.285514,0.15409790018133362,8.024780839832601e-11,-2.285507388233299e-06,0.15409790018133362,2.9969449075073484e-05,-0.24681846658122708
312,0.1548,803.602,869.42,-0.455758,0.00903226,0.0200225,-0.15735,0.143969,0.143969,-0.284752,-2.24838e-10,-3.72823e-06,2.74277e-05,0.286834,0.15484830767246538,-2.2483803707729066e-10,-3.7282230501700653e-06,0.15484830767246538,2.7428076142754776e-05,-0.24779922301769197
313,0.1556,804.701,869.73,-0.480255,0.0083865,0.0180733,-0.16038,0.144618,0.144618,-0.286048,1.23778e-10,-3.96088e-06,2.69167e-05,0.288149,0.15559804748839912,1.2377809888164393e-10,-3.960872155706063e-06,0.15559804748839912,2.691706225754764e-05,-0.24877344379323874
314,0.1566,804.79,870.978,-0.740347,0.00917219,0.00513823,-0.189624,0.145483,0.145483,-0.287776,1.45508e-10,-4.82461e-06,2.61337e-05,0.289901,0.1565980722478315,1.4550805005342227e-10,-4.824598361596877e-06,0.1565980722478315,2.6134041488212745e-05,-0.2500704423528738
315,0.1576,805.322,872.294,-0.745721,0.00971509,0.00536083,-0.189901,0.146347,0.146347,-0.289502,1.62587e-10,-5.50826e-06,2.57298e-05,0.291651,0.1575978048045268,1.625870549304409e-10,-5.508244829588449e-06,0.1575978048045268,2.573013101403454e-05,-0.2513637043631973
316,0.1586,807.441,874.925,0.704211,0.0100894,0.113994,-0.00235804,0.147211,0.147211,-0.291217,1.31359e-10,-3.94514e-06,2.91962e-05,0.293393,0.15859840150340676,1.3135892373838942e-10,-3.945132217908487e-06,0.15859840150340676,2.9196626213146004e-05,-0.25264651528542903
317,0.1596,808.222,876.085,0.749069,0.0103649,0.117171,0.00212134,0.148073,0.148073,-0.292939,1.29089e-10,-3.76148e-06,3.02698e-05,0.29514,0.15959754389400582,1.2908896174224083e-10,-3.761472925689624e-06,0.15959754389400582,3.0270258134956762e-05,-0.2539323505641936
318,0.1606,808.184,876.326,-0.0735154,0.0105532,0.0626404,-0.0949559,0.148935,0.148935,-0.294664,1.56652e-10,-4.74725e-06,2.92763e-05,0.296888,0.16059754791665548,1.5665202468539974e-10,-4.747238731783732e-06,0.16059754791665548,2.9276728555016618e-05,-0.25521820788867555
319,0.1616,809.829,878.143,0.739955,0.0106657,0.116769,-0.00068976,0.149797,0.149797,-0.296378,1.371e-10,-3.88265e-06,3.15098e-05,0.298629,0.16159841431440314,1.3710010904333103e-10,-3.882642462538222e-06,0.16159841431440314,3.151029643899683e-05,-0.2564936704966453
320,0.1626,810.59,879.044,0.656202,0.0107474,0.110766,-0.0121547,0.150657,0.150657,-0.298097,1.38826e-10,-3.86309e-06,3.22533e-05,0.300372,0.16259781863297396,1.388260617574133e-10,-3.863082538302365e-06,0.16259781863297396,3.225382014337974e-05,-0.2577706599901374
321,0.1636,810.907,879.473,0.11754,0.0107968,0.0772876,-0.0725154,0.151517,0.151517,-0.299816,1.57416e-10,-4.45446e-06,3.18992e-05,0.302115,0.16359808280894428,1.5741608017094677e-10,-4.4544500789056585e-06,0.16359808280894428,3.189970878492154e-05,-0.2590454562243367
322,0.1646,810.947,879.603,-0.705038,0.0108151,0.00842951,-0.190342,0.152376,0.152376,-0.301535,1.98361e-10,-6.02083e-06,2.99089e-05,0.303857,0.16459804298348457,1.9836110531912254e-10,-6.020811874840604e-06,0.16459804298348457,2.990934727553629e-05,-0.2603180629662172
323,0.1656,811.834,880.547,-0.690478,0.0108092,0.010111,-0.188168,0.153234,0.153234,-0.303249,2.14357e-10,-6.62724e-06,2.95297e-05,0.305595,0.1655976968945665,2.1435697661331687e-10,-6.62721803990074e-06,0.1655976968945665,2.9530136005817553e-05,-0.2615847919094727
324,0.1666,812.717,881.479,-0.679824,0.010797,0.0115583,-0.186449,0.154092,0.154092,-0.30496,2.29376e-10,-7.22322e-06,2.91547e-05,0.307332,0.1665982088767639,2.29376073690446e-10,-7.22319391266435e-06,0.1665982088767639,2.9155125002455762e-05,-0.26284714008369003
325,0.1676,813.599,882.403,-0.669071,0.0107802,0.0130023,-0.184727,0.154949,0.154949,-0.306671,2.43412e-10,-7.80571e-06,2.87901e-05,0.309067,0.16759841206762216,2.4341195725696707e-10,-7.805679535510812e-06,0.16759841206762216,2.8790514438936654e-05,-0.26410733022690325
326,0.1686,815.888,884.708,0.743178,0.0107603,0.120066,-0.00146488,0.155805,0.155805,-0.308372,2.14594e-10,-6.1906e-06,3.2181e-05,0.310795,0.1685983042011303,2.1459389820677188e-10,-6.190580838283388e-06,0.1685983042011303,3.2181517813922866e-05,-0.26535801964527483
327,0.1696,816.691,885.555,0.685706,0.0107556,0.115455,-0.0101891,0.15666,0.15666,-0.310079,2.15461e-10,-6.10481e-06,3.29458e-05,0.312527,0.16959788301027023,2.1546098238900413e-10,-6.104791365646456e-06,0.16959788301027023,3.294634271888697e-05,-0.26661098379659154
328,0.1706,816.921,885.833,0.060234,0.0107443,0.075245,-0.0818438,0.157515,0.157515,-0.311789,2.33903e-10,-6.78774e-06,3.23441e-05,0.31426,0.17059831682475446,2.339028970510526e-10,-6.787716963385648e-06,0.17059831682475446,3.234462307610819e-05,-0.26786400737381033
329,0.1716,816.96,885.917,-0.7531,0.0107191,0.00694579,-0.198236,0.158369,0.158369,-0.313498,2.67738e-10,-8.34167e-06,3.02905e-05,0.315993,0.17159843477690484,2.677380539495289e-10,-8.341635208353182e-06,0.17159843477690484,3.029095876172505e-05,-0.2691141592261761
330,0.1726,819.286,888.247,0.70807,0.0106834,0.118083,-0.00826858,0.159222,0.159222,-0.315193,2.37164e-10,-6.67498e-06,3.37121e-05,0.317715,0.1725982345957704,2.3716406616358654e-10,-6.674957722330177e-06,0.1725982345957704,3.3712668259244793e-05,-0.27035196139259865
331,0.1736,820.091,889.087,0.666562,0.0106679,0.114673,-0.0148634,0.160074,0.160074,-0.316895,2.3736e-10,-6.5717e-06,3.44549e-05,0.319441,0.1735977140094156,2.373599095051304e-10,-6.571678406452897e-06,0.1735977140094156,3.4455493576945884e-05,-0.2715927661299462
332,0.1746,820.323,889.362,0.0587757,0.0106493,0.0754954,-0.0845188,0.160926,0.160926,-0.318599,-4.4026e-10,-7.23193e-06,3.3844e-05,0.321168,0.17459804534238743,-4.4026005063813045e-10,-7.231903849658217e-06,0.17459804534238743,3.384457271460306e-05,-0.2728329151494199
333,0.1756,820.379,889.459,-0.721273,0.0106193,0.00958107,-0.196565,0.161777,0.161777,-0.320302,2.88241e-10,-8.72647e-06,3.18468e-05,0.322895,0.17559805372218884,2.882409866344915e-10,-8.726431924510614e-06,0.17559805372218884,3.184730711480732e-05,-0.27407022682499016
334,0.1766,821.2,890.304,-0.739482,0.0105807,0.00877495,-0.19855,0.162627,0.162627,-0.322,3.01888e-10,-9.34539e-06,3.13103e-05,0.324617,0.1765977368730025,3.0188807009778884e-10,-9.34534633201256e-06,0.1765977368730025,3.131079017260063e-05,-0.2753018096700971
335,0.1776,823.517,892.623,0.733371,0.0105456,0.121395,-0.0065418,0.163477,0.163477,-0.323687,2.71893e-10,-7.6208e-06,3.47618e-05,0.326332,0.17759827011573237,2.7189295259688606e-10,-7.620770961724865e-06,0.17759827011573237,3.476240419830745e-05,-0.2765233448625446
336,0.1786,822.852,892.016,-0.747301,0.0105304,0.00862889,-0.200229,0.164326,0.164326,-0.325391,3.14886e-10,-9.75037e-06,3.16306e-05,0.328057,0.17859847557419872,3.148858951362854e-10,-9.75032246530727e-06,0.17859847557419872,3.163110025261595e-05,-0.2777550993300473
337,0.1796,823.717,892.903,-0.709643,0.0104938,0.0120257,-0.194947,0.165174,0.165174,-0.327083,3.25933e-10,-1.0281e-05,3.12114e-05,0.329774,0.1795983509687349,3.2593305832051556e-10,-1.0280947150720365e-05,0.1795983509687349,3.121188708088418e-05,-0.2789761044403599
338,0.1806,825.929,895.119,0.672335,0.0104609,0.117999,-0.0145478,0.166021,0.166021,-0.328767,3.01501e-10,-8.66209e-06,3.44442e-05,0.331485,0.1805978940187305,3.015010463514045e-10,-8.662052484176286e-06,0.1805978940187305,3.4444793208354696e-05,-0.28018928689415534
339,0.1816,825.405,894.649,-0.656904,0.0104462,0.0164694,-0.188711,0.166868,0.166868,-0.330465,3.36572e-10,-1.05784e-05,3.16472e-05,0.333205,0.18159828404033096,3.365721035208935e-10,-1.0578344048939314e-05,0.18159828404033096,3.164770077801471e-05,-0.2814104883915235
340,0.1826,827.603,896.849,0.718542,0.0104124,0.122039,-0.00909055,0.167714,0.167714,-0.332146,3.11813e-10,-8.93067e-06,3.4905e-05,0.334913,0.18259833915229517,3.118130198487279e-10,-8.930630121639638e-06,0.18259833915229517,3.490560918661956e-05,-0.28261742264808576
341,0.1836,827.014,896.315,-0.667099,0.010397,0.0159734,-0.190804,0.168559,0.168559,-0.333842,3.47242e-10,-1.09092e-05,3.1983e-05,0.33663,0.18359805707021382,3.4724201292135604e-10,-1.0909140494841374e-05,0.18359805707021382,3.198351146149747e-05,-0.28383307233694555
342,0.1846,829.211,898.513,0.714562,0.0103622,0.122207,-0.0102037,0.169403,0.169403,-0.33552,3.22675e-10,-9.24597e-06,3.52426e-05,0.338336,0.18459743550875785,3.2267499783245057e-10,-9.245927256151809e-06,0.18459743550875785,3.524322102776978e-05,-0.28503379275539564
343,0.1856,828.627,897.982,-0.658592,0.010346,0.0168949,-0.190433,0.170247,0.170247,-0.337212,3.56988e-10,-1.1205e-05,3.23352e-05,0.34005,0.1855976577787506,3.569879947207255e-10,-1.1204937224174039e-05,0.1855976577787506,3.233572278826813e-05,-0.2862424927295135
344,0.1866,830.781,900.138,0.688451,0.010311,0.120655,-0.0142023,0.17109,0.17109,-0.338888,3.33508e-10,-9.58102e-06,3.55039e-05,0.341753,0.18659753799455547,3.33508110017533e-10,-9.580974102196826e-06,0.18659753799455547,3.550453027090228e-05,-0.28743774840765346
345,0.1876,831.607,900.993,0.7232,0.0102945,0.123031,-0.0107628,0.171933,0.171933,-0.340569,3.30463e-10,-9.31601e-06,3.63595e-05,0.343459,0.187598261464764,3.304629903055911e-10,-9.315966606138204e-06,0.187598261464764,3.636016101471462e-05,-0.2886345593511571
346,0.1886,831.597,901.025,-0.0690857,0.0102765,0.0685397,-0.10577,0.172774,0.172774,-0.342254,3.48957e-10,-1.02114e-05,3.52005e-05,0.345167,0.1885974517032587,3.48957085449797e-10,-1.0211347863831044e-05,0.1885974517032587,3.5201119544803205e-05,-0.2898322008223465
347,0.1896,833.157,902.597,0.699769,0.0102462,0.121274,-0.0151082,0.173615,0.173615,-0.343929,3.33141e-10,-9.27001e-06,3.71985e-05,0.346867,0.1895974826141973,3.331410702855919e-10,-9.26996703354277e-06,0.1895974826141973,3.719919187283871e-05,-0.29102073620970004
348,0.1906,832.57,902.059,-0.659162,0.0102266,0.0204314,-0.188181,0.174456,0.174456,-0.345615,3.68155e-10,-1.1137e-05,3.43839e-05,0.348574,0.19059835490488264,3.681550619916152e-10,-1.1136937983824424e-05,0.19059835490488264,3.4384491133021555e-05,-0.29221506814371323
349,0.1916,834.653,904.143,0.635345,0.0101893,0.116748,-0.0240792,0.175295,0.175295,-0.347283,3.4374e-10,-9.62926e-06,3.73095e-05,0.35027,0.19159768608545713,3.4373992541247844e-10,-9.629213638784329e-06,0.19159768608545713,3.731019600805574e-05,-0.29339466934915126
350,0.1926,835.438,904.956,0.647097,0.0101704,0.117389,-0.0235509,0.176134,0.176134,-0.348958,3.41024e-10,-9.42042e-06,3.80173e-05,0.351969,0.19259785605671587,3.410240978496404e-10,-9.420375628010902e-06,0.19259785605671587,3.801802266667487e-05,-0.29457724259640883
351,0.1936,835.567,905.122,0.0105641,0.0101505,0.0746522,-0.098297,0.176972,0.176972,-0.350635,3.55941e-10,-1.01054e-05,3.71678e-05,0.35367,0.19359767192443034,3.55941054408504e-10,-1.0105348940636638e-05,0.19359767192443034,3.716849073120976e-05,-0.295759245174398
352,0.1946,835.653,905.242,-0.667135,0.0101206,0.0160205,-0.196856,0.17781,0.17781,-0.352311,3.80128e-10,-1.14205e-05,3.52897e-05,0.355369,0.1945983259889974,3.801279291337778e-10,-1.142043478630228e-05,0.1945983259889974,3.5290322688785736e-05,-0.2969385641341409
353,0.1956,837.725,907.314,0.630997,0.010085,0.11684,-0.0263165,0.178646,0.178646,-0.353974,3.53641e-10,-9.84065e-06,3.82813e-05,0.357059,0.19559742775587385,3.536408943460856e-10,-9.840601580934916e-06,0.19559742775587385,3.8282032738257143e-05,-0.29810678365821897
354,0.1966,838.487,908.104,0.634252,0.0100673,0.116818,-0.0268773,0.179483,0.179483,-0.355644,3.50682e-10,-9.63896e-06,3.89377e-05,0.358752,0.196598561719022,3.506819279408546e-10,-9.638913545328975e-06,0.196598561719022,3.8938458082116156e-05,-0.299277967119127
355,0.1976,838.629,908.282,0.0245839,0.0100483,0.0759481,-0.0982711,0.180318,0.180318,-0.357315,3.64582e-10,-1.02839e-05,3.81201e-05,0.360447,0.19759813878340426,3.645819202091616e-10,-1.0283847120873268e-05,0.19759813878340426,3.8120826580279044e-05,-0.3004478958883574
356,0.1986,838.726,908.412,-0.628165,0.0100194,0.0190797,-0.193635,0.181153,0.181153,-0.358985,3.87971e-10,-1.15471e-05,3.62962e-05,0.36214,0.19859855084319733,3.8797098866893975e-10,-1.1547033332504064e-05,0.19859855084319733,3.629685871509025e-05,-0.3016151729545886
357,0.1996,839.412,909.12,-0.692695,0.0099845,0.0145809,-0.201664,0.181986,0.181986,-0.360651,3.97675e-10,-1.21208e-05,3.5607e-05,0.36383,0.19959739939871568,3.976750040379784e-10,-1.2120726543440874e-05,0.19959739939871568,3.56076339367295e-05,-0.3027777134113545
358,0.2006,840.141,909.87,-0.712265,0.00995192,0.0136442,-0.203684,0.18282,0.18282,-0.362315,4.05905e-10,-1.26499e-05,3.49841e-05,0.365518,0.20059828093940246,4.059050873195247e-10,-1.2649819990384614e-05,0.20059828093940246,3.498471195073627e-05,-0.3039369265634171
359,0.2016,840.902,910.652,-0.695106,0.00992157,0.0155507,-0.200882,0.183652,0.183652,-0.363977,4.1275e-10,-1.31241e-05,3.44455e-05,0.367205,0.20159759436588387,4.127500563555486e-10,-1.3124013879428631e-05,0.20159759436588387,3.4446093253093224e-05,-0.30509282257581016
360,0.2026,841.674,911.446,-0.664206,0.00989328,0.0185107,-0.196294,0.184484,0.184484,-0.365638,4.18593e-10,-1.35608e-05,3.39622e-05,0.36889,0.20259773956710614,4.185929380895459e-10,-1.3560708052806625e-05,0.20259773956710614,3.396277672207404e-05,-0.30624610533103225
361,0.2036,842.437,912.231,-0.638029,0.00986666,0.0210845,-0.192358,0.185315,0.185315,-0.367297,4.23768e-10,-1.39825e-05,3.3496e-05,0.370574,0.20359751363727896,4.237679096519287e-10,-1.3982402245260594e-05,0.20359751363727896,3.349656099738141e-05,-0.3073960888671883
362,0.2046,843.185,913.002,-0.623253,0.00984122,0.0227548,-0.189945,0.186146,0.186146,-0.368956,4.2843e-10,-1.44028e-05,3.30244e-05,0.372256,0.20459811886500212,4.2842995817693463e-10,-1.4402696280169103e-05,0.20459811886500212,3.3024945311543874e-05,-0.30854416616232205
363,0.2056,843.921,913.761,-0.617288,0.00981653,0.0237276,-0.188705,0.186976,0.186976,-0.370613,4.32596e-10,-1.48237e-05,3.25439e-05,0.373937,0.20559835034230134,4.3259595905453807e-10,-1.4823590129497966e-05,0.20559835034230134,3.254442955835657e-05,-0.30968895975556565
364,0.2066,844.651,914.514,-0.614368,0.00979231,0.0244556,-0.187871,0.187805,0.187805,-0.372268,4.36236e-10,-1.52407e-05,3.2062e-05,0.375617,0.20659820575754306,4.362359362630741e-10,-1.5240583861153567e-05,0.20659820575754306,3.206251399134885e-05,-0.3108304796588959
365,0.2076,845.379,915.264,-0.610212,0.00976842,0.0252738,-0.186878,0.188633,0.188633,-0.373922,4.39339e-10,-1.56487e-05,3.15876e-05,0.377295,0.20759768279830304,4.393390096169014e-10,-1.5648577559757015e-05,0.20759768279830304,3.15880988934758e-05,-0.3119694238790177
366,0.2086,846.106,916.014,-0.603514,0.00974481,0.0262836,-0.185555,0.189461,0.189461,-0.375575,4.41923e-10,-1.60448e-05,3.11255e-05,0.378972,0.20859798774876004,4.41922942684414e-10,-1.6044671282910983e-05,0.20859798774876004,3.1125984403468365e-05,-0.31310579894859725
367,0.2096,846.831,916.762,-0.595088,0.00972146,0.0274204,-0.184012,0.190288,0.190288,-0.377227,4.44022e-10,-1.64292e-05,3.06757e-05,0.380648,0.2095979116961908,4.4402193033477033e-10,-1.642906504140118e-05,0.2095979116961908,3.067617050400706e-05,-0.31423961138180667
368,0.2106,848.858,918.791,0.709135,0.00969865,0.13004,-0.0115516,0.191114,0.191114,-0.378869,4.35444e-10,-1.46935e-05,3.37831e-05,0.382317,0.21059745232470117,4.354439031573065e-10,-1.4693392051068344e-05,0.21059745232470117,3.378367065542953e-05,-0.3153647059844624
369,0.2116,849.484,919.447,0.62736,0.00969033,0.123147,-0.0235329,0.19194,0.19194,-0.380518,4.34542e-10,-1.45201e-05,3.42637e-05,0.38399,0.21159781891484597,4.3454195797210105e-10,-1.4519994583905849e-05,0.21159781891484597,3.4264287007257366e-05,-0.3164927392652416
370,0.2126,849.644,919.641,0.0848167,0.00967783,0.0868902,-0.0865601,0.192765,0.192765,-0.382169,4.38418e-10,-1.5005e-05,3.35971e-05,0.385664,0.21259779955074531,4.384179685956724e-10,-1.5004887425562607e-05,0.21259779955074531,3.359766438881806e-05,-0.31762027871278
371,0.2136,850.883,920.895,0.616155,0.00965562,0.122168,-0.0261439,0.193589,0.193589,-0.383812,4.32568e-10,-1.42509e-05,3.50525e-05,0.387332,0.21359739191307026,4.325679814343175e-10,-1.4250798456405533e-05,0.21359739191307026,3.505311434603975e-05,-0.3187405080744342
372,0.2146,850.563,920.615,-0.398182,0.00963954,0.0464994,-0.154835,0.194413,0.194413,-0.385462,4.42731e-10,-1.55618e-05,3.29948e-05,0.389005,0.21459780827894437,4.427309630017362e-10,-1.556167891580973e-05,0.21459780827894437,3.2995344334318943e-05,-0.3198636593814681
373,0.2156,851.029,921.103,-0.631873,0.00960972,0.0241835,-0.191692,0.195236,0.195236,-0.387107,4.46676e-10,-1.62837e-05,3.19484e-05,0.390673,0.21559783372918528,4.4667602949743923e-10,-1.628356742122694e-05,0.21559783372918528,3.194891035551706e-05,-0.320981563933202
374,0.2166,851.67,921.763,-0.688515,0.0095794,0.0202267,-0.198655,0.196058,0.196058,-0.38875,4.48448e-10,-1.67757e-05,3.12662e-05,0.39234,0.21659746594106344,4.48447945444741e-10,-1.677555928869534e-05,0.21659746594106344,3.126668879271932e-05,-0.32209627523756434
375,0.2176,852.423,922.534,-0.629869,0.00955071,0.0253421,-0.190363,0.19688,0.19688,-0.39039,4.49269e-10,-1.71039e-05,3.08518e-05,0.394004,0.21759792018843016,4.4926906639375375e-10,-1.710375372909745e-05,0.21759792018843016,3.085227592158901e-05,-0.3232071261994074
376,0.2186,854.424,924.535,0.671763,0.00952486,0.128406,-0.0176976,0.197701,0.197701,-0.392022,4.41479e-10,-1.5354e-05,3.39129e-05,0.395662,0.21859797854868823,4.4147907551916887e-10,-1.5353882127921992e-05,0.21859797854868823,3.3913475048885644e-05,-0.3243107513663619
377,0.2196,855.021,925.16,0.584509,0.00951422,0.121047,-0.030363,0.198521,0.198521,-0.39366,4.4015e-10,-1.5192e-05,3.43139e-05,0.397325,0.21959763869574433,4.4014991651408764e-10,-1.5191884602194783e-05,0.21959763869574433,3.431448872870391e-05,-0.32541662439835173
378,0.2206,855.233,925.403,0.116279,0.0095002,0.0902759,-0.083875,0.199341,0.199341,-0.3953,4.42115e-10,-1.55683e-05,3.37738e-05,0.398987,0.22059811890029835,4.4211501126767416e-10,-1.5568178814651112e-05,0.22059811890029835,3.3774370341133064e-05,-0.32652203445033656
379,0.2216,856.597,926.778,0.794382,0.00947946,0.146001,0.00868024,0.20016,0.20016,-0.396931,4.31462e-10,-1.43516e-05,3.59015e-05,0.400644,0.2215981982362647,4.3146197725718594e-10,-1.4351497016229509e-05,0.2215981982362647,3.590214446647089e-05,-0.32761958171904615
380,0.2226,857.025,927.234,0.546322,0.00946435,0.117811,-0.0371145,0.200978,0.200978,-0.398567,4.3273e-10,-1.44998e-05,3.57855e-05,0.402303,0.22259787437422007,4.327300739959128e-10,-1.4499694878433722e-05,0.22259787437422007,3.5786140308635694e-05,-0.3287186967621004
381,0.2236,857.429,927.663,0.276051,0.00944547,0.101974,-0.0652478,0.201796,0.201796,-0.400201,4.3265e-10,-1.45837e-05,3.57184e-05,0.403961,0.22359836858180104,4.3264991589353485e-10,-1.4583593658357152e-05,0.22359836858180104,3.571903790966502e-05,-0.32981467475372095
382,0.2246,858.329,928.58,0.500938,0.00942319,0.121273,-0.0337564,0.202613,0.202613,-0.401831,4.26254e-10,-1.4042e-05,3.66967e-05,0.405615,0.2245984569293935,4.2625392104866933e-10,-1.4041901411632196e-05,0.2245984569293935,3.669737333211742e-05,-0.33090618700971386
383,0.2256,858.419,928.7,-0.0753632,0.0094029,0.0738377,-0.113242,0.203429,0.203429,-0.403464,4.32608e-10,-1.476e-05,3.55754e-05,0.407272,0.22559813708428078,4.32607949463204e-10,-1.4759891071691733e-05,0.22559813708428078,3.5576032812123515e-05,-0.3319979255591907
384,0.2266,859.849,930.136,0.680223,0.00937573,0.127501,-0.0222087,0.204244,0.204244,-0.405089,4.2083e-10,-1.36908e-05,3.74595e-05,0.408921,0.2265974067130665,4.208300374841656e-10,-1.3690706281432874e-05,0.2265974067130665,3.7460201615768796e-05,-0.3330825474362087
385,0.2276,859.194,929.524,-0.630695,0.00935802,0.0267283,-0.191946,0.205059,0.205059,-0.406724,4.36828e-10,-1.54806e-05,3.45263e-05,0.410578,0.22759749107855987,4.3682790717980424e-10,-1.5480480176077727e-05,0.22759749107855987,3.4526896039555055e-05,-0.33417206654656695
386,0.2286,861.067,931.394,0.569513,0.00932555,0.118839,-0.0373458,0.205874,0.205874,-0.408343,4.21664e-10,-1.39271e-05,3.71926e-05,0.412223,0.22859839084504197,4.21664037020264e-10,-1.3927003018388007e-05,0.22859839084504197,3.719329165341456e-05,-0.33524916982045616
387,0.2296,860.569,930.935,-0.580715,0.00930821,0.0273149,-0.19067,0.206687,0.206687,-0.409974,4.3575e-10,-1.55815e-05,3.4491e-05,0.413876,0.2295976474795811,4.3575010266749814e-10,-1.5581378609019758e-05,0.2295976474795811,3.44915948213842e-05,-0.3363324947328613
388,0.2306,861.171,931.554,-0.637597,0.00927763,0.0231684,-0.197761,0.2075,0.2075,-0.411598,4.37502e-10,-1.60324e-05,3.37887e-05,0.415524,0.23059771684009234,4.3750203460035664e-10,-1.6032271481725147e-05,0.23059771684009234,3.378927084463079e-05,-0.3374094160646066
389,0.2316,861.911,932.31,-0.554469,0.00924912,0.0302461,-0.186158,0.208312,0.208312,-0.41322,4.37647e-10,-1.62749e-05,3.34272e-05,0.41717,0.23159736798960706,4.376470297273727e-10,-1.6274767564494752e-05,0.23159736798960706,3.342775869508152e-05,-0.33848326686332064
390,0.2326,863.699,934.099,0.573823,0.00922423,0.120539,-0.035723,0.209124,0.209124,-0.414834,4.2535e-10,-1.47261e-05,3.60449e-05,0.41881,0.23259783118550148,4.253499774620195e-10,-1.4725991571484798e-05,0.23259783118550148,3.6045549625107753e-05,-0.3395500937097482
391,0.2336,864.447,934.869,0.673406,0.00921227,0.128362,-0.0229974,0.209935,0.209935,-0.416453,4.19794e-10,-1.42851e-05,3.68151e-05,0.420453,0.23359787348893457,4.197939773575854e-10,-1.4284997968405655e-05,0.23359787348893457,3.6815777684218176e-05,-0.3406184970021955
392,0.2346,864.299,934.755,-0.115712,0.00919923,0.0705919,-0.120937,0.210745,0.210745,-0.418076,4.26292e-10,-1.51638e-05,3.53554e-05,0.422098,0.23459749255752915,4.262918906761115e-10,-1.5163685030183949e-05,0.23459749255752915,3.5356025009480874e-05,-0.34168780520323117
393,0.2356,864.437,934.918,-0.619715,0.00917484,0.0248145,-0.196178,0.211555,0.211555,-0.419695,4.31953e-10,-1.61843e-05,3.36957e-05,0.423741,0.23559792164558302,4.319529178786752e-10,-1.6184169034927365e-05,0.23559792164558302,3.36962677065511e-05,-0.34275275034090213
394,0.2366,866.274,936.754,0.566783,0.00914703,0.11995,-0.0378379,0.212364,0.212364,-0.421304,4.18348e-10,-1.45623e-05,3.64081e-05,0.425376,0.23659792481093445,4.183480228903136e-10,-1.4562193970224513e-05,0.23659792481093445,3.640876278288019e-05,-0.34380941085425665
395,0.2376,865.78,936.299,-0.558699,0.00913285,0.0298369,-0.188264,0.213172,0.213172,-0.422925,4.28942e-10,-1.6175e-05,3.37371e-05,0.427018,0.23759749970805788,4.2894199303589176e-10,-1.6174869185370255e-05,0.23759749970805788,3.3737669102418266e-05,-0.34487223414825563
396,0.2386,866.395,936.93,-0.582759,0.00910527,0.0282554,-0.191017,0.21398,0.21398,-0.424538,4.29148e-10,-1.65421e-05,3.31299e-05,0.428655,0.23859788258807924,4.291480504292622e-10,-1.6541963180238817e-05,0.23859788258807924,3.3130448801266255e-05,-0.3459281034470577
397,0.2396,868.242,938.775,0.620829,0.00908019,0.125051,-0.0301457,0.214787,0.214787,-0.426143,4.16378e-10,-1.4855e-05,3.59298e-05,0.430286,0.2395978345056584,4.163780431554187e-10,-1.4854889665016913e-05,0.2395978345056584,3.593044548289015e-05,-0.34697704683877795
398,0.2406,867.655,938.229,-0.589111,0.00906815,0.0278788,-0.192107,0.215594,0.215594,-0.42776,4.25986e-10,-1.65798e-05,3.30595e-05,0.431925,0.2405985937101316,4.259859132105248e-10,-1.6579662555860075e-05,0.2405985937101316,3.306004647130045e-05,-0.3480321316880457
399,0.2416,868.279,938.869,-0.595738,0.00904141,0.027692,-0.192509,0.216399,0.216399,-0.42937,4.25547e-10,-1.69261e-05,3.24712e-05,0.433558,0.24159767765540363,4.2554693102658803e-10,-1.6925956754398896e-05,0.24159767765540363,3.247172719511582e-05,-0.34908095542636397
400,0.2426,870.121,940.709,0.60962,0.00901715,0.124834,-0.0312361,0.217204,0.217204,-0.430971,4.14317e-10,-1.52287e-05,3.5269e-05,0.435185,0.24259756618705408,4.1431702513250457e-10,-1.5228584043902593e-05,0.24259756618705408,3.526962195854466e-05,-0.35012224304356976
401,0.2436,869.548,940.177,-0.578724,0.00900576,0.0291831,-0.190459,0.218009,0.218009,-0.432584,4.21859e-10,-1.69217e-05,3.24387e-05,0.43682,0.24359825995303597,4.218589921833882e-10,-1.692155682886387e-05,0.24359825995303597,3.243922614037942e-05,-0.3511696509040082
402,0.2446,870.178,940.822,-0.573017,0.00897987,0.0299731,-0.189224,0.218813,0.218813,-0.434189,4.20842e-10,-1.72339e-05,3.18919e-05,0.438449,0.24459851500268637,4.2084202789283154e-10,-1.7233751497203187e-05,0.24459851500268637,3.189240855205888e-05,-0.35221018835962825
403,0.2456,871.963,942.607,0.583681,0.00895637,0.123386,-0.0343148,0.219616,0.219616,-0.435787,4.1132e-10,-1.55925e-05,3.45782e-05,0.440072,0.2455983289818222,4.113200890998314e-10,-1.559237843762329e-05,0.2455983289818222,3.457879783286266e-05,-0.3532445298196948
404,0.2466,871.452,942.133,-0.53714,0.00894508,0.0329637,-0.184651,0.220418,0.220418,-0.437396,4.16713e-10,-1.71841e-05,3.19039e-05,0.441703,0.2465976995356911,4.167131084642506e-10,-1.7183952354171694e-05,0.2465976995356911,3.190440893474644e-05,-0.35428432263357124
405,0.2476,872.073,942.77,-0.533307,0.00892009,0.0335796,-0.183702,0.22122,0.22122,-0.438997,4.15255e-10,-1.74698e-05,3.13866e-05,0.443328,0.24759787190622973,4.152549415437079e-10,-1.7469647403900446e-05,0.24759787190622973,3.138709256456096e-05,-0.35531728632495874
406,0.2486,873.784,944.481,0.556904,0.00889723,0.121801,-0.0375673,0.222021,0.222021,-0.440591,4.07205e-10,-1.59065e-05,3.39257e-05,0.444947,0.24859759813853044,4.072049364367558e-10,-1.5906373492247106e-05,0.24859759813853044,3.3926275483153745e-05,-0.3563440919890305
407,0.2496,874.458,945.176,0.621289,0.00888629,0.126836,-0.0294548,0.222822,0.222822,-0.44219,4.026e-10,-1.54966e-05,3.45537e-05,0.44657,0.24959812547234161,4.025999533752156e-10,-1.5496479928267526e-05,0.24959812547234161,3.45542969859558e-05,-0.35737247537430916
408,0.2506,874.382,945.131,-0.0579974,0.00887402,0.077072,-0.113375,0.223622,0.223622,-0.443791,4.04281e-10,-1.62065e-05,3.32981e-05,0.448194,0.2505982039507735,4.04281053079103e-10,-1.6206368675386607e-05,0.2505982039507735,3.3298654387836635e-05,-0.35840049888882564
409,0.2516,875.692,946.447,0.640084,0.00885271,0.127899,-0.0280799,0.224421,0.224421,-0.445384,3.95703e-10,-1.51315e-05,3.50319e-05,0.449811,0.2515978312136413,3.957030259016392e-10,-1.5131385519451257e-05,0.2515978312136413,3.503251362424464e-05,-0.35942175324903236
410,0.2526,875.093,945.885,-0.554602,0.00883872,0.0345398,-0.183697,0.22522,0.22522,-0.446986,4.02107e-10,-1.67531e-05,3.22685e-05,0.451434,0.2525982574978589,4.02107014352282e-10,-1.6752959667631906e-05,0.2525982574978589,3.2269020633579615e-05,-0.3604471380478077
411,0.2536,875.726,946.532,-0.526025,0.00881089,0.0336759,-0.18438,0.226018,0.226018,-0.448579,4.00802e-10,-1.70509e-05,3.17144e-05,0.453051,0.25359822984324243,4.008020582091376e-10,-1.705075463420691e-05,0.25359822984324243,3.171490290698742e-05,-0.3614651347072817
412,0.2546,877.387,948.192,0.526865,0.0087864,0.119227,-0.0429709,0.226815,0.226815,-0.450166,3.91696e-10,-1.55307e-05,3.4148e-05,0.454663,0.2545977458866624,3.916960089611621e-10,-1.5530579399292144e-05,0.2545977458866624,3.4148583049509185e-05,-0.3624776858666413
413,0.2556,878.032,948.856,0.574598,0.00877378,0.122956,-0.0370102,0.227612,0.227612,-0.451757,3.8695e-10,-1.51595e-05,3.46821e-05,0.456278,0.255598058861904,3.8695002757549446e-10,-1.5159385095331324e-05,0.255598058861904,3.468270143103247e-05,-0.3634911774221091
414,0.2566,878.035,948.887,-0.0131117,0.00876022,0.0803606,-0.108829,0.228408,0.228408,-0.45335,3.88045e-10,-1.57407e-05,3.36139e-05,0.457894,0.2565979128058342,3.880449295223798e-10,-1.5740576115863547e-05,0.2565979128058342,3.361446495353526e-05,-0.36450432878716155
415,0.2576,879.205,950.065,0.559101,0.0087391,0.121205,-0.0402124,0.229204,0.229204,-0.454936,3.79949e-10,-1.48448e-05,3.50207e-05,0.459504,0.25759856295034944,3.799489611822082e-10,-1.484468981649556e-05,0.25759856295034944,3.502131323185331e-05,-0.365511426082446
416,0.2586,878.834,949.726,-0.396848,0.00872405,0.0471019,-0.163661,0.229998,0.229998,-0.456529,3.8508e-10,-1.6103e-05,3.28347e-05,0.461119,0.2585974927319752,3.8507996791281585e-10,-1.610287034736757e-05,0.2585974927319752,3.283523906461028e-05,-0.3665213617533629
417,0.2596,880.367,951.259,0.539333,0.00869884,0.119523,-0.0432888,0.230793,0.230793,-0.458109,3.74541e-10,-1.476e-05,3.49624e-05,0.462725,0.2595984755766574,3.745410648292591e-10,-1.4759891071691733e-05,0.2595984755766574,3.49630111917687e-05,-0.36752146771003147
418,0.2606,880.922,951.833,0.507761,0.00868442,0.116863,-0.0478829,0.231586,0.231586,-0.459695,3.7025e-10,-1.45171e-05,3.52614e-05,0.464334,0.26059773332112024,3.7025005283908285e-10,-1.4516994627400415e-05,0.26059773332112024,3.526202169057413e-05,-0.36852378361562843
419,0.2616,881.091,952.026,0.0948463,0.00866893,0.0884887,-0.0960837,0.232379,0.232379,-0.461281,3.70061e-10,-1.48354e-05,3.46058e-05,0.465942,0.26159778379124843,3.7006109288029165e-10,-1.483528995604999e-05,0.26159778379124843,3.460639878749561e-05,-0.36952451110814366
420,0.2626,882.279,953.22,0.69509,0.0086494,0.139107,-0.0131307,0.233171,0.233171,-0.46286,3.57445e-10,-1.36716e-05,3.63957e-05,0.467546,0.26259736501792674,3.574449625176612e-10,-1.3671506544077339e-05,0.26259736501792674,3.639636233154775e-05,-0.37051924635495037
421,0.2636,881.624,952.601,-0.532814,0.0086345,0.036123,-0.18268,0.233963,0.233963,-0.464448,3.68724e-10,-1.54205e-05,3.33999e-05,0.469156,0.26359773822652,3.687239402694331e-10,-1.5420381104691572e-05,0.26359773822652,3.340045778288392e-05,-0.37151806851704416
422,0.2646,883.375,954.348,0.629538,0.0086073,0.12611,-0.0331423,0.234754,0.234754,-0.466022,3.53832e-10,-1.37699e-05,3.60143e-05,0.470755,0.2645976394462548,3.5383207475092604e-10,-1.3769805195407159e-05,0.2645976394462548,3.601494852278897e-05,-0.37250652096105263
423,0.2656,882.785,953.793,-0.529029,0.00859258,0.0314372,-0.189316,0.235545,0.235545,-0.467607,3.6383e-10,-1.54298e-05,3.31603e-05,0.472361,0.2655983319007462,3.638300771768854e-10,-1.5429680961243086e-05,0.2655983319007462,3.3160849808755444e-05,-0.3735003103391953
424,0.2666,884.5,955.505,0.602475,0.00856687,0.123964,-0.0369265,0.236335,0.236335,-0.469178,3.48837e-10,-1.37525e-05,3.5791e-05,0.473958,0.2665985496169261,3.4883695931853254e-10,-1.375240543477485e-05,0.2665985496169261,3.57916405053782e-05,-0.3744837686428869
425,0.2676,885.124,956.146,0.653808,0.00855384,0.127959,-0.0304963,0.237124,0.237124,-0.470754,3.42343e-10,-1.33327e-05,3.63522e-05,0.475557,0.2675982902183778,3.4234304280289507e-10,-1.3332611119909465e-05,0.2675982902183778,3.63528607492114e-05,-0.3754688058103335
426,0.2686,884.951,956.001,-0.0851381,0.0085399,0.0724644,-0.123162,0.237912,0.237912,-0.472333,3.47143e-10,-1.41481e-05,3.48536e-05,0.477159,0.26859755132824015,3.4714298102755947e-10,-1.4147999916058751e-05,0.26859755132824015,3.485420739379741e-05,-0.3764541624221863
427,0.2696,886.238,957.292,0.62718,0.00851789,0.125326,-0.0350545,0.2387,0.2387,-0.473903,-9.18374e-10,-1.30329e-05,3.65644e-05,0.478753,0.26959760016618106,-9.183740434792753e-10,-1.3032815072144821e-05,0.26959760016618106,3.6565068485927554e-05,-0.37743236130013413
428,0.2706,885.614,956.702,-0.555907,0.00850297,0.0315622,-0.190153,0.239488,0.239488,-0.475482,3.45978e-10,-1.46789e-05,3.37033e-05,0.480354,0.2705984373531751,3.4597791298551783e-10,-1.4678792265465646e-05,0.2705984373531751,3.370386796253122e-05,-0.3784146199043892
429,0.2716,887.338,958.422,0.594064,0.00847687,0.122616,-0.0397063,0.240274,0.240274,-0.477047,3.29369e-10,-1.30217e-05,3.62875e-05,0.481944,0.271597520313102,3.293689765371255e-10,-1.3021615217989613e-05,0.271597520313102,3.6288158399289117e-05,-0.3793866402199505
430,0.2726,887.959,959.06,0.652849,0.00846365,0.127204,-0.0322791,0.24106,0.24106,-0.478617,3.22354e-10,-1.25938e-05,3.6842e-05,0.483537,0.2725973888609312,3.22353921333729e-10,-1.2593720698395039e-05,0.2725973888609312,3.684267867476443e-05,-0.38036023871999747
431,0.2736,887.77,958.898,-0.0929546,0.00844963,0.0708982,-0.126076,0.241846,0.241846,-0.48019,3.28229e-10,-1.343e-05,3.52933e-05,0.485132,0.27359804361437745,3.282289995354404e-10,-1.3429909818007957e-05,0.27359804361437745,3.529392281587107e-05,-0.3813341658699695
432,0.2746,889.047,960.179,0.619674,0.00842781,0.124058,-0.037636,0.242631,0.242631,-0.481754,3.14312e-10,-1.23111e-05,3.69881e-05,0.48672,0.2745982105927931,3.143119098325542e-10,-1.2311024218725208e-05,0.2745982105927931,3.69887840681038e-05,-0.38230100297085456
433,0.2756,888.427,959.592,-0.550544,0.00841287,0.031005,-0.191253,0.243415,0.243415,-0.483327,3.27528e-10,-1.39507e-05,3.41243e-05,0.488315,0.2755978874120062,3.2752800471769206e-10,-1.3950602689383196e-05,0.2755978874120062,3.4124882240638144e-05,-0.3832718796984461
434,0.2766,890.112,961.273,0.569899,0.00838726,0.11997,-0.0444963,0.244199,0.244199,-0.484886,3.09717e-10,-1.23314e-05,3.66235e-05,0.489899,0.2765983482851544,3.097169187782356e-10,-1.2331323968606256e-05,0.2765983482851544,3.662417064864698e-05,-0.3842326097543314
435,0.2776,890.712,961.889,0.61686,0.00837401,0.123621,-0.038602,0.244982,0.244982,-0.486449,3.02765e-10,-1.19367e-05,3.71045e-05,0.491486,0.2775983162282223,3.027649242426378e-10,-1.1936628757869272e-05,0.2775983162282223,3.710518838051513e-05,-0.38519430242667974
436,0.2786,890.582,961.786,-0.0599118,0.00835994,0.0727739,-0.123235,0.245764,0.245764,-0.488016,3.08381e-10,-1.26788e-05,3.56949e-05,0.493075,0.27859778885437625,3.083810984350066e-10,-1.2678719624403811e-05,0.27859778885437625,3.569553707061246e-05,-0.38615694852457894
437,0.2796,891.76,962.968,0.562672,0.00833888,0.118717,-0.0467771,0.246546,0.246546,-0.489574,2.95077e-10,-1.16937e-05,3.71504e-05,0.494657,0.2795980433738041,2.9507707388631843e-10,-1.1693631629006163e-05,0.2795980433738041,3.71510900847305e-05,-0.3871125713752732
438,0.2806,891.297,962.536,-0.44146,0.00832374,0.0392227,-0.177897,0.247327,0.247327,-0.49114,3.07199e-10,-1.30795e-05,3.4689e-05,0.496244,0.28059779979974575,3.0719893295838574e-10,-1.3079414463712524e-05,0.28059779979974575,3.468960167030133e-05,-0.3880716019715523
439,0.2816,891.641,962.895,-0.644552,0.00829828,0.0194085,-0.209556,0.248108,0.248108,-0.492701,3.09909e-10,-1.37172e-05,3.34738e-05,0.497828,0.2815983373404416,3.0990898736149575e-10,-1.3717105919686112e-05,0.2815983373404416,3.347436025391559e-05,-0.3890260770392685
440,0.2826,893.448,964.695,0.60838,0.00827473,0.123047,-0.0398539,0.248888,0.248888,-0.494251,2.89738e-10,-1.18493e-05,3.63423e-05,0.499404,0.28259837400716514,2.8973801136089605e-10,-1.1849229797356031e-05,0.28259837400716514,3.6342960389346146e-05,-0.38997235306648426
441,0.2836,892.844,964.124,-0.531087,0.00826275,0.0288114,-0.194193,0.249667,0.249667,-0.495815,3.03096e-10,-1.35212e-05,3.34221e-05,0.500988,0.28359790740823,3.03095992748581e-10,-1.3521108588987474e-05,0.28359790740823,3.342265852457338e-05,-0.3909256906020059
442,0.2846,894.453,965.731,0.529686,0.00824046,0.116545,-0.0505577,0.250446,0.250446,-0.497364,2.85775e-10,-1.19263e-05,3.58377e-05,0.502563,0.2845982197491719,2.857749592521941e-10,-1.1926228882019885e-05,0.2845982197491719,3.583834217812942e-05,-0.391868416377652
443,0.2856,895.016,966.31,0.554297,0.00822898,0.118418,-0.0475689,0.251224,0.251224,-0.498918,2.79556e-10,-1.15849e-05,3.62034e-05,0.50414,0.2855980260383528,2.795559339574538e-10,-1.1584832895317199e-05,0.2855980260383528,3.62040553509857e-05,-0.39281271894547176
444,0.2866,894.994,966.312,-0.00158718,0.00821624,0.0772342,-0.116093,0.252002,0.252002,-0.500475,2.83082e-10,-1.21518e-05,3.50584e-05,0.505718,0.2865986104794884,2.830820022836633e-10,-1.215172616719773e-05,0.2865986104794884,3.5059014552807355e-05,-0.3937573739373226
445,0.2876,894.901,966.242,-0.627169,0.00819619,0.0211194,-0.206918,0.252778,0.252778,-0.50203,2.90769e-10,-1.33104e-05,3.2978e-05,0.507296,0.2875973984808444,2.9076896446156297e-10,-1.3310311417047416e-05,0.2875973984808444,3.2978543780259884e-05,-0.39469934864570444
446,0.2886,895.5,966.851,-0.564232,0.00817146,0.0259996,-0.198624,0.253555,0.253555,-0.50358,2.89673e-10,-1.35319e-05,3.24154e-05,0.508869,0.28859825044009657,2.89672952291653e-10,-1.3531808444211535e-05,0.28859825044009657,3.241592538483218e-05,-0.39563683791342796
447,0.2896,895.996,967.36,-0.601296,0.00814942,0.0238487,-0.202246,0.254331,0.254331,-0.50513,2.89043e-10,-1.38706e-05,3.1652e-05,0.510442,0.2895985907642855,2.890430117474807e-10,-1.3870503803636858e-05,0.2895985907642855,3.165250092984628e-05,-0.3965728751983638
448,0.2906,897.637,968.998,0.501442,0.0081297,0.115031,-0.0531803,0.255106,0.255106,-0.506672,2.73818e-10,-1.2222e-05,3.41333e-05,0.512009,0.29059841705477196,2.738180793215861e-10,-1.2221925311695081e-05,0.29059841705477196,3.413388254780436e-05,-0.3975026427897643
449,0.2916,898.22,969.597,0.556203,0.00812053,0.119348,-0.0461635,0.25588,0.25588,-0.508219,2.67587e-10,-1.18326e-05,3.45592e-05,0.513579,0.2915977269125989,2.6758706361817985e-10,-1.1832529995037255e-05,0.2915977269125989,3.4559797176036966e-05,-0.3984339856219463
450,0.2926,898.157,969.559,-0.0288857,0.00810984,0.0754316,-0.118956,0.256654,0.256654,-0.509768,2.70602e-10,-1.24492e-05,3.33187e-05,0.51515,0.29259781053566414,2.7060198526385193e-10,-1.244912250908392e-05,0.29259781053566414,3.3319255074104603e-05,-0.39936509005166276
451,0.2936,898.063,969.486,-0.645911,0.00809128,0.019996,-0.20849,0.257427,0.257427,-0.511316,2.7633e-10,-1.36024e-05,3.12337e-05,0.516721,0.29359737492507243,2.7633006993710296e-10,-1.3602307487814436e-05,0.29359737492507243,3.123418777706277e-05,-0.40029415361154086
452,0.2946,898.685,970.119,-0.549278,0.0080679,0.0276959,-0.195594,0.2582,0.2582,-0.512859,2.74479e-10,-1.37633e-05,3.07543e-05,0.518287,0.2945977122764649,2.744791061104479e-10,-1.3763205286232427e-05,0.2945977122764649,3.075477291836215e-05,-0.40121878619502926
453,0.2956,900.525,971.952,0.759051,0.00804947,0.141519,-0.0110357,0.258972,0.258972,-0.514394,2.55163e-10,-1.1593e-05,3.40437e-05,0.519847,0.29559752758939695,2.551630018388096e-10,-1.1592932801396394e-05,0.29559752758939695,3.404427949327271e-05,-0.4021372102873946
454,0.2966,899.679,971.143,-0.59708,0.00804074,0.0236042,-0.202251,0.259744,0.259744,-0.515943,2.68264e-10,-1.36542e-05,3.04798e-05,0.521417,0.2965981150577641,2.682640776185963e-10,-1.3654106781890718e-05,0.2965981150577641,3.048026451391017e-05,-0.4030625828625716
455,0.2976,901.352,972.81,0.548009,0.00801962,0.119024,-0.0466754,0.260515,0.260515,-0.517477,2.53214e-10,-1.19015e-05,3.31048e-05,0.522975,0.29759817767907437,2.5321389429677765e-10,-1.1901429177396672e-05,0.29759817767907437,3.310534796985287e-05,-0.4039775828760219
456,0.2986,901.918,973.392,0.598449,0.00800967,0.122979,-0.0402486,0.261285,0.261285,-0.519015,2.46966e-10,-1.14874e-05,3.35511e-05,0.524537,0.29859771304761873,2.469660032033971e-10,-1.1487334020121587e-05,0.29859771304761873,3.3551662844466534e-05,-0.4048935607859879
457,0.2996,901.769,973.268,-0.0612748,0.00799834,0.0725661,-0.123418,0.262055,0.262055,-0.520557,2.50641e-10,-1.22176e-05,3.21103e-05,0.5261,0.2995980183547853,2.506410634595113e-10,-1.2217525365398885e-05,0.2995980183547853,3.211081554121975e-05,-0.405810507767443
458,0.3006,902.856,974.359,0.507227,0.00798016,0.114871,-0.0534202,0.262824,0.262824,-0.52209,2.40125e-10,-1.1281e-05,3.34151e-05,0.527657,0.3005977935952111,2.4012503097026183e-10,-1.1280936369706396e-05,0.3005977935952111,3.3415658290625316e-05,-0.40672070241658376
459,0.3016,902.491,974.021,-0.364801,0.00796677,0.0452947,-0.167354,0.263593,0.263593,-0.52363,2.47411e-10,-1.24775e-05,3.1219e-05,0.529219,0.30159833795848656,2.474109805916669e-10,-1.247742215637615e-05,0.30159833795848656,3.121948731799051e-05,-0.4076336493852676
460,0.3026,902.85,974.393,-0.516757,0.00794461,0.0294933,-0.192211,0.264361,0.264361,-0.525165,2.47971e-10,-1.29701e-05,3.01894e-05,0.530776,0.3025983494372939,2.479709770852878e-10,-1.2970015888624786e-05,0.3025983494372939,3.018985570446553e-05,-0.40854223421620095
461,0.3036,903.214,974.77,-0.6631,0.00792271,0.0182033,-0.210629,0.265128,0.265128,-0.526699,2.47766e-10,-1.3468e-05,2.91339e-05,0.532333,0.30359782562143045,2.47766029914942e-10,-1.3467909306896786e-05,0.30359782562143045,2.9134324396107303e-05,-0.40944883488841666
462,0.3046,904.931,976.481,0.537838,0.00790255,0.118337,-0.0476767,0.265895,0.265895,-0.528224,2.33436e-10,-1.1634e-05,3.18679e-05,0.533882,0.304598068697866,2.3343593724689526e-10,-1.1633932325283425e-05,0.304598068697866,3.1868407786905806e-05,-0.4103487390638747
463,0.3056,905.514,977.079,0.615584,0.00789376,0.124514,-0.0376082,0.266661,0.266661,-0.529754,2.27056e-10,-1.11705e-05,3.23766e-05,0.535436,0.3055977736566058,2.2705592961358434e-10,-1.1170437610230621e-05,0.3055977736566058,3.237712412773597e-05,-0.4112502156876342
464,0.3066,905.3,976.891,-0.0972328,0.00788351,0.0692973,-0.128339,0.267427,0.267427,-0.531287,2.31031e-10,-1.19928e-05,3.07731e-05,0.536991,0.30659824468271046,2.3103097213095225e-10,-1.199272808660723e-05,0.30659824468271046,3.077357349678955e-05,-0.4121520776531672
465,0.3076,906.431,978.025,0.526583,0.00786602,0.116581,-0.0504306,0.268192,0.268192,-0.532812,2.2039e-10,-1.09602e-05,3.22135e-05,0.538539,0.30759817476438367,2.2038992852912997e-10,-1.096013993717726e-05,0.30759817476438367,3.2214018860443616e-05,-0.4130478625251762
466,0.3086,905.98,977.602,-0.419739,0.00785349,0.0403067,-0.174913,0.268956,0.268956,-0.534345,2.2789e-10,-1.22903e-05,2.97899e-05,0.540093,0.3085975614870202,2.2788992914968276e-10,-1.229022447457595e-05,0.3085975614870202,2.9790343723412605e-05,-0.4139469708093433
467,0.3096,906.367,978.0,-0.533824,0.00783163,0.0278344,-0.194315,0.26972,0.26972,-0.535871,2.2784e-10,-1.27377e-05,2.88193e-05,0.541642,0.30959771203285613,2.2783996911357463e-10,-1.2737618875879875e-05,0.30959771203285613,2.8819715280015146e-05,-0.41484060571503967
468,0.3106,906.761,978.407,-0.638238,0.00781042,0.0199859,-0.207078,0.270484,0.270484,-0.537397,2.27042e-10,-1.31656e-05,2.78639e-05,0.54319,0.3105986269856753,2.2704194080347406e-10,-1.316551333385707e-05,0.3105986269856753,2.7864288202117393e-05,-0.41573287797383407
469,0.3116,908.402,980.042,0.497069,0.00779118,0.115014,-0.0527696,0.271246,0.271246,-0.538914,2.14454e-10,-1.14151e-05,3.04408e-05,0.544732,0.31159768373171737,2.144540101056691e-10,-1.1415034848027972e-05,0.31159768373171737,3.0441263325853285e-05,-0.4166185392540198
470,0.3126,908.952,980.608,0.553265,0.00778244,0.119444,-0.0455416,0.272008,0.272008,-0.540436,2.08913e-10,-1.10051e-05,3.08457e-05,0.546277,0.3125975020491216,2.0891310903436988e-10,-1.10050394440675e-05,0.3125975020491216,3.0846175733456604e-05,-0.4175057704830385
471,0.3136,908.848,980.526,-0.0403299,0.00777226,0.0739796,-0.120213,0.27277,0.27277,-0.54196,2.11028e-10,-1.16479e-05,2.95213e-05,0.547823,0.3135980825184268,2.110280838962808e-10,-1.1647832163452776e-05,0.3135980825184268,2.9521735757764844e-05,-0.41839281558876595
472,0.3146,908.763,980.461,-0.615242,0.00775464,0.0216377,-0.204074,0.273531,0.273531,-0.543484,2.14392e-10,-1.27369e-05,2.75045e-05,0.549369,0.31459811112184544,2.1439205966089503e-10,-1.2736818886027734e-05,0.31459811112184544,2.7504878252315734e-05,-0.41927850986734405
473,0.3156,910.534,982.224,0.65567,0.0077345,0.128062,-0.0314349,0.274291,0.274291,-0.544996,1.99552e-10,-1.07202e-05,3.05016e-05,0.550905,0.3155975854384303,1.9955193053533549e-10,-1.0720142538889199e-05,0.3155975854384303,3.0502065178517057e-05,-0.42015589728838154
474,0.3166,909.852,981.574,-0.506998,0.00772461,0.0299594,-0.190199,0.275051,0.275051,-0.54652,2.07886e-10,-1.24505e-05,2.74355e-05,0.55245,0.3165978196442172,2.0788593069198669e-10,-1.2450422492871205e-05,0.3165978196442172,2.7435876356785016e-05,-0.4210389066768553
475,0.3176,910.254,981.987,-0.594037,0.00770361,0.0229757,-0.201317,0.27581,0.27581,-0.548037,2.0677e-10,-1.28393e-05,2.65352e-05,0.55399,0.31759749671878557,2.0676993450763348e-10,-1.2839217576554596e-05,0.31759749671878557,2.653555206144631e-05,-0.4219165248137653
476,0.3186,910.697,982.44,-0.639185,0.00768341,0.0200942,-0.205983,0.276569,0.276569,-0.549553,2.05074e-10,-1.31833e-05,2.57017e-05,0.555528,0.318597932836274,2.050739578152161e-10,-1.318321310073145e-05,0.318597932836274,2.5702030291618883e-05,-0.4227922354058016
477,0.3196,911.183,982.938,-0.6389,0.00766415,0.0205719,-0.205065,0.277327,0.277327,-0.551068,2.02942e-10,-1.34717e-05,2.49585e-05,0.557065,0.3195978089745459,2.0294210756333086e-10,-1.3471609257020845e-05,0.3195978089745459,2.4958811466024855e-05,-0.42366604309270683
478,0.3206,911.693,983.458,-0.613987,0.00764603,0.0231031,-0.200822,0.278085,0.278085,-0.552581,2.00492e-10,-1.37111e-05,2.42931e-05,0.558601,0.32059844330624965,2.0049206739258807e-10,-1.3711006003336301e-05,0.32059844330624965,2.4293395079810765e-05,-0.42453737703915795
479,0.3216,912.203,983.979,-0.586956,0.00762899,0.0257996,-0.196317,0.278842,0.278842,-0.554093,1.97838e-10,-1.39292e-05,2.36606e-05,0.560136,0.3215985148071381,1.9783796822991917e-10,-1.3929102989140851e-05,0.3215985148071381,2.366087991423349e-05,-0.42540681906126687
480,0.3226,914.073,985.841,0.793865,0.00761494,0.146897,-0.00143458,0.279598,0.279598,-0.555596,1.88079e-10,-1.15494e-05,2.72018e-05,0.561664,0.3225980210500876,1.8807910784346404e-10,-1.1549333305937992e-05,0.3225980210500876,2.7202169972317947e-05,-0.4262697839316639
481,0.3236,913.158,984.962,-0.59015,0.00760995,0.0248533,-0.197538,0.280354,0.280354,-0.557113,1.9193e-10,-1.36817e-05,2.34962e-05,0.563202,0.3235982832054558,1.9193002742667886e-10,-1.3681606406024116e-05,0.3235982832054558,2.3496476037943026e-05,-0.4271394728436161
482,0.3246,913.575,985.39,-0.652376,0.00759097,0.0199481,-0.205226,0.281109,0.281109,-0.558622,-1.04285e-09,-1.40513e-05,2.26168e-05,0.564734,0.3245979772462888,-1.0428500285541986e-09,-1.4051201280951275e-05,0.3245979772462888,2.261705576178663e-05,-0.42800326748212936
483,0.3256,914.062,985.887,-0.643075,0.00757262,0.0216406,-0.202471,0.281864,0.281864,-0.56013,1.86191e-10,-1.43076e-05,2.19145e-05,0.566264,0.3255984263411196,1.861910625677865e-10,-1.4307497646748324e-05,0.3255984263411196,2.1914740124362453e-05,-0.42886518850297806
484,0.3266,914.581,986.416,-0.600465,0.00755533,0.0256617,-0.195819,0.282618,0.282618,-0.561636,1.83049e-10,-1.45007e-05,2.13148e-05,0.567792,0.3265983044612615,1.8304890936349238e-10,-1.4500594865407557e-05,0.3265983044612615,2.1315027161961098e-05,-0.4297246701769475
485,0.3276,916.449,988.276,0.785084,0.00754116,0.147373,-0.000227865,0.283371,0.283371,-0.563134,1.77779e-10,-1.20959e-05,2.48829e-05,0.569315,0.32759760917552794,1.777789027102017e-10,-1.2095826844915614e-05,0.32759760917552794,2.488320958193846e-05,-0.4305783030903406
486,0.3286,915.546,987.409,-0.580026,0.0075363,0.0266932,-0.193824,0.284124,0.284124,-0.564646,1.7751e-10,-1.41989e-05,2.12221e-05,0.570847,0.32859766664962264,1.7751000669363748e-10,-1.4198799196063483e-05,0.32859766664962264,2.1222325190306535e-05,-0.43143861813399464
487,0.3296,915.969,987.842,-0.62925,0.00751768,0.0228549,-0.199772,0.284877,0.284877,-0.566149,1.74136e-10,-1.45282e-05,2.04009e-05,0.572373,0.32959847745058735,1.7413603892180163e-10,-1.4528094466226271e-05,0.32959847745058735,2.0401108099754595e-05,-0.4322925240199176
488,0.3306,916.453,988.337,-0.615636,0.00749977,0.0248772,-0.196477,0.285628,0.285628,-0.567651,1.70673e-10,-1.4753e-05,1.97426e-05,0.573897,0.33059738094846747,1.7067303126339084e-10,-1.4752891175029426e-05,0.33059738094846747,1.974279488647923e-05,-0.4331445805941655
489,0.3316,916.963,988.856,-0.575702,0.0074829,0.028655,-0.19022,0.28638,0.28638,-0.569151,1.67216e-10,-1.49251e-05,1.91701e-05,0.57542,0.3315983665023374,1.6721601880931303e-10,-1.4924988621212165e-05,0.3315983665023374,1.9170283747538264e-05,-0.433994226329664
490,0.3326,918.776,990.662,0.761975,0.00746889,0.146549,-0.00106478,0.28713,0.28713,-0.570643,1.65928e-10,-1.2572e-05,2.26422e-05,0.576937,0.33259743988290014,1.6592793805614292e-10,-1.2571920972703765e-05,0.33259743988290014,2.2642456336541272e-05,-0.4348380772746364
491,0.3336,917.923,989.843,-0.546769,0.00746395,0.030382,-0.187084,0.287881,0.287881,-0.572149,1.62161e-10,-1.45848e-05,1.91245e-05,0.578463,0.3335985964474879,1.6216095133358976e-10,-1.4584693642349933e-05,0.3335985964474879,1.9124682874460674e-05,-0.4356885705480801
492,0.3346,918.343,990.273,-0.592127,0.00744586,0.0268315,-0.192557,0.28863,0.28863,-0.573647,1.58351e-10,-1.48792e-05,1.83535e-05,0.579983,0.3345978359647117,1.5835111000228608e-10,-1.4879089305197546e-05,0.3345978359647117,1.835366842661834e-05,-0.4365332762268854
493,0.3356,918.813,990.753,-0.586342,0.00742842,0.0281511,-0.190389,0.289379,0.289379,-0.575143,1.54582e-10,-1.50885e-05,1.77141e-05,0.581502,0.33559782419269113,1.5458190283368367e-10,-1.5088386169148649e-05,0.33559782419269113,1.7714256895562386e-05,-0.43737559223618194
494,0.3366,920.657,992.589,0.787226,0.00741374,0.149395,0.00390926,0.290128,0.290128,-0.576631,1.5553e-10,-1.26554e-05,2.13042e-05,0.583014,0.33659856169242053,1.5553003329671355e-10,-1.2655319920784613e-05,0.33659856169242053,2.1304426936152865e-05,-0.43821215479803277
495,0.3376,919.759,991.724,-0.561819,0.00740857,0.0294795,-0.187883,0.290875,0.290875,-0.578132,1.49876e-10,-1.47353e-05,1.76778e-05,0.584536,0.3375973738278919,1.4987588947690256e-10,-1.4735191436021644e-05,0.3375973738278919,1.7677956253292493e-05,-0.43905476581591163
496,0.3386,920.187,992.162,-0.594084,0.00739008,0.0270334,-0.191559,0.291623,0.291623,-0.579626,1.4588e-10,-1.50076e-05,1.69378e-05,0.586052,0.3385982709523725,1.458799747666717e-10,-1.500748738658686e-05,0.3385982709523725,1.6937943445372028e-05,-0.43989219228244836
497,0.3396,920.666,992.65,-0.574089,0.00737251,0.0295467,-0.187464,0.29237,0.29237,-0.581117,1.42072e-10,-1.51855e-05,1.63442e-05,0.587566,0.3395985774287278,1.420719097922074e-10,-1.5185384700910909e-05,0.3395985774287278,1.6344333567230862e-05,-0.4407266907505508
498,0.3406,922.468,994.445,0.763003,0.00735777,0.14784,0.00187388,0.293116,0.293116,-0.5826,1.4506e-10,-1.27984e-05,1.98511e-05,0.589074,0.34059829081421933,1.4505996404068355e-10,-1.2798318100859518e-05,0.34059829081421933,1.985129703441224e-05,-0.44155547837025244
499,0.3416,921.616,993.626,-0.534631,0.00735237,0.0321436,-0.182906,0.293861,0.293861,-0.584098,1.37809e-10,-1.47986e-05,1.63517e-05,0.590591,0.3415974086660645,1.3780909746685666e-10,-1.4798490501233275e-05,0.3415974086660645,1.6351833689753903e-05,-0.4423914020005367
500,0.3426,922.042,994.061,-0.564168,0.00733424,0.0299033,-0.186248,0.294607,0.294607,-0.585586,1.3374e-10,-1.50455e-05,1.56481e-05,0.592102,0.3425986137359882,1.3373990803700053e-10,-1.5045386817069684e-05,0.3425986137359882,1.5648222432051995e-05,-0.4432205065875675
501,0.3436,923.854,995.864,0.786344,0.00731877,0.149952,0.00561707,0.295351,0.295351,-0.587066,1.37357e-10,-1.26103e-05,1.92233e-05,0.593606,0.34359787878511194,1.373570146512293e-10,-1.2610220490483215e-05,0.34359787878511194,1.9223484768904342e-05,-0.4440439307536326
502,0.3446,922.967,995.01,-0.542766,0.00731285,0.0313657,-0.183633,0.296095,0.296095,-0.58856,1.29606e-10,-1.46632e-05,1.56386e-05,0.59512,0.3445978875640654,1.2960610362711122e-10,-1.4663092495759145e-05,0.3445978875640654,1.56387222836063e-05,-0.4448739089729784
503,0.3456,923.396,995.448,-0.565367,0.00729417,0.0297144,-0.186017,0.296839,0.296839,-0.590045,1.25571e-10,-1.48997e-05,1.49489e-05,0.596628,0.34559864062638956,1.2557110906641356e-10,-1.489958900002808e-05,0.34559864062638956,1.4949011735376772e-05,-0.4456976594320581
504,0.3466,925.197,997.24,0.778142,0.00727836,0.149287,0.00492425,0.297581,0.297581,-0.591522,1.29796e-10,-1.2469e-05,1.85101e-05,0.598129,0.34659744532845327,1.2979595176432213e-10,-1.246892226236529e-05,0.34659744532845327,1.8510271313054716e-05,-0.4465157596733229
505,0.3476,924.325,996.4,-0.53305,0.00727211,0.0321068,-0.1819,0.298324,0.298324,-0.593012,1.21694e-10,-1.44978e-05,1.49637e-05,0.599639,0.3475983390162922,1.2169398821981758e-10,-1.4497694907356085e-05,0.3475983390162922,1.4963811956647532e-05,-0.4473398371012647
506,0.3486,924.755,996.839,-0.550978,0.00725343,0.0308444,-0.183655,0.299066,0.299066,-0.594494,1.17744e-10,-1.47184e-05,1.42965e-05,0.601143,0.3485986280451785,1.177440367428062e-10,-1.4718291684867602e-05,0.3485986280451785,1.4296602195429386e-05,-0.4481582728519935
507,0.3496,926.521,998.596,0.760694,0.00723765,0.147812,0.0029514,0.299807,0.299807,-0.595967,1.22392e-10,-1.23308e-05,1.77823e-05,0.602641,0.3495983099649691,1.2239209645770188e-10,-1.2330723975995106e-05,0.3495983099649691,1.7782458106019305e-05,-0.44897053733642356
508,0.3506,925.683,997.789,-0.512218,0.00723117,0.0337825,-0.178653,0.300547,0.300547,-0.597455,-9.93293e-10,-1.4302e-05,1.43279e-05,0.604148,0.3505973823255255,-9.932930034040055e-10,-1.430189772688717e-05,0.3505973823255255,1.432800264478118e-05,-0.4497898594500397
509,0.3516,926.11,998.225,-0.529754,0.00721272,0.0325384,-0.180378,0.301288,0.301288,-0.598933,1.1024e-10,-1.4509e-05,1.36799e-05,0.605649,0.3515985458711124,1.1024003931936477e-10,-1.450889474496897e-05,0.3515985458711124,1.3679993570159255e-05,-0.45060246937111315
510,0.3526,927.831,999.938,0.741543,0.0071971,0.146167,0.000725921,0.302027,0.302027,-0.600403,1.15171e-10,-1.21774e-05,1.707e-05,0.607144,0.35259774635561647,1.1517098386093494e-10,-1.21773258557889e-05,0.35259774635561647,1.7070145693187655e-05,-0.4514094904353311
511,0.3536,927.033,999.171,-0.488424,0.00719042,0.0356894,-0.175026,0.302766,0.302766,-0.601887,1.06794e-10,-1.40829e-05,1.37204e-05,0.608648,0.35359768552218784,1.0679390705092828e-10,-1.4082800836479059e-05,0.35359768552218784,1.3720494125069038e-05,-0.45222299498185603
512,0.3546,927.455,999.601,-0.507315,0.00717228,0.0343127,-0.176963,0.303505,0.303505,-0.603363,1.03036e-10,-1.42781e-05,1.30886e-05,0.610145,0.3545983639169148,1.0303602415717705e-10,-1.4277998068412678e-05,0.3545983639169148,1.3088685656192922e-05,-0.4530309174478062
513,0.3556,929.131,1001.27,0.722878,0.00715685,0.144531,-0.0014638,0.304243,0.304243,-0.60483,1.08153e-10,-1.20038e-05,1.63813e-05,0.611637,0.3555984264871841,1.081530420776744e-10,-1.20037279547347e-05,0.3555984264871841,1.6381434174261855e-05,-0.45383273281653924
514,0.3566,929.518,1001.67,0.673809,0.00715093,0.13517,-0.0153682,0.30498,0.30498,-0.606303,1.06355e-10,-1.1674e-05,1.66043e-05,0.613132,0.35659787077748706,1.063549248669915e-10,-1.1673931859079723e-05,0.35659787077748706,1.6604437852230092e-05,-0.45463664497444023
515,0.3576,929.201,1001.38,-0.073141,0.00714257,0.0747117,-0.112772,0.305717,0.305717,-0.60778,1.02138e-10,-1.2541e-05,1.48796e-05,0.61463,0.3575980519297324,1.0213807577486023e-10,-1.2540921361936519e-05,0.3575980519297324,1.4879710701798388e-05,-0.4554415520795885
516,0.3586,929.079,1001.27,-0.627469,0.00712627,0.0234286,-0.193806,0.306453,0.306453,-0.609254,9.56434e-11,-1.35933e-05,1.28859e-05,0.616125,0.3585976118888963,9.564349312540799e-11,-1.35932076115175e-05,0.3585976118888963,1.2885983023513958e-05,-0.4562436399478411
517,0.3596,930.7,1002.88,0.550633,0.0071075,0.124287,-0.0323306,0.307189,0.307189,-0.610717,9.95062e-11,-1.15883e-05,1.57637e-05,0.617612,0.3595979077949851,9.950618107268383e-11,-1.1588232855963554e-05,0.3595979077949851,1.5763824247727598e-05,-0.45703857386664815
518,0.3606,931.141,1003.34,0.560411,0.00709918,0.124622,-0.0316243,0.307924,0.307924,-0.612186,9.77797e-11,-1.11712e-05,1.61071e-05,0.619103,0.3605975795915959,9.777978426939171e-11,-1.1171137602405956e-05,0.3605975795915959,1.610722972000822e-05,-0.45783559864361034
519,0.3616,930.969,1003.18,-0.0385049,0.00708957,0.0769993,-0.108448,0.308659,0.308659,-0.613657,9.43681e-11,-1.18208e-05,1.47261e-05,0.620595,0.36159798641706686,9.43680689147186e-11,-1.1820730134615154e-05,0.36159798641706686,1.4726208429571841e-05,-0.4586325361867388
520,0.3626,932.221,1004.43,0.777705,0.00707561,0.149034,0.00629482,0.309393,0.309393,-0.615119,9.35747e-11,-1.01084e-05,1.71166e-05,0.622081,0.3625977662133959,9.357470354132147e-11,-1.0108348910242704e-05,0.3625977662133959,1.7116746489742596e-05,-0.45942343712936917
521,0.3636,932.371,1004.6,0.501423,0.00706698,0.118227,-0.0414023,0.310127,0.310127,-0.616587,9.17269e-11,-1.02258e-05,1.66256e-05,0.62357,0.36359828011747997,9.172684833913536e-11,-1.022574771669671e-05,0.36359828011747997,1.6625738206155205e-05,-0.46021642133085106
522,0.3646,932.491,1004.73,0.19502,0.00705533,0.0958183,-0.077887,0.31086,0.31086,-0.618053,8.95877e-11,-1.03538e-05,1.6075e-05,0.625058,0.3645981640695055,8.958767061528761e-11,-1.0353746399571762e-05,0.3645981640695055,1.607512920354104e-05,-0.4610071643009638
523,0.3656,933.142,1005.39,0.416841,0.00704134,0.11572,-0.046272,0.311592,0.311592,-0.619515,8.73732e-11,-9.68029e-06,1.68081e-05,0.626542,0.3655974156070485,8.737321977037027e-11,-9.680243146181766e-06,0.3655974156070485,1.6808241256827117e-05,-0.4617945960738722
524,0.3666,933.059,1005.33,-0.0884303,0.00702849,0.0704844,-0.11799,0.312324,0.312324,-0.620981,8.54556e-11,-1.03346e-05,1.54348e-05,0.628029,0.36659739886449394,8.54556425622377e-11,-1.0334546598156358e-05,0.36659739886449394,1.543491911704109e-05,-0.4625830271348551
525,0.3676,934.323,1006.59,0.744802,0.00701305,0.14354,-0.00157325,0.313056,0.313056,-0.622437,8.21525e-11,-8.63356e-06,1.78033e-05,0.629509,0.36759811437765655,8.215250701937293e-11,-8.63352273094975e-06,0.36759811437765655,1.7803458479681566e-05,-0.4633649368789199
526,0.3686,934.489,1006.77,0.489862,0.00700339,0.115167,-0.0454552,0.313787,0.313787,-0.623899,8.07209e-11,-8.73171e-06,1.7337e-05,0.630992,0.3685981940838656,8.072098545142126e-11,-8.731671878758895e-06,0.3685981940838656,1.733715028673366e-05,-0.4641489241068951
527,0.3696,934.605,1006.9,0.184806,0.00699116,0.092784,-0.0818269,0.314517,0.314517,-0.62536,7.91293e-11,-8.87803e-06,1.67541e-05,0.632475,0.3695976355172865,7.912936972331863e-11,-8.877990590461238e-06,0.3695976355172865,1.6754240350635996e-05,-0.46493123091449784
528,0.3706,935.261,1007.56,0.418194,0.00697689,0.113741,-0.0485637,0.315247,0.315247,-0.626817,7.61079e-11,-8.19642e-06,1.74951e-05,0.633954,0.37059780680931986,7.610800878410373e-11,-8.196386409475842e-06,0.37059780680931986,1.7495253040067382e-05,-0.46571025845168146
529,0.3716,935.161,1007.48,-0.0990741,0.00696383,0.0673707,-0.12197,0.315976,0.315976,-0.628277,7.55886e-11,-8.88963e-06,1.6058e-05,0.635435,0.3715973368949341,7.558864645318408e-11,-8.889590487393129e-06,0.3715973368949341,1.6058128930351856e-05,-0.4664897523053647
530,0.3726,936.439,1008.75,0.753625,0.00694843,0.142331,-0.00269258,0.316705,0.316705,-0.629728,-7.69146e-10,-7.15808e-06,1.84676e-05,0.63691,0.37259759590364094,-7.691459691372415e-10,-7.1580543810068065e-06,0.37259759590364094,1.8467770527275107e-05,-0.4672633143198066
531,0.3736,936.601,1008.93,0.499272,0.0069388,0.113987,-0.0464628,0.317434,0.317434,-0.631185,6.88599e-11,-7.26316e-06,1.79871e-05,0.638388,0.3735985843670191,6.885980674553593e-11,-7.263133623314211e-06,0.3735985843670191,1.7987261768936946e-05,-0.4680389464855974
532,0.3746,936.691,1009.03,0.174531,0.00692663,0.0898026,-0.0856306,0.318161,0.318161,-0.63264,6.79419e-11,-7.45674e-06,1.73264e-05,0.639865,0.37459755361917835,6.794187434877585e-11,-7.456712198594673e-06,0.37459755361917835,1.7326550102891858e-05,-0.46881238700403427
533,0.3756,937.368,1009.71,0.433563,0.00691243,0.113071,-0.0487359,0.318889,0.318889,-0.634092,6.40652e-11,-6.73833e-06,1.81211e-05,0.641339,0.37559862498397734,6.406519759138973e-11,-6.73830729747138e-06,0.37559862498397734,1.8121264188097896e-05,-0.46958311173653844
534,0.3766,937.218,1009.58,-0.128397,0.00689947,0.0626563,-0.128443,0.319615,0.319615,-0.635547,6.51376e-11,-7.52773e-06,1.65301e-05,0.642814,0.3765976721959725,6.513767303317763e-11,-7.5277016666763785e-06,0.3765976721959725,1.6530236622847028e-05,-0.470354307128261
535,0.3776,938.563,1010.92,0.796804,0.00688421,0.144224,0.00114401,0.320341,0.320341,-0.636992,5.66577e-11,-5.66987e-06,1.91328e-05,0.644283,0.377597444979594,5.665778957109069e-11,-5.669853926359991e-06,0.377597444979594,1.9132983033243178e-05,-0.4711190924639814
536,0.3786,938.725,1011.1,0.547885,0.00687505,0.116217,-0.04201,0.321067,0.321067,-0.638444,5.60258e-11,-5.75509e-06,1.86817e-05,0.645756,0.37859794386179857,5.602585062547405e-11,-5.755073439472902e-06,0.37859794386179857,1.8681874504045126e-05,-0.4718864702905994
537,0.3796,938.721,1011.11,0.134784,0.00686319,0.0842409,-0.0934852,0.321792,0.321792,-0.639895,5.64245e-11,-6.10942e-06,1.77636e-05,0.647228,0.3795977897714453,5.642442069131448e-11,-6.109401337495157e-06,0.3795977897714453,1.77637577736256e-05,-0.47265220734562574
538,0.3806,939.513,1011.9,0.51409,0.00684896,0.118215,-0.0396676,0.322517,0.322517,-0.64134,5.07607e-11,-5.18113e-06,1.88862e-05,0.648696,0.3805983608322121,5.076072895349171e-11,-5.181116577990252e-06,0.3805983608322121,1.8886378345461807e-05,-0.47341367461341344
539,0.3816,939.141,1011.55,-0.263504,0.00683638,0.0485676,-0.149723,0.323241,0.323241,-0.642791,5.49455e-11,-6.37317e-06,1.6657e-05,0.650168,0.3815982759710572,5.494560362251377e-11,-6.37314969142988e-06,0.3815982759710572,1.6657138728559673e-05,-0.4741771973018788
540,0.3826,939.123,1011.55,-0.68865,0.00681742,0.00842749,-0.212395,0.323964,0.323964,-0.644239,5.60899e-11,-7.34486e-06,1.47876e-05,0.651637,0.38259753271236785,5.608979947169246e-11,-7.344833026556863e-06,0.38259753271236785,1.4787709337049648e-05,-0.4749380377387712
541,0.3836,940.712,1013.13,0.484448,0.00679888,0.110127,-0.0507143,0.324687,0.324687,-0.645677,4.86319e-11,-5.36808e-06,1.75819e-05,0.653098,0.3835975121775357,4.863198732607543e-11,-5.368065591926374e-06,0.3835975121775357,1.758205456248163e-05,-0.47569253422751234
542,0.3846,941.143,1013.57,0.508671,0.00679001,0.111809,-0.0478359,0.32541,0.32541,-0.64712,4.58257e-11,-4.99967e-06,1.78279e-05,0.654564,0.38459821488927903,4.5825787609032886e-11,-4.999657501669752e-06,0.38459821488927903,1.7828058918034628e-05,-0.4764485642937424
543,0.3856,941.012,1013.45,-0.0242711,0.00678008,0.0691766,-0.116102,0.326132,0.326132,-0.648566,4.75411e-11,-5.62283e-06,1.64821e-05,0.65603,0.38559825577174567,4.7541082182078753e-11,-5.622814191919012e-06,0.38559825577174567,1.6482235830617142e-05,-0.4772050725824646
544,0.3866,942.139,1014.58,0.69369,0.00676725,0.133251,-0.0147008,0.326853,0.326853,-0.650003,3.89288e-11,-4.10338e-06,1.85349e-05,0.65749,0.3865976323461191,3.892886013545649e-11,-4.103371581187787e-06,0.3865976323461191,1.853507177229652e-05,-0.477955789373965
545,0.3876,941.235,1013.7,-0.605673,0.0067572,0.017157,-0.198041,0.327574,0.327574,-0.651451,4.72462e-11,-6.25513e-06,1.47895e-05,0.658957,0.3875977297308235,4.724620694673831e-11,-6.255110436725886e-06,0.3875977297308235,1.4789609365184475e-05,-0.4787111623689204
546,0.3886,942.958,1015.42,0.7061,0.00673948,0.128275,-0.0210157,0.328295,0.328295,-0.652883,3.67438e-11,-3.99905e-06,1.80304e-05,0.660413,0.3885985484457506,3.6743719178389256e-11,-3.999042003766107e-06,0.3885985484457506,1.80305625485655e-05,-0.47945711375574296
547,0.3896,943.316,1015.78,0.663808,0.00673195,0.123876,-0.0277246,0.329014,0.329014,-0.654321,3.38607e-11,-3.65e-06,1.82446e-05,0.661873,0.38959730981376817,3.386069202804265e-11,-3.649993338794566e-06,0.38959730981376817,1.824476643363937e-05,-0.4802051164833051
548,0.3906,942.962,1015.45,-0.0865001,0.00672222,0.0622477,-0.126015,0.329734,0.329734,-0.655763,3.83582e-11,-4.62797e-06,1.63363e-05,0.663335,0.3905981801469165,3.835820550079916e-11,-4.627959291014783e-06,0.3905981801469165,1.6336433438013387e-05,-0.48095412054362097
549,0.3916,944.325,1016.81,0.871509,0.00670875,0.14776,0.00912031,0.330453,0.330453,-0.657194,2.57032e-11,-2.65914e-06,1.90931e-05,0.664789,0.39159837976711676,2.570321733230685e-11,-2.6591364644668047e-06,0.39159837976711676,1.9093282274340595e-05,-0.48169634400957506
550,0.3926,944.434,1016.93,0.584438,0.00670072,0.115616,-0.040252,0.331171,0.331171,-0.658631,2.63458e-11,-2.81494e-06,1.85276e-05,0.666247,0.3925979061908358,2.634581441895989e-11,-2.8149360380425037e-06,0.3925979061908358,1.8527771637133483e-05,-0.48244061147898243
551,0.3936,944.372,1016.89,0.12695,0.00668954,0.0794515,-0.0981109,0.331889,0.331889,-0.660067,2.87445e-11,-3.26788e-06,1.74506e-05,0.667705,0.39359815053222835,2.8744562285965003e-11,-3.2678746605396825e-06,0.39359815053222835,1.7450752262559988e-05,-0.48318329338766475
552,0.3946,945.179,1017.69,0.534238,0.00667593,0.116104,-0.0402571,0.332606,0.332606,-0.661498,2.15077e-11,-2.29501e-06,1.86325e-05,0.669158,0.394597718708529,2.1507684522248383e-11,-2.295007366481805e-06,0.394597718708529,1.8632673586038706e-05,-0.48392232918859746
553,0.3956,944.737,1017.27,-0.297807,0.00666371,0.0411996,-0.158149,0.333323,0.333323,-0.662935,2.94641e-11,-3.62745e-06,1.61843e-05,0.670615,0.3955980038322069,2.946420885052703e-11,-3.6274434208616313e-06,0.3955980038322069,1.6184430966514896e-05,-0.4846634002144973
554,0.3966,944.726,1017.27,-0.702983,0.00664502,0.00280729,-0.217819,0.334039,0.334039,-0.664369,3.29972e-11,-4.60629e-06,1.43042e-05,0.672069,0.3965976098191897,3.29971605594892e-11,-4.606279391028423e-06,0.3965976098191897,1.4304302305534478e-05,-0.48540186329401636
555,0.3976,945.129,1017.68,-0.695318,0.00662529,0.00395105,-0.21567,0.334755,0.334755,-0.665799,3.31227e-11,-4.92786e-06,1.34505e-05,0.673521,0.3975979317803473,3.3122615761271845e-11,-4.927847858104961e-06,0.3975979317803473,1.3450590458319311e-05,-0.48613721272935007
556,0.3986,947.003,1019.54,0.776662,0.00661062,0.136716,-0.00650154,0.33547,0.33547,-0.667219,1.93593e-11,-2.24033e-06,1.7329e-05,0.674966,0.3985975716302297,1.9359402969598705e-11,-2.2403274904103654e-06,0.3985975716302297,1.7329150147959993e-05,-0.48686638005594807
557,0.3996,946.111,1018.68,-0.498315,0.00660367,0.0205575,-0.188885,0.336185,0.336185,-0.668655,2.97087e-11,-4.38544e-06,1.36144e-05,0.676421,0.39959792647818637,2.970867996054949e-11,-4.385430383946343e-06,0.39959792647818637,1.3614492676339296e-05,-0.4876027111219502
558,0.4006,947.65,1020.21,0.641712,0.00658917,0.120545,-0.0308024,0.336899,0.336899,-0.670075,1.91326e-11,-2.33478e-06,1.65036e-05,0.677865,0.4005975962373267,1.9132695427970248e-11,-2.3347772744042317e-06,0.4005975962373267,1.6503736185224938e-05,-0.48832979891764705
559,0.4016,947.947,1020.52,0.551071,0.00658261,0.112017,-0.0440197,0.337613,0.337613,-0.671502,1.73592e-11,-2.12414e-06,1.64936e-05,0.679313,0.4015979800155498,1.7359225168434023e-11,-2.124137744030641e-06,0.4015979800155498,1.6493736020084526e-05,-0.48905943157787424
560,0.4026,947.796,1020.38,0.0143124,0.00657371,0.0687684,-0.112928,0.338326,0.338326,-0.67293,2.06531e-11,-2.76185e-06,1.51244e-05,0.680761,0.4025976757244698,2.0653034837891937e-11,-2.7618461860834387e-06,0.4025976757244698,1.5124514374242892e-05,-0.4897885340065491
561,0.4036,948.825,1021.41,0.65075,0.00656196,0.125872,-0.0229386,0.339039,0.339039,-0.67435,1.15314e-11,-1.37912e-06,1.69467e-05,0.682204,0.403598084470598,1.1531442467571651e-11,-1.3791190489609306e-06,0.403598084470598,1.694684359621057e-05,-0.49051252013645374
562,0.4046,948.031,1020.64,-0.522585,0.00655202,0.0202013,-0.188964,0.339751,0.339751,-0.67578,2.2301e-11,-3.35939e-06,1.34831e-05,0.683653,0.4045978021640064,2.230104989564552e-11,-3.359384357248807e-06,0.4045978021640064,1.3483190897334296e-05,-0.49124056655540393
563,0.4056,949.556,1022.16,0.608487,0.0065358,0.116248,-0.036528,0.340463,0.340463,-0.677195,1.11056e-11,-1.39097e-06,1.62501e-05,0.685092,0.4055982319098732,1.1105560915325441e-11,-1.3909690326219248e-06,0.4055982319098732,1.6250232033554468e-05,-0.49195995206844656
564,0.4066,949.86,1022.48,0.528108,0.00652782,0.108624,-0.0482924,0.341174,0.341174,-0.678617,9.43275e-12,-1.18532e-06,1.62309e-05,0.686535,0.4065979676166893,9.432676861820255e-12,-1.1853192974919935e-06,0.4065979676166893,1.623103172176954e-05,-0.49268187161016264
565,0.4076,949.733,1022.36,0.0204511,0.00651795,0.0678011,-0.113263,0.341885,0.341885,-0.680039,-5.65875e-10,-1.78983e-06,1.49147e-05,0.687978,0.40759841438834665,-5.658750135140167e-10,-1.7898283982686891e-06,0.40759841438834665,1.491481122473104e-05,-0.49340276531183536
566,0.4086,950.723,1023.35,0.622539,0.00650573,0.121952,-0.0280354,0.342595,0.342595,-0.681455,3.85001e-12,-4.74212e-07,1.6628e-05,0.689416,0.40859816413172334,3.850031404795118e-12,-4.7421188753560273e-07,0.40859816413172334,1.662813824587772e-05,-0.494119599357875
567,0.4096,949.994,1022.65,-0.481833,0.00649521,0.0222825,-0.184393,0.343305,0.343305,-0.682879,1.52514e-11,-2.34698e-06,1.33369e-05,0.69086,0.40959862394946467,1.52513557338807e-11,-2.3469772458817317e-06,0.40959862394946467,1.3336988936796246e-05,-0.4948394603856945
568,0.4106,951.433,1024.08,0.568285,0.00647909,0.111385,-0.0430974,0.344014,0.344014,-0.68429,3.9771e-12,-5.14919e-07,1.58847e-05,0.692294,0.4105983837468128,3.977040918812236e-12,-5.149188674336003e-07,0.4105983837468128,1.5884826162437804e-05,-0.4955517392761587
569,0.4116,951.718,1024.37,0.473388,0.00647055,0.102535,-0.0567783,0.344722,0.344722,-0.685707,2.80644e-12,-3.66661e-07,1.57739e-05,0.693732,0.4115974410270502,2.8064217616474707e-12,-3.6666093272685885e-07,0.4115974410270502,1.577402440866571e-05,-0.4962660362626704
570,0.4126,951.685,1024.36,0.0630353,0.00646037,0.0701881,-0.108303,0.345431,0.345431,-0.687124,5.80597e-12,-8.15446e-07,1.47036e-05,0.69517,0.4125986184882089,5.806022329579719e-12,-8.154456675457666e-07,0.4125986184882089,1.4703708098418034e-05,-0.4969793218071281
571,0.4136,952.531,1025.2,0.5272,0.00644834,0.112052,-0.0424729,0.346138,0.346138,-0.688535,-1.84939e-12,2.39126e-07,1.60043e-05,0.696603,0.4135976788376987,-1.8494095144205858e-12,2.391260285339314e-07,0.4135976788376987,1.6004428069482657e-05,-0.49768858348227274
572,0.4146,952.045,1024.74,-0.332011,0.00643749,0.0342418,-0.164296,0.346845,0.346845,-0.689953,7.73916e-12,-1.19751e-06,1.3401e-05,0.698041,0.41459744577260405,7.739142660057041e-12,-1.1975092829574763e-06,0.41459744577260405,1.3401089793863008e-05,-0.4984003563046989
573,0.4156,952.056,1024.76,-0.696537,0.00642019,-0.000521112,-0.217982,0.347552,0.347552,-0.691367,1.19154e-11,-2.13643e-06,1.15886e-05,0.699476,0.4155979197926576,1.191535758948703e-11,-2.136427717847056e-06,0.4155979197926576,1.1588667148121345e-05,-0.4991091169889892
574,0.4166,952.487,1025.19,-0.64401,0.00640216,0.00459219,-0.20959,0.348258,0.348258,-0.692778,1.23953e-11,-2.37521e-06,1.08656e-05,0.700908,0.41659768479955206,1.2395195980730023e-11,-2.3752071791616203e-06,0.41659768479955206,1.0865659030745434e-05,-0.4998153756422624
575,0.4176,954.206,1026.9,0.691508,0.00638911,0.126086,-0.019157,0.348964,0.348964,-0.69418,-7.28806e-13,1.05613e-07,1.43968e-05,0.702334,0.41759815588975946,-7.288614156664153e-13,1.0561300567424325e-07,0.41759815588975946,1.4396903634361635e-05,-0.5005161431328151
576,0.4186,954.529,1027.24,0.64086,0.0063842,0.11712,-0.0322267,0.349669,0.349669,-0.695589,-2.40188e-12,3.47581e-07,1.44461e-05,0.703764,0.41859791496332655,-2.4018564914740637e-12,3.4758106037813263e-07,0.41859791496332655,1.4446204345430758e-05,-0.5012194203120179
577,0.4196,954.181,1026.91,-0.0752728,0.00637658,0.0572249,-0.126843,0.350374,0.350374,-0.697001,3.85824e-12,-6.45262e-07,1.25252e-05,0.705196,0.4195983791155513,3.858247055177344e-12,-6.452617917762637e-07,0.4195983791155513,1.2525278440644882e-05,-0.5019232015040859
578,0.4206,955.44,1028.16,0.80489,0.00636572,0.136853,-0.00200668,0.351078,0.351078,-0.698403,-8.67878e-12,1.2085e-06,1.50736e-05,0.706621,0.4205981282448512,-8.678835428099774e-12,1.2085007301543271e-06,0.4205981282448512,1.5073713607316463e-05,-0.502621015893388
579,0.4216,955.504,1028.24,0.499675,0.00635885,0.103335,-0.0532205,0.351782,0.351782,-0.699811,-6.48826e-12,9.51224e-07,1.43457e-05,0.70805,0.421598581445342,-6.488254378211877e-12,9.512244523168789e-07,0.421598581445342,1.4345802900050941e-05,-0.5033208327163533
580,0.4226,955.549,1028.3,0.176487,0.00634899,0.0784053,-0.0929056,0.352485,0.352485,-0.701218,-4.37143e-12,6.79558e-07,1.35564e-05,0.709477,0.42259831661383673,-4.371392137159091e-12,6.795582307983494e-07,0.42259831661383673,1.3556491888389033e-05,-0.5040191689100042
581,0.4236,956.134,1028.89,0.389281,0.00633735,0.0978855,-0.0623469,0.353187,0.353187,-0.702621,-8.56591e-12,1.27917e-06,1.41403e-05,0.710902,0.4235973312452086,-8.565925746495395e-12,1.279170818158093e-06,0.4235973312452086,1.414039997449379e-05,-0.5047145420976673
582,0.4246,956.026,1028.79,-0.0859395,0.00632602,0.0543945,-0.130104,0.35389,0.35389,-0.704026,-3.23953e-12,5.42342e-07,1.26383e-05,0.712328,0.4245984720288285,-3.2395197635537443e-12,5.423421469696876e-07,0.4245984720288285,1.2638379863760818e-05,-0.5054099295419479
583,0.4256,957.14,1029.9,0.655214,0.00631365,0.120973,-0.0256369,0.354591,0.354591,-0.705424,-1.44482e-11,2.08388e-06,1.46989e-05,0.713748,0.42559746566408085,-1.4448220397866862e-11,2.083882171266538e-06,0.42559746566408085,1.469900802941737e-05,-0.506100883371188
584,0.4266,956.256,1029.05,-0.588725,0.00630333,0.00848091,-0.201408,0.355293,0.355293,-0.706833,5.69956e-13,-1.10907e-07,1.09167e-05,0.715175,0.42659858643725546,5.699885008425554e-13,-1.1090699381099967e-07,0.42659858643725546,1.0916759587420444e-05,-0.5067962971924316
585,0.4276,957.821,1030.6,0.601322,0.00628755,0.111125,-0.0396266,0.355993,0.355993,-0.708226,-1.28936e-11,1.98059e-06,1.38561e-05,0.716592,0.4275975550459834,-1.2893575096484255e-11,1.9805919613258283e-06,0.4275975550459834,1.3856195996142517e-05,-0.5074828516542412
586,0.4286,958.117,1030.91,0.532535,0.00627986,0.104449,-0.0498062,0.356694,0.356694,-0.709625,-1.41612e-11,2.18356e-06,1.38309e-05,0.718013,0.4285986517754794,-1.416122774600126e-11,2.183562384017179e-06,0.4285986517754794,1.3830995647445832e-05,-0.508171401391933
587,0.4296,957.947,1030.75,0.000442281,0.00627031,0.060888,-0.118618,0.357393,0.357393,-0.711026,-8.60439e-12,1.48573e-06,1.23752e-05,0.719434,0.4295975913217682,-8.604339463147426e-12,1.4857311037008714e-06,0.4295975913217682,1.2375276573051153e-05,-0.5088599708030832
588,0.4306,958.943,1031.75,0.628092,0.00625878,0.117793,-0.0295613,0.358093,0.358093,-0.71242,-1.88473e-11,2.85086e-06,1.41545e-05,0.72085,0.43059865996884295,-1.884725708833912e-11,2.8508640637081584e-06,0.43059865996884295,1.4154600175508847e-05,-0.5095441430249528
589,0.4316,958.172,1031.0,-0.500247,0.00624851,0.0151789,-0.189582,0.358791,0.358791,-0.713823,-4.28832e-12,8.60005e-07,1.06969e-05,0.722271,0.43159756641129365,-4.28834745491713e-12,8.600053698071264e-07,0.43159756641129365,1.0696957212008584e-05,-0.5102317701090949
590,0.4326,959.581,1032.4,0.539288,0.00623337,0.104398,-0.048972,0.35949,0.35949,-0.715212,-1.65643e-11,2.69165e-06,1.32273e-05,0.723684,0.43259860293172014,-1.656430548280241e-11,2.6916536224330656e-06,0.43259860293172014,1.32273874811073e-05,-0.510911585939021
591,0.4336,959.846,1032.67,0.443248,0.00622515,0.0954032,-0.062781,0.360187,0.360187,-0.716607,-1.69683e-11,2.79956e-06,1.3053e-05,0.725099,0.43359747222347345,-1.6968315641463505e-11,2.799563918687298e-06,0.43359747222347345,1.3053085190728453e-05,-0.5115933886087068
592,0.4346,959.833,1032.67,0.0722914,0.00621539,0.0660908,-0.109193,0.360885,0.360885,-0.718002,-1.32455e-11,2.37611e-06,1.20284e-05,0.726515,0.43459847256756445,-1.324551579529043e-11,2.37611282294381e-06,0.43459847256756445,1.202847234149651e-05,-0.5122742408267627
593,0.4356,960.6,1033.44,0.476222,0.00620421,0.102834,-0.0517139,0.361581,0.361581,-0.719392,-2.01092e-11,3.31023e-06,1.31335e-05,0.727927,0.4355973006563256,-2.0109247600430535e-11,3.3102354788372423e-06,0.4355973006563256,1.3133586244773454e-05,-0.5129517086827755
594,0.4366,960.215,1033.07,-0.264136,0.0061937,0.035211,-0.156913,0.362278,0.362278,-0.720788,-1.01609e-11,2.03772e-06,1.08012e-05,0.729342,0.4365982607689596,-1.0160872143671895e-11,2.0377220761869097e-06,0.4365982607689596,1.0801258333081876e-05,-0.5136311537344656
595,0.4376,960.25,1033.12,-0.586736,0.00617792,0.00388834,-0.204914,0.362974,0.362974,-0.72218,-4.99083e-12,1.1857e-06,9.13525e-06,0.730755,0.43759848119478595,-4.990785562597466e-12,1.1857007029547617e-06,0.43759848119478595,9.135291726414252e-06,-0.5143077081773304
596,0.4386,960.646,1033.52,-0.550398,0.00616157,0.00758992,-0.198782,0.363669,0.363669,-0.723569,-3.70627e-12,9.55928e-07,8.43076e-06,0.732165,0.43859795941766766,-3.70625752310616e-12,9.559284568361193e-07,0.43859795941766766,8.430795539027258e-06,-0.5149818664593562
597,0.4396,962.179,1035.04,0.618122,0.00614974,0.115094,-0.0312711,0.364364,0.364364,-0.724951,-1.68567e-11,3.18132e-06,1.15438e-05,0.73357,0.43959813251935675,-1.6856738227488677e-11,3.1813250604972865e-06,0.43959813251935675,1.1543866629937227e-05,-0.5156516985593176
598,0.4406,962.44,1035.31,0.52427,0.00614429,0.102498,-0.0499629,0.365058,0.365058,-0.726339,-1.70479e-11,3.27533e-06,1.13613e-05,0.734979,0.44059756038468123,-1.704791863232913e-11,3.275335363817078e-06,0.44059756038468123,1.1361364539830276e-05,-0.5163235076583467
599,0.4416,962.285,1035.18,0.0177669,0.00613647,0.0606843,-0.115735,0.365752,0.365752,-0.727728,-1.18527e-11,2.60402e-06,9.95438e-06,0.736389,0.44159768209368,-1.1852741010898171e-11,2.6040233904733867e-06,0.44159768209368,9.954429545100396e-06,-0.5169948679385555
600,0.4426,963.215,1036.1,0.589281,0.00612654,0.112883,-0.0343232,0.366446,0.366446,-0.729111,-2.04778e-11,3.87431e-06,1.15812e-05,0.737793,0.44259849812804775,-2.0477841644606087e-11,3.874317505259128e-06,0.44259849812804775,1.1581267062465983e-05,-0.5176624023297662
601,0.4436,962.533,1035.44,-0.440191,0.00611731,0.0188505,-0.180478,0.367139,0.367139,-0.730501,-7.79122e-12,2.04087e-06,8.38068e-06,0.739202,0.44359856537052655,-7.791212119911961e-12,2.040872082664791e-06,0.44359856537052655,8.380715118105897e-06,-0.5183323858441125
602,0.4446,963.812,1036.72,0.479372,0.00610364,0.0977567,-0.0563958,0.367831,0.367831,-0.73188,-3.51499e-10,3.6768e-06,1.05997e-05,0.740604,0.44459788130119704,-3.5149905208697874e-10,3.6768067595005505e-06,0.44459788130119704,1.0599756177009922e-05,-0.518996147715037
603,0.4456,963.098,1036.02,-0.58018,0.00609397,0.0050017,-0.201171,0.368523,0.368523,-0.733268,-4.12127e-10,1.77539e-06,7.28505e-06,0.742011,0.4455978889978147,-4.12126999194129e-10,1.7753915759755046e-06,0.4455978889978147,7.285076536023283e-06,-0.5196633179387622
604,0.4466,964.555,1037.47,0.517927,0.00608026,0.101379,-0.0502588,0.369215,0.369215,-0.734644,-1.69443e-11,3.73836e-06,1.00066e-05,0.74341,0.44659858893924786,-1.6944334824131602e-11,3.7383669877488757e-06,0.44659858893924786,1.0006650066118894e-05,-0.5203238066928029
605,0.4476,964.836,1037.76,0.449564,0.0060734,0.0948015,-0.0602381,0.369906,0.369906,-0.736025,-1.74093e-11,3.88907e-06,9.90136e-06,0.744812,0.44759853400543714,-1.7409296226844617e-11,3.889077562435617e-06,0.44759853400543714,9.901409018686635e-06,-0.5209857823163841
606,0.4486,964.779,1037.72,0.0446596,0.00606485,0.0621261,-0.111682,0.370596,0.370596,-0.737407,-1.33656e-11,3.38317e-06,8.75456e-06,0.746214,0.4485977216740038,-1.3365641926554872e-11,3.3831757229041415e-06,0.4485977216740038,8.754598321170093e-06,-0.5216473227355023
607,0.4496,965.589,1038.53,0.502739,0.00605474,0.103972,-0.0464653,0.371286,0.371286,-0.738783,-2.00031e-11,4.42779e-06,1.00297e-05,0.747612,0.4495975990199732,-2.000311027927637e-11,4.427799802586563e-06,0.4495975990199732,1.0029750297624318e-05,-0.522305083376315
608,0.4506,965.114,1038.07,-0.316026,0.00604517,0.0289022,-0.162861,0.371976,0.371976,-0.740166,-9.95539e-12,2.97878e-06,7.43378e-06,0.749014,0.4505981665193868,-9.955369861813779e-12,2.978784436669102e-06,0.4505981665193868,7.4338076305746625e-06,-0.5229652788156303
609,0.4516,965.159,1038.13,-0.618192,0.00602996,-0.000482538,-0.207694,0.372665,0.372665,-0.741545,-5.53929e-12,2.13342e-06,5.78596e-06,0.750413,0.451597973049916,-5.5392357367622935e-12,2.1334222757296573e-06,0.451597973049916,5.7859767386148064e-06,-0.5236226563301727
610,0.4526,965.589,1038.56,-0.536554,0.00601441,0.00729856,-0.195224,0.373354,0.373354,-0.74292,-4.62097e-12,1.98123e-06,5.20714e-06,0.75181,0.4525984686845137,-4.6209702730948266e-12,1.9812319627110497e-06,0.4525984686845137,5.20715355722956e-06,-0.5242772250585892
611,0.4536,967.046,1040.01,0.56775,0.00600339,0.109406,-0.0366763,0.374042,0.374042,-0.744289,-1.49895e-11,4.10868e-06,8.15989e-06,0.753201,0.4535982002992094,-1.4989454122371626e-11,4.108688440584984e-06,0.4535982002992094,8.159923291950477e-06,-0.5249280439503077
612,0.4546,967.292,1040.27,0.469409,0.00599809,0.09661,-0.0556493,0.37473,0.37473,-0.745664,-1.47295e-11,4.16596e-06,7.9227e-06,0.754597,0.45459861996591866,-1.4729550912306877e-11,4.16596867758301e-06,0.45459861996591866,7.922731384724102e-06,-0.5255808190041804
613,0.4556,967.213,1040.2,0.0489655,0.00599064,0.0621929,-0.109645,0.375417,0.375417,-0.747039,-1.08908e-11,3.63028e-06,6.7347e-06,0.755992,0.45559827255918406,-1.0890843782362936e-11,3.630286589562104e-06,0.45559827255918406,6.734722678203298e-06,-0.5262326971091478
614,0.4566,968.014,1041.0,0.503714,0.00598138,0.103962,-0.0446998,0.376104,0.376104,-0.748409,-1.66946e-11,4.68187e-06,8.01957e-06,0.757384,0.4565986121497374,-1.6694645665893404e-11,4.681880960033524e-06,0.4565986121497374,8.019602156794647e-06,-0.5268813139101505
615,0.4576,967.534,1040.54,-0.315256,0.00597248,0.0287123,-0.161174,0.37679,0.37679,-0.749785,-7.74885e-12,3.2238e-06,5.41577e-06,0.758779,0.4575981816107979,-7.74880160037128e-12,3.223805196350682e-06,0.4575981816107979,5.415784665396828e-06,-0.5275318775317916
616,0.4586,967.583,1040.6,-0.608102,0.00595792,0.000122317,-0.204696,0.377476,0.377476,-0.751157,-3.78141e-10,2.39676e-06,3.80112e-06,0.760171,0.45859843701175906,-3.7814096298660616e-10,2.396762872169944e-06,0.45859843701175906,3.8011272243121397e-06,-0.5281796593158995
617,0.4596,969.378,1042.38,0.837053,0.00594655,0.133411,0.00200288,0.378161,0.378161,-0.752518,-1.8152e-11,5.23107e-06,7.84699e-06,0.761556,0.4595979192246882,-1.8152035430318847e-11,5.231083682000204e-06,0.4595979192246882,7.847020787599135e-06,-0.5288213700163844
618,0.4606,969.58,1042.59,0.699523,0.00594252,0.116163,-0.0237307,0.378846,0.378846,-0.753888,-1.81093e-11,5.3358e-06,7.68881e-06,0.762946,0.4605980863174777,-1.810929184387078e-11,5.335814235341019e-06,0.4605980863174777,7.688839559039096e-06,-0.5294664427637352
619,0.4616,969.143,1042.17,-0.0724623,0.0059351,0.0500793,-0.126879,0.37953,0.37953,-0.75526,-1.01519e-11,4.16998e-06,5.52534e-06,0.764337,0.46159747716122324,-1.0151879337172431e-11,4.169988694346927e-06,0.46159747716122324,5.52535526465725e-06,-0.5301115721443099
620,0.4626,970.349,1043.38,0.788889,0.00592508,0.129045,-0.00437243,0.380214,0.380214,-0.756621,-2.14266e-11,6.03593e-06,8.07117e-06,0.765721,0.46259755182214457,-2.1426638241450746e-11,6.0359482163541145e-06,0.46259755182214457,8.071202572068614e-06,-0.5307506552998852
621,0.4636,970.354,1043.39,0.457768,0.0059183,0.0931202,-0.0588203,0.380898,0.380898,-0.757989,-1.78814e-11,5.66859e-06,7.18515e-06,0.767109,0.46359831076813296,-1.7881363056915234e-11,5.668606066544513e-06,0.46359831076813296,7.185175813217981e-06,-0.5313921495213452
622,0.4646,970.428,1043.48,0.194573,0.00590889,0.0728862,-0.0907024,0.381581,0.381581,-0.759355,-1.54921e-11,5.44751e-06,6.48937e-06,0.768495,0.4645982898683769,-1.5492052085619434e-11,5.447524837665085e-06,0.4645982898683769,6.4893910560748225e-06,-0.5320318308432881
623,0.4656,970.882,1043.93,0.309959,0.00589823,0.0836785,-0.0738839,0.382263,0.382263,-0.760718,-1.72409e-11,5.83828e-06,6.75065e-06,0.769879,0.4655974865894199,-1.724087539400898e-11,5.838297042703999e-06,0.4655974865894199,6.750672785660328e-06,-0.5326692369668959
624,0.4666,970.916,1043.98,0.00929991,0.00588757,0.0556053,-0.117019,0.382945,0.382945,-0.762083,-1.33403e-11,5.37072e-06,5.68824e-06,0.771264,0.46659736499505455,-1.3340328841593418e-11,5.37073442230529e-06,0.46659736499505455,5.68825617808244e-06,-0.533306708285282
625,0.4676,971.694,1044.76,0.447926,0.00587664,0.09547,-0.0550101,0.383627,0.383627,-0.763443,-1.898e-11,6.34732e-06,6.86003e-06,0.772645,0.4675979255503484,-1.898003976208429e-11,6.347340144374769e-06,0.4675979255503484,6.860053530122201e-06,-0.533940979759649
626,0.4686,971.305,1044.39,-0.271519,0.00586649,0.0293791,-0.157035,0.384308,0.384308,-0.764808,-9.89615e-12,5.04571e-06,4.50753e-06,0.774029,0.4685977001222519,-9.896194974601258e-12,5.045722729635216e-06,0.4685977001222519,4.507540158904533e-06,-0.5345767163333556
627,0.4696,972.793,1045.86,0.874575,0.0058557,0.134326,0.00558839,0.384989,0.384989,-0.766161,-2.52088e-11,7.41323e-06,7.82899e-06,0.775406,0.46959815577251973,-2.5208835019441267e-11,7.413257478106061e-06,0.46959815577251973,7.829020646665796e-06,-0.5352060082241934
628,0.4706,972.842,1045.92,0.591928,0.00584979,0.103009,-0.0417046,0.385669,0.385669,-0.767522,-2.23326e-11,7.18799e-06,7.16578e-06,0.776787,0.47059782236656655,-2.2332580229544874e-11,7.188015833659023e-06,0.47059782236656655,7.16580567416969e-06,-0.5358381625683897
629,0.4716,972.659,1045.75,0.0786557,0.00584077,0.0601027,-0.108666,0.386349,0.386349,-0.768883,-1.60884e-11,6.48704e-06,5.73014e-06,0.778168,0.47159816896507256,-1.6088352872145606e-11,6.487061040783004e-06,0.47159816896507256,5.730156417360632e-06,-0.5364694571357344
630,0.4726,973.443,1046.54,0.527947,0.0058301,0.101513,-0.0445267,0.387028,0.387028,-0.770238,-2.28093e-11,7.5341e-06,7.00718e-06,0.779544,0.4725977234321386,-2.2809309996318916e-11,7.5341283813923354e-06,0.4725977234321386,7.007204550379953e-06,-0.5370971156866141
631,0.4736,972.914,1046.03,-0.328139,0.00581971,0.0224064,-0.166474,0.387707,0.387707,-0.7716,-1.08677e-11,5.95501e-06,4.23141e-06,0.780924,0.47359795682715755,-1.0867751143450732e-11,5.95502773115264e-06,0.47359795682715755,4.231418952338473e-06,-0.5377271602572996
632,0.4746,972.968,1046.09,-0.605053,0.00580417,-0.00474815,-0.207606,0.388385,0.388385,-0.772957,-5.77488e-12,5.12223e-06,2.61863e-06,0.782301,0.4745973950131459,-5.774825062587752e-12,5.122243118549363e-06,0.4745973950131459,2.618633428541628e-06,-0.5383540390673607
633,0.4756,974.72,1047.83,0.807136,0.00579249,0.126161,-0.00539243,0.389063,0.389063,-0.774303,-2.23749e-11,7.91016e-06,6.58147e-06,0.783671,0.4755975110479891,-2.2374879726783092e-11,7.910191285320778e-06,0.4755975110479891,6.581491657886573e-06,-0.538974996532652
634,0.4766,974.899,1048.02,0.659087,0.00578761,0.108105,-0.0323029,0.389741,0.389741,-0.775658,-2.15915e-11,7.95117e-06,6.32932e-06,0.785046,0.47659830539142467,-2.1591506360607582e-11,7.951201610678638e-06,0.47659830539142467,6.329340030086783e-06,-0.539599262376727
635,0.4776,974.519,1047.65,-0.0462771,0.00577962,0.0476031,-0.126367,0.390418,0.390418,-0.777015,-1.26045e-11,6.85779e-06,4.29143e-06,0.786422,0.477598300904462,-1.2604473020871865e-11,6.857813514615785e-06,0.477598300904462,4.291439208214953e-06,-0.540223602467123
636,0.4786,975.613,1048.74,0.715262,0.00576974,0.117798,-0.0178756,0.391094,0.391094,-0.778362,-2.37795e-11,8.5244e-06,6.52459e-06,0.787791,0.47859749504544236,-2.377953389753884e-11,8.524436332812968e-06,0.47859749504544236,6.524611285252391e-06,-0.5408425043506027
637,0.4796,974.589,1047.74,-0.629069,0.0057603,-0.0062674,-0.209056,0.39177,0.39177,-0.779721,-5.68428e-12,5.96003e-06,2.23458e-06,0.789168,0.47959736487001736,-5.684230863778339e-12,5.960047761099929e-06,0.47959736487001736,2.23458249659636e-06,-0.5414660755745717
638,0.4806,976.093,1049.24,0.540704,0.00574662,0.096912,-0.0486675,0.392446,0.392446,-0.781064,-1.78973e-11,8.08443e-06,5.19582e-06,0.790534,0.4805979108351037,-1.7897350268469836e-11,8.084462679081028e-06,0.4805979108351037,5.195833498339297e-06,-0.5420814733030037
639,0.4816,976.342,1049.49,0.46397,0.00573961,0.0894554,-0.0598956,0.393121,0.393121,-0.782414,-1.7577e-11,8.19667e-06,5.04165e-06,0.791904,0.48159765179953395,-1.7577050925865478e-11,8.196703592755483e-06,0.48159765179953395,5.041662709093231e-06,-0.5426992462234991
640,0.4826,976.228,1049.39,0.0269022,0.00573093,0.0532549,-0.11629,0.393796,0.393796,-0.783765,-1.1976e-11,7.56887e-06,3.72644e-06,0.793275,0.48259806781691994,-1.1975975766631564e-11,7.568898644061406e-06,0.48259806781691994,3.726446943241868e-06,-0.5433166423968301
641,0.4836,977.034,1050.2,0.504746,0.00572117,0.0973607,-0.0481182,0.39447,0.39447,-0.785109,-1.85427e-11,8.65003e-06,5.05724e-06,0.79464,0.48359767574465873,-1.854272291268444e-11,8.65006741168628e-06,0.48359767574465873,5.05725278787672e-06,-0.5439300125523747
642,0.4846,976.517,1049.7,-0.331499,0.00571163,0.0199209,-0.167173,0.395144,0.395144,-0.78646,-6.88571e-12,7.07554e-06,2.29981e-06,0.796011,0.4845979576352406,-6.885714221027683e-12,7.0755650316556284e-06,0.4845979576352406,2.299812644546151e-06,-0.5445457470830877
643,0.4856,976.587,1049.78,-0.584536,0.00569711,-0.00501454,-0.204796,0.395817,0.395817,-0.787807,-2.00027e-12,6.28099e-06,7.53886e-07,0.797378,0.48559742834489894,-2.0002888234671445e-12,6.281009725439546e-06,0.48559742834489894,7.538862840661409e-07,-0.545158830957079
644,0.4866,978.271,1051.45,0.768257,0.00568638,0.120869,-0.0108646,0.39649,0.39649,-0.789144,-1.72759e-11,8.97446e-06,4.5647e-06,0.798737,0.4865975719247402,-1.7275847419284673e-11,8.97450027048663e-06,0.4865975719247402,4.564710418319962e-06,-0.5457665472512188
645,0.4876,978.436,1051.62,0.612444,0.00568174,0.102239,-0.0386161,0.397163,0.397163,-0.790489,-1.37544e-10,8.96946e-06,4.24563e-06,0.800102,0.4875983888277584,-1.3754397620857617e-10,8.969500225664007e-06,0.4875983888277584,4.24563901280095e-06,-0.5463770805694702
646,0.4886,978.124,1051.33,-0.0168895,0.00567414,0.0483508,-0.122198,0.397835,0.397835,-0.791835,-8.05512e-12,7.99302e-06,2.39783e-06,0.801468,0.4885983909081175,-8.05511213286536e-12,7.99305194432165e-06,0.4885983909081175,2.397832874700967e-06,-0.5469872462853763
647,0.4896,979.107,1052.31,0.641091,0.00566487,0.109223,-0.0283447,0.398506,0.398506,-0.793173,-1.71248e-11,9.45615e-06,4.3162e-06,0.802827,0.4895975756173976,-1.712474606563319e-11,9.456194709489552e-06,0.4895975756173976,4.316209314847441e-06,-0.5475929720289576
648,0.4906,978.259,1051.48,-0.52068,0.00565572,0.00159889,-0.193698,0.399177,0.399177,-0.794521,-1.64938e-12,7.21904e-06,5.45463e-07,0.804193,0.4905974310046044,-1.6493473253831326e-12,7.219066057384538e-06,0.4905974310046044,5.454631488710504e-07,-0.5482024058519821
649,0.4916,979.566,1052.78,0.459948,0.00564305,0.0879047,-0.0597496,0.399848,0.399848,-0.795856,-1.1247e-11,9.00761e-06,2.98594e-06,0.80555,0.49159795751991453,-1.1247003328662686e-11,9.007650568548797e-06,0.49159795751991453,2.985944457911671e-06,-0.5488051532167845
650,0.4926,978.822,1052.05,-0.596942,0.0056336,-0.00631692,-0.205006,0.400518,0.400518,-0.797201,1.45858e-12,6.95888e-06,-5.02082e-07,0.806914,0.49259766301539654,1.4586110097525307e-12,6.958904213094641e-06,0.49259766301539654,-5.020818739653876e-07,-0.5494116023572375
651,0.4936,980.195,1053.42,0.450751,0.00562144,0.0874198,-0.0599786,0.401188,0.401188,-0.798533,-7.92002e-12,8.88198e-06,2.13957e-06,0.808268,0.49359803853799455,-7.91999799076848e-12,8.882019444822475e-06,0.49359803853799455,2.139572288895053e-06,-0.5500113865579407
652,0.4946,979.425,1052.67,-0.630857,0.00561266,-0.00913524,-0.208754,0.401857,0.401857,-0.799877,4.06019e-12,6.77137e-06,-1.44115e-06,0.80963,0.49459758993844005,4.0600856010541975e-12,6.771392925708497e-06,0.49459758993844005,-1.4411489615007156e-06,-0.5506157650211037
653,0.4956,980.841,1054.07,0.460636,0.00560101,0.0887016,-0.0574859,0.402526,0.402526,-0.801207,-4.86029e-12,8.78061e-06,1.33259e-06,0.810983,0.49559781026250227,-4.86033435720401e-12,8.780648549588932e-06,0.49559781026250227,1.3325908878591974e-06,-0.5512130487718867
654,0.4966,980.028,1053.28,-0.661996,0.00559277,-0.0117081,-0.212111,0.403195,0.403195,-0.802549,6.49762e-12,6.58205e-06,-2.38056e-06,0.812343,0.4965986999578411,6.497691273921191e-12,6.582071661709321e-06,0.4965986999578411,-2.3805571665036496e-06,-0.5518149169165811
655,0.4976,981.486,1054.73,0.473293,0.00558145,0.0902522,-0.0545819,0.403862,0.403862,-0.803877,-1.89966e-12,8.67982e-06,5.28651e-07,0.813694,0.4975972642748918,-1.8997026174361054e-12,8.679857669724456e-06,0.4975972642748918,5.28651139752867e-07,-0.5524097116757817
656,0.4986,980.627,1053.89,-0.694674,0.0055736,-0.0144069,-0.215659,0.40453,0.40453,-0.805218,8.78641e-12,6.3851e-06,-3.32942e-06,0.815052,0.49859799345376077,8.786305016883489e-12,6.385120384866383e-06,0.49859799345376077,-3.3294144574647078e-06,-0.5530095279857021
657,0.4996,982.13,1055.39,0.487044,0.00556247,0.0919182,-0.051503,0.405197,0.405197,-0.806544,9.78888e-13,8.57676e-06,-2.76598e-07,0.816401,0.49959789174440394,9.78994663114463e-13,8.57679678056833e-06,0.49959789174440394,-2.765979617569414e-07,-0.553601844558917
658,0.5006,982.394,1055.66,0.437304,0.00555743,0.0868984,-0.0589347,0.405864,0.405864,-0.807876,1.32775e-12,8.7235e-06,-3.69473e-07,0.817754,0.5005984571896784,1.3278267374516872e-12,8.723538049926205e-06,0.5005984571896784,-3.694729316938705e-07,-0.5541960510725719
659,0.5016,982.287,1055.56,0.020007,0.0055506,0.0520748,-0.112912,0.40653,0.40653,-0.80921,5.49357e-12,8.11087e-06,-1.64687e-06,0.819107,0.5015981886357852,5.4936055704501996e-12,8.110902893099237e-06,0.5015981886357852,-1.646868643900845e-06,-0.5547903570502206
660,0.5026,983.065,1056.34,0.482249,0.0055425,0.0949673,-0.0469081,0.407196,0.407196,-0.810538,1.26478e-12,9.17782e-06,-3.35626e-07,0.820455,0.5025985861248028,1.2647660696529783e-12,9.177862116294122e-06,0.5025985861248028,-3.3562594370373233e-07,-0.5553812030474818
661,0.5036,982.58,1055.87,-0.309711,0.00553436,0.0212176,-0.159765,0.407861,0.407861,-0.811872,9.36316e-12,7.66324e-06,-2.98061e-06,0.821808,0.5035981465015651,9.36317690047872e-12,7.663269362634395e-06,0.5035981465015651,-2.980605558033922e-06,-0.5559739290864494
662,0.5046,982.663,1055.96,-0.537599,0.00552147,-0.00151294,-0.193853,0.408526,0.408526,-0.813202,1.25218e-11,6.9325e-06,-4.41349e-06,0.823158,0.5045983718070424,1.252176140553729e-11,6.932524029723552e-06,0.5045983718070424,-4.413480260589964e-06,-0.5565640912159535
663,0.5056,984.225,1057.51,0.705794,0.00551192,0.114942,-0.0152594,0.40919,0.40919,-0.814522,3.31297e-12,9.46612e-06,-8.56555e-07,0.824501,0.5055977568850494,3.312905505481467e-12,9.466164803795252e-06,0.5055977568850494,-8.565546331107399e-07,-0.55714904046411
664,0.5066,984.363,1057.66,0.535151,0.00550754,0.0951232,-0.0447585,0.409854,0.409854,-0.81585,4.84898e-12,9.39732e-06,-1.26492e-06,0.825848,0.5065978057751095,4.849010082352834e-12,9.397364154839494e-06,0.5065978057751095,-1.2649191999392073e-06,-0.5577367562087454
665,0.5076,984.166,1057.48,0.0315914,0.00550052,0.0522521,-0.111006,0.410518,0.410518,-0.817179,9.71757e-12,8.63814e-06,-2.76222e-06,0.827196,0.5075985189181402,9.71756008993907e-12,8.638177308784023e-06,0.5075985189181402,-2.762216185114852e-06,-0.5583241336609728
666,0.5086,984.968,1058.28,0.521297,0.00549202,0.0978182,-0.0410273,0.411181,0.411181,-0.818501,5.32038e-12,9.77855e-06,-1.33811e-06,0.82854,0.5085983881562093,5.320410778608675e-12,9.778597810150558e-06,0.5085983881562093,-1.3381091047426352e-06,-0.5589076433713719
667,0.5096,984.401,1057.73,-0.349263,0.00548344,0.0166174,-0.165142,0.411843,0.411843,-0.81983,1.39219e-11,8.09393e-06,-4.23706e-06,0.829887,0.5095974109292221,1.3921974684194538e-11,8.093962756028361e-06,0.5095974109292221,-4.237051023703309e-06,-0.5594934657481366
668,0.5106,984.486,1057.82,-0.571771,0.00546995,-0.0055335,-0.198295,0.412506,0.412506,-0.821155,1.69397e-11,7.34881e-06,-5.68741e-06,0.831232,0.510598605872117,1.693978290973064e-11,7.348837002485453e-06,0.510598605872117,-5.68739382666994e-06,-0.5600767503946062
669,0.5116,986.09,1059.41,0.717154,0.00546013,0.115236,-0.0133297,0.413167,0.413167,-0.82247,8.0228e-12,9.97738e-06,-1.98715e-06,0.832569,0.5115974416294486,8.022693620546306e-12,9.977429774155055e-06,0.5115974416294486,-1.9871480255728713e-06,-0.5606548692713678
670,0.5126,986.228,1059.56,0.55029,0.00545569,0.0957511,-0.0422802,0.413829,0.413829,-0.823792,9.52175e-12,9.91904e-06,-2.3761e-06,0.833911,0.5125984504331642,9.521716748395193e-12,9.919089193788366e-06,0.5125984504331642,-2.3760971771258355e-06,-0.5612352997850873
671,0.5136,985.998,1059.34,0.0182837,0.00544859,0.0501633,-0.112596,0.41449,0.41449,-0.825116,1.4556e-11,9.09505e-06,-3.9678e-06,0.835254,0.5135986085247339,1.4555912031255502e-11,9.09509136004516e-06,0.5135986085247339,-3.9677921283010065e-06,-0.5618158398458457
672,0.5146,986.83,1060.17,0.541066,0.00544007,0.0988664,-0.0379123,0.41515,0.41515,-0.826433,1.01025e-11,1.03066e-05,-2.434e-06,0.836592,0.5145979133406748,1.0102585434879074e-11,1.0306653113190123e-05,0.5145979133406748,-2.4339970378095543e-06,-0.5623925485387364
673,0.5156,986.208,1059.57,-0.380144,0.00543147,0.0128361,-0.169245,0.41581,0.41581,-0.827757,1.88288e-11,8.50371e-06,-5.50699e-06,0.837935,0.5155978779154906,1.882871636382788e-11,8.50374615657401e-06,0.5155978779154906,-5.506974836588796e-06,-0.5629715574160121
674,0.5166,986.3,1059.67,-0.592615,0.00541785,-0.00830191,-0.20081,0.41647,0.41647,-0.829076,2.16515e-11,7.76017e-06,-6.95033e-06,0.839274,0.5165985026847659,2.1651569426239803e-11,7.760200110284998e-06,0.5165985026847659,-6.950305846520344e-06,-0.5635476179363499
675,0.5176,987.922,1061.28,0.717831,0.00540808,0.114593,-0.012843,0.417129,0.417129,-0.830386,1.32885e-11,1.04384e-05,-3.17626e-06,0.840606,0.5175982704853439,1.3288481426343424e-11,1.043845448034375e-05,0.5175982704853439,-3.1762549557168285e-06,-0.564118996222364
676,0.5186,988.059,1061.42,0.553154,0.00540372,0.0953234,-0.0414311,0.417788,0.417788,-0.831703,1.47869e-11,1.03818e-05,-3.55932e-06,0.841943,0.51859869735004,1.4786838420377535e-11,1.0381853891017201e-05,0.51859869735004,-3.559313665579822e-06,-0.5646926736548301
677,0.5196,987.818,1061.2,0.0132872,0.0053967,0.0488968,-0.112927,0.418446,0.418446,-0.833022,1.97467e-11,9.53221e-06,-5.18503e-06,0.84328,0.5195982641142971,1.974664876058796e-11,9.53225543165459e-06,0.5195982641142971,-5.185016557773814e-06,-0.5652664655193564
678,0.5206,988.654,1062.03,0.543819,0.0053883,0.0983919,-0.0371346,0.419104,0.419104,-0.834333,1.55479e-11,1.07627e-05,-3.62144e-06,0.844613,0.5205984888099207,1.5548007326060542e-11,1.076275791800363e-05,0.5205984888099207,-3.621433442568822e-06,-0.5658360277534396
679,0.5216,988.02,1061.41,-0.386111,0.00537979,0.0114215,-0.169722,0.419761,0.419761,-0.835652,2.39534e-11,8.92734e-06,-6.73692e-06,0.84595,0.5215978502713612,2.3953505845497602e-11,8.927379848922001e-06,0.5215978502713612,-6.736897307013656e-06,-0.566408312528054
680,0.5226,988.116,1061.52,-0.590238,0.00536631,-0.0089275,-0.200045,0.420418,0.420418,-0.836966,2.65862e-11,8.1949e-06,-8.1585e-06,0.847284,0.5225978685290158,2.65862887260937e-11,8.194933578176133e-06,0.5225978685290158,-8.158466719532242e-06,-0.5669776778504534
681,0.5236,989.72,1063.11,0.705878,0.00535671,0.112813,-0.0140999,0.421075,0.421075,-0.838271,1.90225e-11,1.08556e-05,-4.41356e-06,0.848611,0.5235985440145412,1.9022561303927432e-11,1.0855658922226397e-05,0.5235985440145412,-4.413550260262689e-06,-0.567542403417281
682,0.5246,989.852,1063.25,0.539474,0.00535235,0.0934263,-0.0428394,0.421731,0.421731,-0.839583,2.05832e-11,1.07852e-05,-4.81435e-06,0.849943,0.5245983525607636,2.0583090787340552e-11,1.078525816056164e-05,0.5245983525607636,-4.814338411041064e-06,-0.5681094157425769
683,0.5256,989.629,1063.04,0.0203093,0.0053454,0.0487824,-0.1115,0.422386,0.422386,-0.840896,2.51999e-11,9.96568e-06,-6.38885e-06,0.851275,0.5255972915985114,2.5199842212941803e-11,9.965729657501754e-06,0.5255972915985114,-6.388829591363887e-06,-0.5686761159595999
684,0.5266,990.433,1063.84,0.523044,0.00533715,0.0957615,-0.0396523,0.423042,0.423042,-0.842203,-3.72989e-11,1.11405e-05,-4.90944e-06,0.852602,0.5265984117533093,-3.7298941713004297e-11,1.114056205553382e-05,0.5265984117533093,-4.909427948729395e-06,-0.5692394880321929
685,0.5276,989.845,1063.27,-0.357906,0.00532873,0.0132285,-0.165286,0.423697,0.423697,-0.843516,2.92189e-11,9.39254e-06,-7.88425e-06,0.853934,0.5275986612589598,2.921884956208487e-11,9.392584110035074e-06,0.5275986612589598,-7.884218919396169e-06,-0.5698047054379785
686,0.5286,989.943,1063.38,-0.556934,0.00531565,-0.00672486,-0.194968,0.424351,0.424351,-0.844825,3.16978e-11,8.6818e-06,-9.2677e-06,0.855263,0.5285980375438477,3.169775553146792e-11,8.681837686985716e-06,0.5285980375438477,-9.267657055000988e-06,-0.5703674626735933
687,0.5296,991.482,1064.9,0.677886,0.00530628,0.109546,-0.0176281,0.425005,0.425005,-0.846125,-3.22077e-11,1.12351e-05,-5.68867e-06,0.856584,0.529598067634597,-3.2207680966678254e-11,1.123516311407613e-05,0.529598067634597,-5.688653819557743e-06,-0.5709256220898895
688,0.5306,991.604,1065.03,0.504902,0.00530176,0.0896291,-0.0471561,0.425658,0.425658,-0.847432,2.68312e-11,1.11314e-05,-6.13734e-06,0.857911,0.53059722136095,2.6831203925326008e-11,1.1131461954194677e-05,0.53059722136095,-6.1373211666104766e-06,-0.5714860559784918
689,0.5316,991.434,1064.88,0.0422346,0.00529482,0.0500676,-0.107949,0.426312,0.426312,-0.84874,3.08398e-11,1.04125e-05,-7.5529e-06,0.859238,0.5315985593455503,3.08397751780376e-11,1.0412554210192937e-05,0.5315985593455503,-7.552871476912415e-06,-0.5720461858125017
690,0.5326,992.163,1065.6,0.473285,0.0052867,0.0904313,-0.0462819,0.426964,0.426964,-0.850042,2.82152e-11,1.14377e-05,-6.30042e-06,0.86056,0.5325974872213437,2.8215207947823728e-11,1.1437765410793332e-05,0.5325974872213437,-6.300400152370322e-06,-0.5726030191014404
691,0.5336,991.692,1065.15,-0.288122,0.00527836,0.0189399,-0.154917,0.427617,0.427617,-0.85135,3.45683e-11,9.92599e-06,-8.90826e-06,0.861887,0.533598600208316,3.4568348183938724e-11,9.92603926275315e-06,0.533598600208316,-8.908220321623972e-06,-0.5731616889027551
692,0.5346,993.118,1066.57,0.837719,0.0052699,0.123858,0.00519215,0.428268,0.428268,-0.852646,2.65287e-11,1.23685e-05,-5.49478e-06,0.863205,0.5345972979378917,2.6528779173418116e-11,1.2368576490118244e-05,0.5345972979378917,-5.49476490374623e-06,-0.5737145130465142
693,0.5356,993.091,1066.55,0.519635,0.00526499,0.0893085,-0.0464214,0.42892,0.42892,-0.853949,2.97032e-11,1.1989e-05,-6.35671e-06,0.864528,0.5355981816287738,2.970312884542636e-11,1.1989071868390155e-05,0.5355981816287738,-6.356689796205295e-06,-0.57426960131747
694,0.5366,992.977,1066.45,0.115069,0.00525731,0.0551233,-0.0989664,0.429571,0.429571,-0.855253,3.35838e-11,1.14008e-05,-7.56948e-06,0.86585,0.5365981815096585,3.3583802405701135e-11,1.1400864989408177e-05,0.5365981815096585,-7.569451351607803e-06,-0.5748243919552416
695,0.5376,993.55,1067.02,0.394121,0.00524851,0.0813131,-0.0589523,0.430221,0.430221,-0.856551,3.19915e-11,1.21082e-05,-6.79962e-06,0.867169,0.5375972950043486,3.1991520543783736e-11,1.2108273304445305e-05,0.5375972950043486,-6.799596882656189e-06,-0.5753759118806185
696,0.5386,993.289,1066.77,-0.156309,0.00523947,0.0294093,-0.137637,0.430872,0.430872,-0.857853,3.74268e-11,1.10255e-05,-8.74932e-06,0.86849,0.5385985967317459,3.742672838313865e-11,1.1025560781030563e-05,0.5385985967317459,-8.74928172478473e-06,-0.5759284126872747
697,0.5396,994.377,1067.85,0.635356,0.00523054,0.103185,-0.0250902,0.431521,0.431521,-0.859147,3.16811e-11,1.27647e-05,-6.40669e-06,0.869805,0.5395974713207683,3.168110218609854e-11,1.2764781469165598e-05,0.5395974713207683,-6.406669477154736e-06,-0.5764768064339825
698,0.5406,993.44,1066.94,-0.585572,0.00522183,-0.0109926,-0.198567,0.432171,0.432171,-0.860452,4.17525e-11,1.02557e-05,-1.05249e-05,0.871127,0.5405985349875728,4.175260137628811e-11,1.0255752589838352e-05,0.5405985349875728,-1.0524844613390982e-05,-0.5770291437231179
699,0.5416,993.587,1067.09,-0.729176,0.00520743,-0.0250396,-0.219228,0.43282,0.43282,-0.861749,4.38723e-11,9.54161e-06,-1.19049e-05,0.872444,0.5415987079578024,4.387223917490246e-11,9.541655521250192e-06,0.5415987079578024,-1.1904829136932804e-05,-0.5775773813147767
700,0.5426,995.348,1068.84,0.734091,0.00519802,0.112543,-0.00994718,0.433468,0.433468,-0.863037,3.69858e-11,1.25451e-05,-7.64477e-06,0.873754,0.5425979876522133,3.698574779775754e-11,1.2545178690093195e-05,0.5425979876522133,-7.644740778856018e-06,-0.5781211114102935
701,0.5436,995.491,1068.99,0.589107,0.00519432,0.0951533,-0.0355418,0.434116,0.434116,-0.864333,3.83859e-11,1.2524e-05,-7.95944e-06,0.875069,0.5435979150897123,3.838596107641479e-11,1.2524078425668606e-05,0.5435979150897123,-7.959408323765516e-06,-0.578667512305647
702,0.5446,995.16,1068.67,-0.0265572,0.0051878,0.0412643,-0.11797,0.434764,0.434764,-0.86563,4.35315e-11,1.14756e-05,-9.86583e-06,0.876385,0.5445984906901726,4.353140070634254e-11,1.147566584491777e-05,0.5445984906901726,-9.86578133288507e-06,-0.5792136263106977
703,0.5456,996.069,1069.58,0.590689,0.00518007,0.0991664,-0.029829,0.435411,0.435411,-0.86692,3.96405e-11,1.29001e-05,-8.00381e-06,0.877696,0.5455981692747987,3.9640513094241214e-11,1.2900183206543403e-05,0.5455981692747987,-8.003777969611825e-06,-0.5797560907679558
704,0.5466,995.299,1068.82,-0.461038,0.00517196,0.000295807,-0.179754,0.436058,0.436058,-0.868219,4.7683e-11,1.07425e-05,-1.15787e-05,0.879012,0.546598494860751,4.768296868462585e-11,1.0742557700949007e-05,0.546598494860751,-1.1578632967079727e-05,-0.5803016331995265
705,0.5476,995.422,1068.95,-0.624905,0.0051588,-0.0160778,-0.203896,0.436704,0.436704,-0.869511,4.97092e-11,1.00418e-05,-1.29321e-05,0.880324,0.5475979202680812,4.970912570456676e-11,1.0041850418973652e-05,0.5475979202680812,-1.2932016380751143e-05,-0.5808435333465565
706,0.5486,997.021,1070.54,0.680155,0.00514989,0.107104,-0.0167925,0.43735,0.43735,-0.870795,4.44393e-11,1.27554e-05,-9.11508e-06,0.88163,0.5485979915128076,4.443934109588099e-11,1.2755481350490427e-05,0.5485979915128076,-9.115038457796487e-06,-0.5813813848751639
707,0.5496,997.141,1070.67,0.515202,0.00514582,0.0879838,-0.0450101,0.437996,0.437996,-0.872086,4.61055e-11,1.2657e-05,-9.54445e-06,0.88294,0.549598709012276,4.6105563811238426e-11,1.2657080100231255e-05,0.549598709012276,-9.544404451888866e-06,-0.5819214728055182
708,0.5506,996.933,1070.47,0.0254051,0.00513928,0.0456059,-0.109807,0.438641,0.438641,-0.873378,5.0025e-11,1.1851e-05,-1.10765e-05,0.884251,0.5505985225848038,5.002509517737508e-11,1.1851070223389826e-05,0.5505985225848038,-1.1076438655832632e-05,-0.5824612814711652
709,0.5516,997.681,1071.22,0.485021,0.00513168,0.0888205,-0.0440753,0.439285,0.439285,-0.874663,4.78743e-11,1.29403e-05,-9.72221e-06,0.885557,0.5515974296468988,4.7874371134071225e-11,1.2940383726123272e-05,0.5515974296468988,-9.722162739422835e-06,-0.5829974741468993
710,0.5526,997.164,1070.72,-0.311746,0.00512369,0.0137193,-0.157731,0.43993,0.43993,-0.875956,5.36704e-11,1.13113e-05,-1.24874e-05,0.886867,0.5525985328100842,5.367040145642932e-11,1.1311363973032229e-05,0.5525985328100842,-1.2487322032739279e-05,-0.58353630998039
711,0.5536,998.618,1072.16,0.852162,0.00511581,0.122711,0.00786689,0.440574,0.440574,-0.877236,4.68726e-11,1.38651e-05,-8.91004e-06,0.888169,0.5535987282935915,4.6872505876649484e-11,1.3865196121010115e-05,0.5535987282935915,-8.910000305673016e-06,-0.5840690424820782
712,0.5546,998.57,1072.12,0.523048,0.00511128,0.0870706,-0.0452086,0.441217,0.441217,-0.878523,5.00174e-11,1.34465e-05,-9.81815e-06,0.889476,0.5545980135116524,5.00173236162027e-11,1.34465904044756e-05,0.5545980135116524,-9.818101802117063e-06,-0.5846040013045608
713,0.5556,998.439,1072.0,0.11184,0.00510395,0.0519993,-0.0988615,0.44186,0.44186,-0.879811,5.37156e-11,1.28178e-05,-1.10774e-05,0.890782,0.5555979414767296,5.3715698555834024e-11,1.2817882148352666e-05,0.5555979414767296,-1.1077338645804069e-05,-0.585138686939414
714,0.5566,998.999,1072.56,0.387842,0.00509559,0.0780051,-0.0592942,0.442503,0.442503,-0.881093,5.26641e-11,1.35166e-05,-1.03142e-05,0.892085,0.5565985126022421,5.2664095306909076e-11,1.3516691349746424e-05,0.5565985126022421,-1.0314146808854119e-05,-0.5856701983711339
715,0.5576,998.737,1072.31,-0.154007,0.00508688,0.0267023,-0.136741,0.443145,0.443145,-0.88238,5.74729e-11,1.24186e-05,-1.2269e-05,0.89339,0.5575981697029269,5.747291531577048e-11,1.2418677111103449e-05,0.5575981697029269,-1.2268924736158482e-05,-0.586203097831471
716,0.5586,999.79,1073.36,0.613481,0.00507843,0.0985584,-0.0275871,0.443787,0.443787,-0.883658,5.3085e-11,1.41231e-05,-9.97901e-06,0.894689,0.5585984687895258,5.3085091877846935e-11,1.4123199731486125e-05,0.5585984687895258,-9.97896020982214e-06,-0.5867315924924221
717,0.5596,998.895,1072.49,-0.555766,0.00506995,-0.0112568,-0.193722,0.444428,0.444428,-0.884947,6.13917e-11,1.1666e-05,-1.39915e-05,0.895995,0.5595978506756953,6.139178054809236e-11,1.166606804803294e-05,0.5595978506756953,-1.3991402119439833e-05,-0.5872639522900993
718,0.5606,999.055,1072.65,-0.67673,0.00505637,-0.0232351,-0.21118,0.445069,0.445069,-0.886228,6.31359e-11,1.10057e-05,-1.52743e-05,0.897296,0.5605978733710115,6.313594091977848e-11,1.1005760562898814e-05,0.5605978733710115,-1.5274183348457093e-05,-0.5877923286698906
719,0.5616,1000.69,1074.28,0.67421,0.00504755,0.10448,-0.0177332,0.44571,0.44571,-0.887501,5.86075e-11,1.38218e-05,-1.13062e-05,0.89859,0.5615985372863643,5.860756324693739e-11,1.3821895521459737e-05,0.5615985372863643,-1.1306136085131868e-05,-0.5883167351799322
720,0.5626,1000.82,1074.41,0.518546,0.00504359,0.0862948,-0.0444745,0.44635,0.44635,-0.888781,6.02485e-11,1.3731e-05,-1.17165e-05,0.89989,0.5625982802338463,6.024847287733337e-11,1.3731094270719169e-05,0.5625982802338463,-1.1716431362107649e-05,-0.5888433526518191
721,0.5636,1000.59,1074.19,0.0143057,0.00503719,0.04237,-0.111418,0.44699,0.44699,-0.890062,6.41098e-11,1.28702e-05,-1.33203e-05,0.90119,0.5635986632216057,6.410982855697966e-11,1.2870282821486612e-05,0.5635986632216057,-1.3320211285194894e-05,-0.5893697071150612
722,0.5646,1001.34,1074.95,0.490439,0.00502985,0.0872634,-0.0433342,0.447629,0.447629,-0.891337,6.22359e-11,1.39963e-05,-1.19077e-05,0.902485,0.564598122060495,6.223599413601733e-11,1.3996397948634609e-05,0.564598122060495,-1.1907629103635742e-05,-0.5898929271148596
723,0.5656,1000.8,1074.42,-0.324203,0.00502201,0.0102907,-0.1595,0.448268,0.448268,-0.892619,6.77004e-11,1.22976e-05,-1.47636e-05,0.903784,0.5655982197576759,6.770028981861742e-11,1.2297675615835502e-05,0.5655982197576759,-1.4763491018587871e-05,-0.5904183475158595
724,0.5666,1002.27,1075.87,0.856279,0.00501448,0.121179,0.00848525,0.448906,0.448906,-0.893888,6.16445e-11,1.49072e-05,-1.11055e-05,0.905075,0.5665973901233357,6.164446730849704e-11,1.490731111286614e-05,0.5665973901233357,-1.1105438334158002e-05,-0.5909377769851579
725,0.5676,1002.21,1075.82,0.520235,0.00501011,0.0848704,-0.0454699,0.449544,0.449544,-0.895165,6.47826e-11,1.44585e-05,-1.20501e-05,0.906371,0.5675971981630852,6.478262370990251e-11,1.4458604524536511e-05,0.5675971981630852,-1.205002739779193e-05,-0.5914598160510622
726,0.5686,1002.07,1075.7,0.112378,0.00500297,0.0499338,-0.0987555,0.450182,0.450182,-0.896442,6.83293e-11,1.38163e-05,-1.33196e-05,0.907667,0.5685976442838903,6.832934218437003e-11,1.38163954455095e-05,0.5685976442838903,-1.3319511294573871e-05,-0.5919811888985504
727,0.5696,1002.61,1076.24,0.377853,0.00499487,0.0750199,-0.060691,0.45082,0.45082,-0.897714,6.76411e-11,1.44889e-05,-1.25912e-05,0.908959,0.5695987288929767,6.764100390910244e-11,1.4489004964701735e-05,0.5695987288929767,-1.2591120731153538e-05,-0.5924998588822286
728,0.5706,1002.37,1076.0,-0.144487,0.00498637,0.0254315,-0.135331,0.451456,0.451456,-0.89899,7.20193e-11,1.34093e-05,-1.45061e-05,0.910253,0.570597311200066,7.20192794290142e-11,1.3409389905127966e-05,0.570597311200066,-1.450599478702852e-05,-0.5930194974623755
729,0.5716,1003.38,1077.01,0.586971,0.00497821,0.0941169,-0.0312842,0.452093,0.452093,-0.900257,6.85283e-11,1.50454e-05,-1.23193e-05,0.911542,0.5715981004048214,6.852829415038286e-11,1.5045513182654346e-05,0.5715981004048214,-1.231922411770725e-05,-0.5935348152363447
730,0.5726,1002.54,1076.19,-0.518622,0.00496988,-0.0100038,-0.188345,0.452729,0.452729,-0.901535,7.57173e-11,1.26865e-05,-1.61653e-05,0.912836,0.5725979547166469,7.571721027943568e-11,1.2686580473930675e-05,0.5725979547166469,-1.6165169342219343e-05,-0.594053945947291
731,0.5736,1002.7,1076.36,-0.628588,0.00495692,-0.0210155,-0.204307,0.453365,0.453365,-0.902806,7.73075e-11,1.2061e-05,-1.73853e-05,0.914127,0.5735984451380762,7.730749373990875e-11,1.2061072734104172e-05,0.5735984451380762,-1.738514887650311e-05,-0.5945695756299145
732,0.5746,1004.24,1077.89,0.630081,0.0049485,0.0984516,-0.0238735,0.454,0.454,-0.904068,7.40465e-11,1.47128e-05,-1.36697e-05,0.915411,0.5745979974750188,7.404654667197974e-11,1.4712908233738275e-05,0.5745979974750188,-1.3669606570121395e-05,-0.595080906108074
733,0.5756,1004.35,1078.0,0.466882,0.00494432,0.0797034,-0.0514227,0.454635,0.454635,-0.905338,7.58056e-11,1.45702e-05,-1.41513e-05,0.916699,0.5755981847292602,7.580558403219584e-11,1.4570306145822443e-05,0.5755981847292602,-1.4151199870804376e-05,-0.5955948269485077
734,0.5766,1004.2,1077.86,0.0436593,0.00493799,0.0431094,-0.107075,0.455269,0.455269,-0.906608,7.89727e-11,1.38511e-05,-1.55296e-05,0.917988,0.5765974307058821,7.897260623224156e-11,1.3851195926894988e-05,0.5765974307058821,-1.5529479416409586e-05,-0.5961080955237503
735,0.5776,1004.85,1078.51,0.420408,0.00493087,0.0787706,-0.0531159,0.455903,0.455903,-0.907873,7.81529e-11,1.47593e-05,-1.44429e-05,0.919273,0.577597310405322,7.815281755085834e-11,1.4759408919040595e-05,0.577597310405322,-1.4442795701841149e-05,-0.5966186957601736
736,0.5786,1004.47,1078.14,-0.230538,0.00492323,0.0170507,-0.145946,0.456537,0.456537,-0.909143,8.23e-11,1.33872e-05,-1.67915e-05,0.920561,0.5785978242294878,8.229994463704315e-11,1.3387289608868258e-05,0.5785978242294878,-1.6791359023549113e-05,-0.5971306648473749
737,0.5796,1005.67,1079.34,0.700297,0.00491593,0.104693,-0.0134973,0.45717,0.45717,-0.910404,7.87907e-11,1.54709e-05,-1.39296e-05,0.921843,0.579597392982359,7.879075170080796e-11,1.5471019674917486e-05,0.579597392982359,-1.3929502983622832e-05,-0.5976383629080999
738,0.5806,1004.55,1078.24,-0.689295,0.00490826,-0.0263331,-0.210879,0.457803,0.457803,-0.911676,8.52881e-11,1.24734e-05,-1.87279e-05,0.923132,0.580597594662551,8.52879988855193e-11,1.247347779309571e-05,0.580597594662551,-1.8727724633960108e-05,-0.5981498415411066
739,0.5816,1005.94,1079.61,0.423218,0.00489813,0.075468,-0.0564735,0.458436,0.458436,-0.912934,8.39087e-11,1.46541e-05,-1.57048e-05,0.924411,0.5815984296708341,8.3908657799725e-11,1.465420737178924e-05,0.5815984296708341,-1.5704676680328156e-05,-0.5986550511969472
740,0.5826,1005.15,1078.84,-0.630385,0.00489021,-0.021064,-0.202173,0.459068,0.459068,-0.914203,8.75156e-11,1.23599e-05,-1.94472e-05,0.925698,0.5825983158091241,8.751555036212721e-11,1.235997638393549e-05,0.5825983158091241,-1.944701090439427e-05,-0.599164034918503
741,0.5836,1005.41,1079.11,-0.634856,0.00487819,-0.0211561,-0.201852,0.459699,0.459699,-0.915466,8.8369e-11,1.19492e-05,-2.03398e-05,0.926979,0.5835972504771427,8.836908982345903e-11,1.1949271391920036e-05,0.5835972504771427,-2.033959314762246e-05,-0.5996699711763995
742,0.5846,1006.89,1080.58,0.567337,0.00487071,0.0931773,-0.0295395,0.460331,0.460331,-0.91672,8.83525e-11,1.44925e-05,-1.67903e-05,0.928255,0.5845984002694551,8.835243647808966e-11,1.4492605016735993e-05,0.5845984002694551,-1.6790159043655883e-05,-0.6001716704013861
743,0.5856,1007.01,1080.71,0.423944,0.00486714,0.0764703,-0.0539873,0.460962,0.460962,-0.917982,8.98074e-11,1.43702e-05,-1.72355e-05,0.929536,0.5855985973890296,8.980749477416339e-11,1.4370303251798333e-05,0.5855985973890296,-1.7235351469579996e-05,-0.6006759354951392
744,0.5866,1006.91,1080.61,0.0536246,0.00486156,0.044625,-0.102339,0.461592,0.461592,-0.919244,9.189e-11,1.37515e-05,-1.8454e-05,0.930817,0.5865978392335158,9.189005112375526e-11,1.3751594552413593e-05,0.5865978392335158,-1.8453829725983972e-05,-0.6011795646077324
745,0.5876,1007.5,1081.21,0.379836,0.00485513,0.0755773,-0.0555886,0.462222,0.462222,-0.920501,9.22154e-11,1.45576e-05,-1.75178e-05,0.932094,0.5875977107987052,9.221534646997043e-11,1.4557705962481293e-05,0.5875977107987052,-1.7517646564213507e-05,-0.6016805669490817
746,0.5886,1007.21,1080.92,-0.181244,0.00484816,0.0222297,-0.135624,0.462852,0.462852,-0.921763,9.45252e-11,1.33758e-05,-1.95698e-05,0.933373,0.5885982124814468,9.452527649500553e-11,1.3375889456490597e-05,0.5885982124814468,-1.9569608512681747e-05,-0.6021829290164538
747,0.5896,1008.27,1081.98,0.615168,0.00484136,0.0973246,-0.022347,0.463481,0.463481,-0.923016,9.37557e-11,1.51863e-05,-1.71196e-05,0.934647,0.58959775508029,9.375566989433537e-11,1.5186415312395951e-05,0.58959775508029,-1.7119453460501255e-05,-0.6026810816485967
748,0.5906,1007.35,1081.08,-0.566456,0.00483418,-0.0143565,-0.190194,0.46411,0.46411,-0.924279,9.65991e-11,1.26262e-05,-2.12443e-05,0.935928,0.5905979265891994,9.659917310500532e-11,1.262627971088115e-05,0.5905979265891994,-2.1244074341453256e-05,-0.6031825786804346
749,0.5916,1007.54,1081.27,-0.644887,0.00482214,-0.0222596,-0.201438,0.464739,0.464739,-0.925536,9.69833e-11,1.2058e-05,-2.23641e-05,0.937203,0.5915987274038836,9.698331027152562e-11,1.2058072697884725e-05,0.5915987274038836,-2.2363849925377544e-05,-0.6036810648148617
750,0.5926,1009.06,1082.79,0.607676,0.00481453,0.0969533,-0.0220717,0.465367,0.465367,-0.926784,9.85086e-11,1.47398e-05,-1.8608e-05,0.938473,0.5925985653209391,9.850853466275566e-11,1.4739908631433707e-05,0.5925985653209391,-1.8607826872241162e-05,-0.6041753623401611
751,0.5936,1009.16,1082.9,0.44703,0.00481092,0.0785118,-0.0490893,0.465994,0.465994,-0.928039,9.98889e-11,1.45968e-05,-1.90793e-05,0.939747,0.5935974377351736,9.988898597157458e-11,1.4596906533714815e-05,0.5935974377351736,-1.907911799126083e-05,-0.6046718106739348
752,0.5946,1009.03,1082.77,0.0478053,0.00480521,0.0438787,-0.101561,0.466622,0.466622,-0.929295,1.0161e-10,1.3917e-05,-2.03836e-05,0.941021,0.5945985312365294,1.016100537043485e-10,1.391709684184228e-05,0.5945985312365294,-2.0383392255851618e-05,-0.6051680311880118
753,0.5956,1009.64,1083.38,0.394209,0.00479868,0.0767583,-0.051993,0.467249,0.467249,-0.930546,1.02355e-10,1.47758e-05,-1.93655e-05,0.942292,0.5955986580225974,1.0235501335387198e-10,1.4775909162656475e-05,0.5955986580225974,-1.9365312489916242e-05,-0.605661657153577
754,0.5966,1009.3,1083.06,-0.200963,0.00479161,0.0200911,-0.136886,0.467875,0.467875,-0.931802,1.03936e-10,1.35106e-05,-2.15353e-05,0.943565,0.5965978154861766,1.039359709409382e-10,1.351069126864779e-05,0.5965978154861766,-2.15350681170845e-05,-0.606156635200908
755,0.5976,1010.41,1084.16,0.638564,0.00478479,0.0993778,-0.0175055,0.468501,0.468501,-0.933048,1.04156e-10,1.54302e-05,-1.89213e-05,0.944833,0.5975975986181421,1.0415601714441891e-10,1.54303190460503e-05,0.5975975986181421,-1.892112099333154e-05,-0.6066470584363228
756,0.5986,1009.43,1083.19,-0.600831,0.00477758,-0.0179339,-0.193534,0.469127,0.469127,-0.934306,1.05415e-10,1.27234e-05,-2.32551e-05,0.946107,0.5985980078102844,1.0541501005434384e-10,1.2723480942833376e-05,0.5985980078102844,-2.325482960230385e-05,-0.6071415853141853
757,0.5996,1009.63,1083.4,-0.662855,0.00476545,-0.0241844,-0.202284,0.469752,0.469752,-0.935556,1.0544e-10,1.21779e-05,-2.43352e-05,0.947376,0.5995974438563967,1.0544010109470037e-10,1.2177974150873183e-05,0.5995974438563967,-2.4334903901412908e-05,-0.6076323515397498
758,0.6006,1011.16,1084.92,0.602584,0.00475786,0.0963627,-0.0212114,0.470377,0.470377,-0.936797,1.0864e-10,1.49019e-05,-2.05177e-05,0.948639,0.6005975047452805,1.0863998589627499e-10,1.4902011033823825e-05,0.6005975047452805,-2.0517489513482978e-05,-0.6081189777774547
759,0.6016,1011.26,1085.03,0.444577,0.00475429,0.078195,-0.0477865,0.471002,0.471002,-0.938047,1.09897e-10,1.47628e-05,-2.09785e-05,0.949907,0.6015981908675851,1.098969804047556e-10,1.476290897062249e-05,0.6015981908675851,-2.0978279952843515e-05,-0.6086085230257099
760,0.6026,1011.12,1084.9,0.0453543,0.00474864,0.0434519,-0.10033,0.471626,0.471626,-0.939296,1.11172e-10,1.40762e-05,-2.22866e-05,0.951175,0.6025979000155022,1.1117196052623513e-10,1.4076299070131526e-05,0.6025979000155022,-2.228635165557602e-05,-0.609097065821964
761,0.6036,1011.73,1085.51,0.390987,0.00474221,0.0762939,-0.0509032,0.47225,0.47225,-0.940541,1.12403e-10,1.49388e-05,-2.12604e-05,0.952439,0.6035982331765992,1.124029758159395e-10,1.4938911584438941e-05,0.6035982331765992,-2.1260173999282372e-05,-0.6095834371460425
762,0.6046,1011.4,1085.18,-0.19949,0.00473525,0.0199897,-0.135114,0.472873,0.472873,-0.94179,1.13198e-10,1.36752e-05,-2.342e-05,0.953707,0.6045975861419939,1.1319789550157111e-10,1.3675293506043573e-05,0.6045975861419939,-2.3419725753925924e-05,-0.6100707630346771
763,0.6056,1012.49,1086.27,0.629056,0.00472855,0.0983485,-0.0173297,0.473496,0.473496,-0.94303,1.1454e-10,1.55838e-05,-2.08227e-05,0.954967,0.605597561898265,1.14539933093738e-10,1.5583921427975156e-05,0.605597561898265,-2.0822483209115283e-05,-0.6105539756347864
764,0.6066,1011.52,1085.32,-0.587879,0.00472144,-0.0170108,-0.190139,0.474119,0.474119,-0.944282,1.14206e-10,1.29085e-05,-2.50982e-05,0.956236,0.6065981608335325,1.1420597800793075e-10,1.29085833151521e-05,0.6065981608335325,-2.5097885042790757e-05,-0.6110412569555337
765,0.6076,1011.73,1085.53,-0.642715,0.0047096,-0.022599,-0.197891,0.474741,0.474741,-0.945526,1.13978e-10,1.23882e-05,-2.61345e-05,0.957498,0.6075977757375783,1.1397793819867275e-10,1.2388276733998893e-05,0.6075977757375783,-2.613415849694878e-05,-0.6115248207928131
766,0.6086,1013.22,1087.01,0.581757,0.00470216,0.0942576,-0.0226568,0.475363,0.475363,-0.946761,1.18594e-10,1.5045e-05,-2.242e-05,0.958755,0.6085980125955017,1.1859402349045922e-10,1.5045113176626046e-05,0.6085980125955017,-2.2419748673674356e-05,-0.6120042915050274
767,0.6096,1013.31,1087.11,0.421726,0.00469851,0.0759572,-0.049405,0.475984,0.475984,-0.948004,1.19729e-10,1.48896e-05,-2.29009e-05,0.960017,0.609597262196212,1.1972889346623106e-10,1.4889710850729543e-05,0.609597262196212,-2.290063777643514e-05,-0.6124862705586481
768,0.6106,1013.2,1087.01,0.0565876,0.00469293,0.0442981,-0.097224,0.476606,0.476606,-0.949247,1.20606e-10,1.42681e-05,-2.41051e-05,0.961278,0.6105987431215778,1.2060596965568493e-10,1.4268201789846557e-05,0.6105987431215778,-2.41048094744567e-05,-0.6129676508844915
769,0.6116,1013.77,1087.58,0.362076,0.0046866,0.0733722,-0.0535267,0.477226,0.477226,-0.950486,1.22264e-10,1.50444e-05,-2.32057e-05,0.962537,0.6115976239633767,1.2226397672066014e-10,1.5044513167472573e-05,0.6115976239633767,-2.320543074985082e-05,-0.6134468870169545
770,0.6126,1013.49,1087.31,-0.163006,0.00467977,0.0231991,-0.128418,0.477847,0.477847,-0.951729,1.2244e-10,1.39189e-05,-2.51509e-05,0.963797,0.6125987369012527,1.224400580923657e-10,1.3918996868422795e-05,0.6125987369012527,-2.5150583718769326e-05,-0.6139270740383326
771,0.6136,1014.48,1088.3,0.56796,0.00467317,0.0923992,-0.0245488,0.478466,0.478466,-0.952964,1.24751e-10,1.56205e-05,-2.28639e-05,0.965052,0.6135972445256217,1.2475109834042541e-10,1.562062200055614e-05,0.6135972445256217,-2.2863638623027427e-05,-0.6144035797990232
772,0.6146,1013.67,1087.5,-0.501114,0.00466619,-0.00911059,-0.176333,0.479086,0.479086,-0.954208,1.23307e-10,1.32599e-05,-2.66571e-05,0.966313,0.6145979850147223,1.23306920229993e-10,1.3259987912794813e-05,0.6145979850147223,-2.6656744702702184e-05,-0.6148829635072646
773,0.6156,1013.86,1087.69,-0.565066,0.00465506,-0.0157695,-0.185686,0.479705,0.479705,-0.955446,1.22958e-10,1.2763e-05,-2.76524e-05,0.96757,0.6155977305567697,1.2295808815565579e-10,1.2763081447486613e-05,0.6155977305567697,-2.7652017675960927e-05,-0.615359443396535
774,0.6166,1015.22,1089.05,0.538772,0.00464785,0.0899384,-0.0274482,0.480324,0.480324,-0.956676,1.28348e-10,1.51878e-05,-2.42874e-05,0.968821,0.6165980951328789,1.28347998895606e-10,1.5187915335168611e-05,0.6165980951328789,-2.428710506352516e-05,-0.6158322604390658
775,0.6176,1014.25,1088.09,-0.682,0.00464143,-0.0252845,-0.199748,0.480942,0.480942,-0.957919,1.23902e-10,1.24454e-05,-2.86495e-05,0.970081,0.6175974615280804,1.239019997711921e-10,1.2445477444389397e-05,0.6175974615280804,-2.8649089606980205e-05,-0.6163094842832763
776,0.6186,1014.53,1088.37,-0.658289,0.00463044,-0.0230143,-0.195789,0.48156,0.48156,-0.959154,1.23471e-10,1.20842e-05,-2.94414e-05,0.971335,0.6185974457225942,1.234710111930326e-10,1.2084273014245639e-05,0.6185974457225942,-2.94409666062867e-05,-0.6167830495834224
777,0.6196,1015.98,1089.82,0.540251,0.00462382,0.091513,-0.0244303,0.482178,0.482178,-0.960381,1.31411e-10,1.47036e-05,-2.57853e-05,0.972583,0.6195980480983387,1.314111042205468e-10,1.4703708098418034e-05,0.6195980480983387,-2.5784967562003658e-05,-0.6172529684274164
778,0.6206,1014.96,1088.81,-0.731636,0.00461822,-0.028571,-0.203896,0.482795,0.482795,-0.961622,1.24276e-10,1.18378e-05,-3.03275e-05,0.97384,0.620597648439009,1.2427592288588585e-10,1.1837870067088474e-05,0.620597648439009,-3.0327040126065796e-05,-0.6177276628847649
779,0.6216,1015.26,1089.12,-0.683762,0.00460774,-0.0238457,-0.196287,0.483412,0.483412,-0.962855,1.23686e-10,1.15226e-05,-3.10488e-05,0.975092,0.6215978657233974,1.2368595037060004e-10,1.1522666385488378e-05,0.6215978657233974,-3.1048317990944874e-05,-0.618198714213606
780,0.6226,1016.74,1090.59,0.539056,0.00460162,0.0929599,-0.0216191,0.484029,0.484029,-0.96408,1.33893e-10,1.42047e-05,-2.72997e-05,0.976338,0.6225987003322748,1.3389289676979388e-10,1.420480088731857e-05,0.6225987003322748,-2.7299327366558934e-05,-0.6186661344353566
781,0.6236,1015.7,1089.57,-0.74267,0.00459659,-0.0281268,-0.202477,0.484645,0.484645,-0.965318,1.24372e-10,1.13166e-05,-3.18707e-05,0.977593,0.6235985290473078,1.2437206819981839e-10,1.1316664032978707e-05,0.6235985290473078,-3.187019213468645e-05,-0.6191379336569491
782,0.6246,1016.01,1089.88,-0.686068,0.00458653,-0.022547,-0.193603,0.48526,0.48526,-0.966548,1.23631e-10,1.10287e-05,-3.25494e-05,0.978842,0.6245973492484023,1.2363110535318356e-10,1.102876081637838e-05,0.6245973492484023,-3.254887027404063e-05,-0.619606106013527
783,0.6256,1017.49,1091.35,0.533621,0.00458071,0.093981,-0.0194551,0.485876,0.485876,-0.967771,1.35847e-10,1.3719e-05,-2.87883e-05,0.980086,0.625598409510445,1.3584688929313415e-10,1.3719094105857366e-05,0.625598409510445,-2.8787885620884524e-05,-0.6200710433787219
784,0.6266,1016.46,1090.34,-0.737039,0.00457604,-0.0261395,-0.198763,0.486491,0.486491,-0.969007,1.24265e-10,1.08582e-05,-3.33143e-05,0.981339,0.6265984600163041,1.2426504270024452e-10,1.0858258950419142e-05,0.6265984600163041,-3.3313745084861957e-05,-0.6205403454806608
785,0.6276,1016.77,1090.65,-0.677623,0.0045663,-0.0203197,-0.18954,0.487105,0.487105,-0.970235,1.23399e-10,1.05909e-05,-3.39601e-05,0.982586,0.6275974981440733,1.233990687410369e-10,1.0590956083689207e-05,0.6275974981440733,-3.395952336238128e-05,-0.621006035943945
786,0.6286,1018.23,1092.1,0.525585,0.00456065,0.0946826,-0.0177774,0.48772,0.48772,-0.971456,1.37369e-10,1.32623e-05,-3.0228e-05,0.983827,0.6285987784675724,1.3736900505989524e-10,1.3262387944745768e-05,0.6285987784675724,-3.0227543138638957e-05,-0.6214685051791337
787,0.6296,1017.22,1091.12,-0.723073,0.00455619,-0.0234373,-0.193993,0.488333,0.488333,-0.97269,1.24043e-10,1.04544e-05,-3.46707e-05,0.985078,0.6295974155697734,1.240429980953195e-10,1.0454454647534916e-05,0.6295974155697734,-3.4670098978173414e-05,-0.6219353249567021
788,0.6306,1017.53,1091.43,-0.66378,0.00454669,-0.0176815,-0.184875,0.488947,0.488947,-0.973916,1.23078e-10,1.0204e-05,-3.52891e-05,0.986322,0.6305982956216651,1.230779922423153e-10,1.0204052061091318e-05,0.6305982956216651,-3.5288477347017455e-05,-0.6223985482344143
789,0.6316,1018.97,1092.85,0.516258,0.00454112,0.0951683,-0.0164307,0.48956,0.48956,-0.975134,1.38563e-10,1.2842e-05,-3.16074e-05,0.987561,0.6315981588036368,1.3856293890057714e-10,1.284208245877494e-05,0.6315981588036368,-3.160690049142101e-05,-0.6228581868259389
790,0.6326,1017.99,1091.89,-0.704996,0.00453679,-0.020437,-0.188792,0.490173,0.490173,-0.976366,1.23782e-10,1.00996e-05,-3.59483e-05,0.988809,0.632598635089636,1.2378209568453258e-10,1.0099651001072019e-05,0.632598635089636,-3.594765386760734e-05,-0.6233225394398254
791,0.6336,1018.29,1092.2,-0.647374,0.00452749,-0.0149041,-0.180015,0.490785,0.490785,-0.977589,1.22739e-10,9.86379e-06,-3.6543e-05,0.990052,0.633598091256703,1.2273893013059478e-10,9.863838647428125e-06,0.633598091256703,-3.654233231276116e-05,-0.6237829343851959
792,0.6346,1019.7,1093.6,0.506428,0.00452196,0.0955048,-0.0153148,0.491397,0.491397,-0.978805,1.39524e-10,1.24614e-05,-3.29222e-05,0.991289,0.6345981592781524,1.3952394795069267e-10,1.2461477643554986e-05,0.6345981592781524,-3.292165807033953e-05,-0.624240136301881
793,0.6356,1018.75,1092.66,-0.685138,0.00451769,-0.0173659,-0.183498,0.492008,0.492008,-0.980034,1.23541e-10,9.78945e-06,-3.71538e-05,0.992534,0.6355972039305324,1.23540955243584e-10,9.78949791674566e-06,0.6355972039305324,-3.715310980612063e-05,-0.6247016615090341
794,0.6366,1019.05,1092.97,-0.629976,0.00450855,-0.0121354,-0.175179,0.49262,0.49262,-0.981256,1.22439e-10,9.56652e-06,-3.77273e-05,0.993774,0.6365984957833926,1.2243894786934106e-10,9.56656575934467e-06,0.6365984957833926,-3.772658833434139e-05,-0.6251599959792734
795,0.6376,1020.43,1094.34,0.496537,0.00450303,0.0957321,-0.0143694,0.493231,0.493231,-0.98247,1.40335e-10,1.21206e-05,-3.41719e-05,0.995009,0.637598763014837,1.403350768924838e-10,1.212067345468526e-05,0.637598763014837,-3.417131614724678e-05,-0.6256147756370479
796,0.6386,1019.51,1093.43,-0.664789,0.00449881,-0.014347,-0.178295,0.493841,0.493841,-0.983697,1.23368e-10,9.52038e-06,-3.82926e-05,0.996253,0.638598002997486,1.233679824963474e-10,9.520425318987336e-06,0.638598002997486,-3.829186684778385e-05,-0.6260738645986657
797,0.6396,1019.81,1093.73,-0.612446,0.0044898,-0.00945348,-0.170484,0.494451,0.494451,-0.984916,1.22223e-10,9.30895e-06,-3.88471e-05,0.99749,0.6395978527024708,1.22222898468749e-10,9.30899332840518e-06,0.6395978527024708,-3.884634546114096e-05,-0.626529402850746
798,0.6406,1021.16,1095.07,0.486814,0.00448428,0.0958743,-0.0135585,0.495061,0.495061,-0.986128,1.41066e-10,1.18188e-05,-3.53582e-05,0.998723,0.6405983125018355,1.4106604773189702e-10,1.1818869842361579e-05,0.6405983125018355,-3.535757490624736e-05,-0.6269817750215796
799,0.6416,1020.26,1094.2,-0.644638,0.00448007,-0.0114435,-0.173276,0.49567,0.49567,-0.987352,1.23299e-10,9.2891e-06,-3.93699e-05,0.999964,0.6415977411692892,1.232989266242157e-10,9.289143143798029e-06,0.6415977411692892,-3.93691250156758e-05,-0.6274380700194468
800,0.6426,1020.56,1094.5,-0.595233,0.00447119,-0.00689687,-0.165989,0.496279,0.496279,-0.988569,1.22126e-10,9.0881e-06,-3.99069e-05,1.0012,0.6425977786741737,1.221260870210017e-10,9.088141296853536e-06,0.6425977786741737,-3.9906103730280584e-05,-0.627891202101434
801,0.6436,1021.88,1095.81,0.477375,0.00446566,0.0959456,-0.0128601,0.496888,0.496888,-0.989779,1.41773e-10,1.15541e-05,-3.64839e-05,1.00243,0.6435984253873837,1.4177303775397831e-10,1.1554166748917183e-05,0.6435984253873837,-3.648323447058566e-05,-0.6283411814544814
802,0.6446,1021.01,1094.96,-0.625036,0.00446146,-0.00868489,-0.168485,0.497496,0.497496,-0.991001,1.23365e-10,9.09274e-06,-4.03901e-05,1.00367,0.6445980370811808,1.2336509591648337e-10,9.092781338981837e-06,0.6445980370811808,-4.0389284330921704e-05,-0.6287950711476593
803,0.6456,1021.3,1095.25,-0.578561,0.00445269,-0.00448173,-0.161715,0.498104,0.498104,-0.992216,1.22175e-10,8.90128e-06,-4.0911e-05,1.0049,0.6455982567236853,1.221749368340852e-10,8.901319616505532e-06,0.6455982567236853,-4.091016315643792e-05,-0.6292458112561494
804,0.6466,1022.6,1096.54,0.468266,0.00444715,0.0959555,-0.0122603,0.498711,0.498711,-0.993424,1.42499e-10,1.13243e-05,-3.75524e-05,1.00613,0.6465974380863813,1.4249890156747824e-10,1.1324364120213204e-05,0.6465974380863813,-3.755169491748145e-05,-0.6296934119109259
805,0.6476,1021.76,1095.72,-0.606143,0.00444294,-0.00608185,-0.163937,0.499318,0.499318,-0.994643,1.23586e-10,8.92869e-06,-4.13572e-05,1.00737,0.6475972261362752,1.2358603029838378e-10,8.928729860802065e-06,0.6475972261362752,-4.1356344802845335e-05,-0.6301445406229933
806,0.6486,1022.05,1096.01,-0.562524,0.00443428,-0.00221208,-0.157669,0.499925,0.499925,-0.995856,1.22389e-10,8.746e-06,-4.18632e-05,1.0086,0.6485976212417384,1.2238898783323293e-10,8.746038246298937e-06,0.6485976212417384,-4.1862323748476093e-05,-0.6305929033082733
807,0.6496,1023.31,1097.27,0.459502,0.00442873,0.0959101,-0.0117495,0.500532,0.500532,-0.997062,1.4328e-10,1.11274e-05,-3.85671e-05,1.00982,0.6495986237713649,1.432800544876045e-10,1.1127461909676839e-05,0.6495986237713649,-3.856635629895244e-05,-0.6310381397353539
808,0.6506,1022.5,1096.47,-0.588017,0.00442452,-0.00363516,-0.159634,0.501138,0.501138,-0.998279,1.23978e-10,8.79457e-06,-4.22748e-05,1.01106,0.6505985834945647,1.2397793902607646e-10,8.794608672424431e-06,0.6505985834945647,-4.227390643318785e-05,-0.6314868931974275
809,0.6516,1022.78,1096.76,-0.54715,0.00441596,-8.55854e-05,-0.153847,0.501743,0.501743,-0.999489,1.22782e-10,8.61996e-06,-4.2767e-05,1.01229,0.6515974977786809,1.2278200678395024e-10,8.619997152070624e-06,0.6515974977786809,-4.2766085504908347e-05,-0.631932524395413
810,0.6526,1024.03,1097.99,0.451078,0.00441041,0.0958141,-0.0113204,0.502349,0.502349,-1.00069,1.44142e-10,1.0961e-05,-3.95314e-05,1.01351,0.6525986691866326,1.4414203164392347e-10,1.0961060072034456e-05,0.6525986691866326,-3.953061864447882e-05,-0.6323743080894035
811,0.6536,1023.24,1097.22,-0.570662,0.00440619,-0.00134047,-0.155567,0.502954,0.502954,-1.00191,1.24551e-10,8.68818e-06,-4.31464e-05,1.01474,0.6535987938887069,1.2455103615138796e-10,8.688217742358617e-06,0.6535987938887069,-4.3145469207472864e-05,-0.6328225379577193
812,0.6546,1023.52,1097.5,-0.53243,0.00439773,0.00190325,-0.15024,0.503558,0.503558,-1.00312,1.23363e-10,8.52102e-06,-4.36257e-05,1.01597,0.6545978692506018,1.2336309751503904e-10,8.521056303889551e-06,0.6545978692506018,-4.362474841301811e-05,-0.6332665540029094
813,0.6556,1024.74,1098.71,0.44298,0.00439217,0.0956711,-0.0109673,0.504162,0.504162,-1.00432,1.45105e-10,1.0823e-05,-4.04486e-05,1.01719,0.6555975482362912,1.4510503909548333e-10,1.082305856892063e-05,0.6555975482362912,-4.044778196643506e-05,-0.6337063701956125
814,0.6566,1023.97,1097.96,-0.554057,0.00438794,0.000809001,-0.151727,0.504766,0.504766,-1.00553,1.25312e-10,8.60748e-06,-4.39751e-05,1.01842,0.6565978312104743,1.2531198301246604e-10,8.607517044456614e-06,0.6565978312104743,-4.397413310941456e-05,-0.6341493174505433
815,0.6576,1024.25,1098.24,-0.518341,0.00437958,0.00376129,-0.146838,0.50537,0.50537,-1.00674,1.24136e-10,8.44719e-06,-4.44426e-05,1.01964,0.6575987185380701,1.2413603478478308e-10,8.447225677610248e-06,0.6575987185380701,-4.444161244232525e-05,-0.6345917290634244
816,0.6586,1025.44,1099.43,0.435195,0.00437402,0.0954845,-0.0106853,0.505973,0.505973,-1.00794,1.46184e-10,1.07115e-05,-4.1322e-05,1.02086,0.658598551984837,1.4618395383081406e-10,1.0711557368425773e-05,0.658598551984837,-4.132114625787775e-05,-0.6350299559997992
817,0.6596,1024.7,1098.7,-0.538167,0.00436978,0.00282095,-0.148101,0.506575,0.506575,-1.00915,1.26262e-10,8.55057e-06,-4.4764e-05,1.02209,0.6595973289148243,1.2626188983233533e-10,8.55060655613471e-06,0.6595973289148243,-4.476299810707296e-05,-0.6354713026844472
818,0.6606,1024.97,1098.98,-0.504852,0.00436151,0.00549584,-0.143628,0.507178,0.507178,-1.01035,1.25104e-10,8.3966e-06,-4.52203e-05,1.02331,0.6605983678870779,1.251039272176513e-10,8.396635251539664e-06,0.6605983678870779,-4.521927757761279e-05,-0.6359084747655166
819,0.6616,1026.15,1100.15,0.427703,0.00435595,0.095257,-0.0104698,0.50778,0.50778,-1.01155,1.47389e-10,1.06244e-05,-4.21543e-05,1.02453,0.6615983490686819,1.473889899017422e-10,1.0624456439067842e-05,0.6615983490686819,-4.2153411520029493e-05,-0.6363451225547267
820,0.6626,1025.43,1099.44,-0.522955,0.00435171,0.0047033,-0.144677,0.508381,0.508381,-1.01276,1.27403e-10,8.51566e-06,-4.55156e-05,1.02576,0.6625972698220908,1.2740297705704506e-10,8.515696258371008e-06,0.6625972698220908,-4.5514564180781925e-05,-0.6367848788502228
821,0.6636,1025.7,1099.71,-0.49193,0.00434352,0.0071142,-0.1406,0.508983,0.508983,-1.01396,1.26264e-10,8.36752e-06,-4.59617e-05,1.02698,0.6635984547049374,1.2626411027838458e-10,8.367555007771088e-06,0.6635984547049374,-4.5960643777265275e-05,-0.6372204755852899
822,0.6646,1026.85,1100.86,0.420489,0.00433797,0.0949914,-0.0103166,0.509584,0.509584,-1.01515,1.48726e-10,1.056e-05,-4.29486e-05,1.02819,0.6645985778831265,1.4872592046799582e-10,1.0560055756947406e-05,0.6645985778831265,-4.294767772206054e-05,-0.637651926455161
823,0.6656,1026.15,1100.17,-0.508382,0.00433372,0.00646379,-0.141444,0.510184,0.510184,-1.01636,1.28732e-10,8.50109e-06,-4.62327e-05,1.02941,0.6655976367175347,1.2873191401752138e-10,8.501126134374815e-06,0.6655976367175347,-4.623163128514296e-05,-0.6380901024741976
824,0.6666,1026.41,1100.44,-0.479541,0.00432561,0.00862339,-0.137744,0.510784,0.510784,-1.01756,1.27614e-10,8.3583e-06,-4.66692e-05,1.03063,0.6665972951671104,1.2761391943172384e-10,8.358334930624878e-06,0.6665972951671104,-4.666811100983992e-05,-0.6385241338803012
825,0.6676,1027.55,1101.57,0.413536,0.00432008,0.0946903,-0.0102217,0.511384,0.511384,-1.01875,1.50198e-10,1.05165e-05,-4.37073e-05,1.03185,0.6675975535917302,1.5019807619864878e-10,1.051655529860085e-05,0.6675975535917302,-4.370634484984759e-05,-0.6389540343194905
826,0.6686,1026.87,1100.9,-0.49441,0.00431581,0.00810983,-0.138389,0.511984,0.511984,-1.01995,1.30243e-10,8.5053e-06,-4.69177e-05,1.03307,0.6685984123514874,1.3024292755403621e-10,8.505336170250288e-06,0.6685984123514874,-4.6916599381940927e-05,-0.6393870296291618
827,0.6696,1027.13,1101.17,-0.467656,0.0043078,0.0100301,-0.135048,0.512583,0.512583,-1.02115,1.29148e-10,8.36742e-06,-4.73453e-05,1.03428,0.6695982022076541,1.2914802560715088e-10,8.367455006874636e-06,0.6695982022076541,-4.734417922902523e-05,-0.6398195056560936
828,0.6706,1028.24,1102.27,0.40683,0.00430227,0.0943561,-0.0101813,0.513182,0.513182,-1.02234,1.51808e-10,1.04924e-05,-4.4433e-05,1.03549,0.6705985911173433,1.5180789958435525e-10,1.0492455045474358e-05,0.6705985911173433,-4.4432012868855786e-05,-0.6402478655196939
829,0.6716,1027.58,1101.63,-0.481006,0.004298,0.00964843,-0.135502,0.51378,0.51378,-1.02354,1.31932e-10,8.52682e-06,-4.75728e-05,1.03671,0.6715979078407519,1.3193202086370093e-10,8.526856353441303e-06,0.6715979078407519,-4.7571668432278e-05,-0.640679309163111
830,0.6726,1027.84,1101.89,-0.456244,0.00429006,0.0113407,-0.132503,0.514378,0.514378,-1.02474,1.3086e-10,8.39344e-06,-4.79921e-05,1.03792,0.6725978223342763,1.3085998951112288e-10,8.39347522507694e-06,0.6725978223342763,-4.7990948397580446e-05,-0.6411102353846712
831,0.6736,1028.93,1102.97,0.400357,0.00428456,0.0939911,-0.0101917,0.514976,0.514976,-1.02593,1.53553e-10,1.04862e-05,-4.5128e-05,1.03913,0.6735983349554904,1.5355294813446108e-10,1.0486254980346388e-05,0.6735983349554904,-4.5126981747078965e-05,-0.6415370601934334
832,0.6746,1028.29,1102.35,-0.468135,0.00428027,0.0110862,-0.132774,0.515573,0.515573,-1.02713,2.58029e-11,8.56428e-06,-4.82001e-05,1.04035,0.6745977714635725,2.5802915359918188e-11,8.564316673620453e-06,0.6745977714635725,-4.81989383938064e-05,-0.6419669577310909
833,0.6756,1028.55,1102.6,-0.445278,0.00427242,0.0125609,-0.1301,0.51617,0.51617,-1.02832,1.32743e-10,8.43502e-06,-4.86118e-05,1.04156,0.6755978048133895,1.3274292776088714e-10,8.435055574906869e-06,0.6755978048133895,-4.861061846561654e-05,-0.6423927636466225
834,0.6766,1029.62,1103.67,0.394103,0.00426693,0.0935975,-0.0102497,0.516767,0.516767,-1.02951,1.55432e-10,1.04965e-05,-4.57943e-05,1.04277,0.6765984353613621,1.554318895813367e-10,1.0496555088446158e-05,0.6765984353613621,-4.579325145703805e-05,-0.642818063154487
835,0.6776,1029.0,1103.06,-0.455768,0.00426263,0.0124292,-0.130194,0.517363,0.517363,-1.03071,1.35813e-10,8.61641e-06,-4.88016e-05,1.04398,0.6775979858652996,1.3581291646858062e-10,8.616447121356785e-06,0.6775979858652996,-4.880040922128348e-05,-0.6432464244105447
836,0.6786,1029.25,1103.32,-0.434734,0.00425486,0.0136966,-0.12783,0.517959,0.517959,-1.0319,1.34789e-10,8.4909e-06,-4.92063e-05,1.04519,0.6785981322789008,1.347890687952713e-10,8.490936047822473e-06,0.6785981322789008,-4.9205089389880996e-05,-0.6436707086662949
837,0.6796,1030.31,1104.37,0.388057,0.00424939,0.0931775,-0.0103517,0.518554,0.518554,-1.03308,1.57441e-10,1.0522e-05,-4.64342e-05,1.0464,0.6795971953593987,1.5744094916669837e-10,1.052205535634343e-05,0.6795971953593987,-4.643312194918536e-05,-0.644090929251164
838,0.6806,1029.7,1103.78,-0.443877,0.00424508,0.0136833,-0.127753,0.51915,0.51915,-1.03428,1.37989e-10,8.68199e-06,-4.93793e-05,1.04761,0.6805985336570048,1.3798895359684593e-10,8.682027688555749e-06,0.6805985336570048,-4.9378080862472196e-05,-0.6445177639840027
839,0.6816,1029.95,1104.03,-0.424588,0.00423739,0.0147527,-0.125686,0.519745,0.519745,-1.03546,1.36988e-10,8.55989e-06,-4.97775e-05,1.04881,0.681598787330489,1.369879765178439e-10,8.55992663595373e-06,0.681598787330489,-4.977626112079303e-05,-0.6449369856330849
840,0.6826,1030.99,1105.06,0.382208,0.00423194,0.092733,-0.0104947,0.520339,0.520339,-1.03665,1.59574e-10,1.05615e-05,-4.70494e-05,1.05002,0.6825979537332065,1.5957390964160822e-10,1.0561555772836684e-05,0.6825979537332065,-4.7048293194351665e-05,-0.6453592593175075
841,0.6836,1030.4,1104.49,-0.432435,0.00422763,0.014854,-0.125444,0.520933,0.520933,-1.03784,3.67608e-11,8.75991e-06,-4.99348e-05,1.05123,0.6835977138170728,3.6760816612968483e-11,8.759948368020076e-06,0.6835977138170728,-4.9933553278647125e-05,-0.645781030795118
842,0.6846,1030.65,1104.74,-0.414817,0.00422001,0.0157343,-0.123659,0.521527,0.521527,-1.03903,1.39332e-10,8.64091e-06,-5.03269e-05,1.05243,0.6845980679348398,1.3933210141203745e-10,8.640947332771987e-06,0.6845980679348398,-5.0325633622838595e-05,-0.6462023006631868
843,0.6856,1031.67,1105.75,0.376545,0.00421458,0.0922662,-0.0106757,0.52212,0.52212,-1.04021,1.61827e-10,1.06137e-05,-4.76418e-05,1.05363,0.6855973308412946,1.6182699624778252e-10,1.0613756325605905e-05,0.6855973308412946,-4.764066514750809e-05,-0.646619535731301
844,0.6866,1031.1,1105.19,-0.421418,0.00421026,0.0159463,-0.123258,0.522713,0.522713,-1.0414,1.42769e-10,8.8491e-06,-5.04698e-05,1.05484,0.6865971864863822,1.4276890780706708e-10,8.849139153443986e-06,0.6865971864863822,-5.0468526421099114e-05,-0.647039808371964
845,0.6876,1031.34,1105.44,-0.405403,0.00420272,0.0166459,-0.121743,0.523306,0.523306,-1.04258,1.41812e-10,8.7329e-06,-5.08564e-05,1.05604,0.6875976352217015,1.418118955598402e-10,8.73293813197229e-06,0.6875976352217015,-5.085510683522365e-05,-0.6474560557638251
846,0.6886,1032.35,1106.44,0.371059,0.00419731,0.0917787,-0.0108917,0.523899,0.523899,-1.04376,1.64194e-10,1.06777e-05,-4.82129e-05,1.05724,0.6885986773990589,1.6419399173628335e-10,1.0677757006805066e-05,0.6885986773990589,-4.821173777680432e-05,-0.6478718122734416
847,0.6896,1031.79,1105.89,-0.410804,0.00419299,0.016965,-0.121188,0.524491,0.524491,-1.04495,1.45355e-10,8.94858e-06,-5.09859e-05,1.05844,0.6895986237710015,1.4535506132062892e-10,8.948620038751187e-06,0.6895986237710015,-5.0984600241110734e-05,-0.6482905955913421
848,0.6906,1032.03,1106.14,-0.396327,0.00418552,0.0174919,-0.119931,0.525082,0.525082,-1.04613,1.44419e-10,8.8349e-06,-5.13673e-05,1.05964,0.6905974716881365,1.44418921266265e-10,8.834939027924094e-06,0.6905974716881365,-5.136598072286169e-05,-0.6487053679247402
849,0.6916,1033.02,1107.13,0.365741,0.00418013,0.0912724,-0.01114,0.525674,0.525674,-1.04731,1.66669e-10,1.07524e-05,-4.87645e-05,1.06084,0.69159860169662,1.6666890090277775e-10,1.0752457807239324e-05,0.69159860169662,-4.876331103109699e-05,-0.6491196511154358
850,0.6926,1032.48,1106.59,-0.400571,0.00417581,0.0179146,-0.119228,0.526265,0.526265,-1.0485,4.93461e-11,9.05742e-06,-5.14844e-05,1.06204,0.692598631950055,4.934608277551433e-11,9.057461018535662e-06,0.692598631950055,-5.1483074701041964e-05,-0.6495369503882964
851,0.6936,1032.72,1106.83,-0.38757,0.00416841,0.0182763,-0.118217,0.526855,0.526855,-1.04968,1.47143e-10,8.94602e-06,-5.18611e-05,1.06324,0.6935975597976431,1.4714296447948527e-10,8.946060015668778e-06,0.6935975597976431,-5.185975523636088e-05,-0.6499502528904051
852,0.6946,1033.69,1107.81,0.360583,0.00416305,0.0907489,-0.0114181,0.527446,0.527446,-1.05085,1.69245e-10,1.08369e-05,-4.92979e-05,1.06444,0.6945987717844837,1.6924506240911796e-10,1.083695871950674e-05,0.6945987717844837,-4.929668487851924e-05,-0.6503595715963872
853,0.6956,1033.16,1107.29,-0.390701,0.00415872,0.0187992,-0.11737,0.528035,0.528035,-1.05203,1.50874e-10,9.17476e-06,-5.19667e-05,1.06564,0.6955971844647351,1.5087397997604057e-10,9.174802088285361e-06,0.6955971844647351,-5.19653497544903e-05,-0.650771903977954
854,0.6966,1033.4,1107.53,-0.379117,0.00415139,0.0190029,-0.116595,0.528625,0.528625,-1.05321,1.49976e-10,9.06539e-06,-5.23391e-05,1.06683,0.6965978819803078,1.4997603159372375e-10,9.065431090693465e-06,0.6965978819803078,-5.233773033319622e-05,-0.6511837500942637
855,0.6976,1034.36,1108.49,0.355577,0.00414606,0.0902099,-0.0117234,0.529214,0.529214,-1.05439,1.71915e-10,1.09304e-05,-4.98144e-05,1.06803,0.697597472483299,1.7191492673873654e-10,1.0930459737101827e-05,0.697597472483299,-4.981315928342944e-05,-0.6515951105187703
856,0.6986,1033.84,1107.98,-0.381175,0.00414173,0.019623,-0.115609,0.529803,0.529803,-1.05557,1.5379e-10,9.2998e-06,-5.24342e-05,1.06922,0.6985976519185202,1.53790091772521e-10,9.299843243271155e-06,0.6985976519185202,-5.243282535138949e-05,-0.6520059858242527
857,0.6996,1035.19,1109.31,0.730795,0.00413698,0.126041,0.0412371,0.530392,0.530392,-1.05674,1.85476e-10,1.21503e-05,-4.84557e-05,1.07041,0.6995984206329542,1.854760789399279e-10,1.2150373815300597e-05,0.6995984206329542,-4.845452604151923e-05,-0.6524129007292001
858,0.7006,1035.06,1109.2,0.38586,0.00413479,0.08879,-0.0129552,0.53098,0.53098,-1.05791,1.81292e-10,1.1671e-05,-4.9362e-05,1.07161,0.7005980783748604,1.8129209244932554e-10,1.1671068106400284e-05,0.7005980783748604,-4.936078171657865e-05,-0.6528193398221132
859,0.7016,1035.04,1109.18,0.144197,0.00413045,0.0676294,-0.0444477,0.531568,0.531568,-1.05909,1.79186e-10,1.14058e-05,-4.99786e-05,1.0728,0.7015983240883654,1.7918599937161162e-10,1.1405865046443253e-05,0.7015983240883654,-4.997735109057988e-05,-0.6532287713889908
860,0.7026,1035.33,1109.48,0.211958,0.00412514,0.0737438,-0.0353501,0.532155,0.532155,-1.06027,1.83507e-10,1.17681e-05,-4.96629e-05,1.07399,0.7025974555209917,1.8350698738345272e-10,1.1768169244419369e-05,0.7025974555209917,-4.966166681863449e-05,-0.6536377201115539
861,0.7036,1035.36,1109.51,0.0235648,0.00411955,0.0549534,-0.0627974,0.532743,0.532743,-1.06144,1.81055e-10,1.14743e-05,-5.03098e-05,1.07519,0.7035988772139627,1.810549488112656e-10,1.147436582993322e-05,0.7035988772139627,-5.030853448328987e-05,-0.6540427270037902
862,0.7046,1035.81,1109.96,0.246917,0.00411379,0.0758728,-0.0318423,0.533329,0.533329,-1.06261,1.88747e-10,1.21709e-05,-4.95001e-05,1.07638,0.7045974787176745,1.8874701801507854e-10,1.2170974065695006e-05,0.7045974787176745,-4.949887489025251e-05,-0.6544472603150615
863,0.7056,1035.71,1109.87,-0.0717717,0.0041081,0.0448345,-0.0773359,0.533916,0.533916,-1.06379,1.82975e-10,1.15478e-05,-5.0631e-05,1.07757,0.7055983711708769,1.8297496851005235e-10,1.1547866676009377e-05,0.7055983711708769,-5.0629718272521274e-05,-0.6548547720686702
864,0.7066,1036.37,1110.52,0.359485,0.00410231,0.0858196,-0.0168987,0.534502,0.534502,-1.06495,1.95543e-10,1.27427e-05,-4.90888e-05,1.07876,0.7065981447214236,1.9554291519341405e-10,1.2742781188457286e-05,0.7065981447214236,-4.908759516453198e-05,-0.6552549084091245
865,0.7076,1035.99,1110.16,-0.232059,0.00409669,0.0286187,-0.100849,0.535088,0.535088,-1.06613,1.83065e-10,1.14493e-05,-5.12041e-05,1.07995,0.7075985043109634,1.8306489657504699e-10,1.1449365543425571e-05,0.7075985043109634,-5.120278909243048e-05,-0.6556614677000456
866,0.7086,1037.03,1111.19,0.576009,0.00409093,0.105838,0.0128284,0.535673,0.535673,-1.06729,2.04342e-10,1.35579e-05,-4.83193e-05,1.08113,0.70859774168442,2.0434209879738319e-10,1.3557991908719202e-05,0.70859774168442,-4.831813264138951e-05,-0.6560606688161026
867,0.7096,1036.14,1110.31,-0.527293,0.00408548,-0.000451986,-0.143255,0.536258,0.536258,-1.06847,1.79364e-10,1.10127e-05,-5.22728e-05,1.08232,0.7095975637827556,1.793640791447615e-10,1.1012760640083386e-05,0.7095975637827556,-5.2271433801043266e-05,-0.6564662778704933
868,0.7106,1036.39,1110.57,-0.492598,0.00407627,0.00237543,-0.138605,0.536843,0.536843,-1.06964,1.78126e-10,1.08587e-05,-5.27053e-05,1.08351,0.7105979709481338,1.7812595842769952e-10,1.0858758955789583e-05,0.7105979709481338,-5.2703911100127065e-05,-0.6568679772854031
869,0.7116,1037.5,1111.67,0.394815,0.00406994,0.0881949,-0.0125133,0.537427,0.537427,-1.0708,2.0165e-10,1.30491e-05,-4.97044e-05,1.08469,0.7115972519248119,2.016500300072721e-10,1.3049185139779595e-05,0.7115972519248119,-4.970316475683134e-05,-0.6572657796617669
870,0.7126,1036.85,1111.03,-0.474637,0.00406484,0.00494183,-0.134728,0.538011,0.538011,-1.07197,1.81213e-10,1.10354e-05,-5.28753e-05,1.08588,0.7125971166520189,1.8121304456997223e-10,1.103546089020746e-05,0.7125971166520189,-5.2873902125938343e-05,-0.6576665442065868
871,0.7136,1037.12,1111.31,-0.418476,0.00405678,0.00982085,-0.127115,0.538595,0.538595,-1.07314,1.81016e-10,1.0974e-05,-5.31713e-05,1.08707,0.7135975654707647,1.8101609100540372e-10,1.0974060214552495e-05,0.7135975654707647,-5.316988643144782e-05,-0.6580668401310854
872,0.7146,1038.11,1112.29,0.345415,0.00405116,0.0839104,-0.0183356,0.539179,0.539179,-1.0743,2.01988e-10,1.28872e-05,-5.05782e-05,1.08825,0.7145985987222583,2.01987981895968e-10,1.2887283040274866e-05,0.7145985987222583,-5.0576920944456205e-05,-0.6584632526328313
873,0.7156,1037.59,1111.78,-0.388791,0.00404652,0.0135674,-0.121529,0.539762,0.539762,-1.07547,1.84748e-10,1.12063e-05,-5.32578e-05,1.08943,0.7155985011485493,1.8474799468037872e-10,1.1206362790838753e-05,0.7155985011485493,-5.3256381828514776e-05,-0.6588626169535657
874,0.7166,1037.84,1112.03,-0.361264,0.00403925,0.0154535,-0.118311,0.540344,0.540344,-1.07664,1.84218e-10,1.11159e-05,-5.35946e-05,1.09061,0.7165972700897876,1.8421797420842267e-10,1.1115961781937855e-05,0.7165972700897876,-5.3593163835130575e-05,-0.6592615142912833
875,0.7176,1038.75,1112.94,0.329583,0.00403403,0.0826232,-0.0197633,0.540927,0.540927,-1.0778,2.03725e-10,1.28745e-05,-5.1229e-05,1.09179,0.717598338081215,2.0372503684029653e-10,1.2874582876687413e-05,0.717598338081215,-5.1227687817179124e-05,-0.6596565417744695
876,0.7186,1038.29,1112.49,-0.344806,0.00402959,0.0179582,-0.114569,0.541509,0.541509,-1.07896,1.87897e-10,1.13428e-05,-5.36873e-05,1.09298,0.7185982712663102,1.8789703126742552e-10,1.1342864329799696e-05,0.7185982712663102,-5.3685858862673186e-05,-0.6600511112914468
877,0.7196,1039.52,1113.71,0.666974,0.00402503,0.114963,0.0278718,0.542091,0.542091,-1.08012,2.1539e-10,1.39596e-05,-5.00598e-05,1.09415,0.7195987865819022,2.1538992811542812e-10,1.395969743556158e-05,0.7195987865819022,-5.005854702910817e-05,-0.6604452233731483
878,0.7206,1038.4,1112.61,-0.669979,0.00402075,-0.0138156,-0.160893,0.542672,0.542672,-1.08129,1.82797e-10,1.08195e-05,-5.4874e-05,1.09534,0.7205981637678665,1.827971107815074e-10,1.08195585311055e-05,0.7205981637678665,-5.487249444957598e-05,-0.6608422701441475
879,0.7216,1038.71,1112.92,-0.576522,0.00401191,-0.00496647,-0.147424,0.543253,0.543253,-1.08245,1.82501e-10,1.07555e-05,-5.51703e-05,1.09652,0.7215981217606835,1.825009032785374e-10,1.0755557840580465e-05,0.7215981217606835,-5.516877814704113e-05,-0.6612354650136657
880,0.7226,1039.91,1114.11,0.402405,0.00400623,0.0895328,-0.00884377,0.543834,0.543834,-1.0836,2.09715e-10,1.31646e-05,-5.18508e-05,1.09769,0.7225986608979007,2.0971491210275417e-10,1.3164686653688307e-05,0.7225986608979007,-5.184945577052513e-05,-0.6616248203066963
881,0.7236,1039.19,1113.41,-0.521135,0.00400187,0.00105078,-0.13848,0.544414,0.544414,-1.08477,1.86444e-10,1.09986e-05,-5.52347e-05,1.09887,0.7235980579183408,1.8644397137279611e-10,1.099866048481779e-05,0.7235980579183408,-5.523317459199539e-05,-0.6620204877563437
882,0.7246,1039.5,1113.71,-0.435403,0.00399437,0.00893633,-0.126495,0.544994,0.544994,-1.08593,1.86967e-10,1.1002e-05,-5.54318e-05,1.10005,0.7245980347571841,1.869671084619995e-10,1.1002060522180557e-05,0.7245980347571841,-5.543026368615145e-05,-0.6624123166858302
883,0.7256,1040.48,1114.7,0.334393,0.0039893,0.0835771,-0.0171248,0.545574,0.545574,-1.08708,2.09281e-10,1.29427e-05,-5.27997e-05,1.10122,0.7255985917508225,2.0928103694473066e-10,1.294278375718605e-05,0.7255985917508225,-5.279830612037184e-05,-0.6628003193773327
884,0.7266,1039.98,1114.2,-0.385035,0.00398517,0.0145807,-0.11814,0.546153,0.546153,-1.08824,1.91415e-10,1.12875e-05,-5.54325e-05,1.1024,0.7265980026369774,1.9141510598785771e-10,1.1287563704165393e-05,0.7265980026369774,-5.543096364735156e-05,-0.6631912442266068
885,0.7276,1041.28,1115.5,0.703939,0.0039809,0.119089,0.0350707,0.546732,0.546732,-1.0894,2.22111e-10,1.41114e-05,-5.15046e-05,1.10357,0.7275979923495894,2.221109962619039e-10,1.4111499566205055e-05,0.7275979923495894,-5.1503273660880033e-05,-0.663581715865968
886,0.7286,1041.15,1115.38,0.360385,0.00397881,0.0821241,-0.018466,0.547311,0.547311,-1.09055,2.17591e-10,1.35851e-05,-5.24669e-05,1.10475,0.7285985612238963,2.1759105628404996e-10,1.3585192277787428e-05,0.7285985612238963,-5.2465523636247013e-05,-0.6639683745213824
887,0.7296,1041.15,1115.38,0.147989,0.00397477,0.0635924,-0.0459212,0.547889,0.547889,-1.09171,2.15867e-10,1.33489e-05,-5.30282e-05,1.10592,0.7295979799964849,2.15867101971412e-10,1.3348989096995112e-05,0.7295979799964849,-5.302679402985344e-05,-0.664357945212253
888,0.7306,1041.41,1115.64,0.186294,0.00396984,0.0669161,-0.0409627,0.548467,0.548467,-1.09287,2.19195e-10,1.36165e-05,-5.28436e-05,1.1071,0.7305979766001012,2.1919510651002838e-10,1.361659270493476e-05,0.7305979766001012,-5.28422038015286e-05,-0.6647470642631241
889,0.7316,1041.48,1115.71,0.0450886,0.00396462,0.0526919,-0.0615971,0.549045,0.549045,-1.09402,2.1768e-10,1.34069e-05,-5.33548e-05,1.10827,0.7315985513688279,2.176800961706249e-10,1.3406989872954966e-05,0.7315985513688279,-5.3353376658016316e-05,-0.6651323835381729
890,0.7326,1041.85,1116.09,0.202927,0.00395928,0.0674036,-0.0399015,0.549622,0.549622,-1.09517,2.23561e-10,1.39301e-05,-5.27941e-05,1.10944,0.7325979720381028,2.2356094753206435e-10,1.3930197024336621e-05,0.7325979720381028,-5.2792706416004975e-05,-0.6655172599507502
891,0.7336,1041.84,1116.08,-0.0216954,0.00395393,0.0453978,-0.0719519,0.550199,0.550199,-1.09633,2.19872e-10,1.35022e-05,-5.36247e-05,1.11061,0.7335979695395038,2.1987189846583988e-10,1.3502291155154111e-05,0.7335979695395038,-5.36232622214694e-05,-0.6659050349762101
892,0.7346,1042.35,1116.59,0.27614,0.00394856,0.0736677,-0.0304415,0.550776,0.550776,-1.09748,2.29078e-10,1.4366e-05,-5.25657e-05,1.11178,0.7345985442059595,2.290780898306366e-10,1.436610319149878e-05,0.7345985442059595,-5.256431844780085e-05,-0.6662890233503536
893,0.7356,1042.15,1116.41,-0.126364,0.00394321,0.0345789,-0.0874713,0.551352,0.551352,-1.09863,2.20961e-10,1.34906e-05,-5.40498e-05,1.11295,0.7355979607717611,2.2096102725299716e-10,1.3490690998541055e-05,0.7355979607717611,-5.404833933586595e-05,-0.6666725703916818
894,0.7366,1042.91,1117.16,0.41418,0.00393787,0.0862294,-0.0117847,0.551928,0.551928,-1.09978,2.35907e-10,1.49535e-05,-5.21148e-05,1.11412,0.7365979531673277,2.3590707165510594e-10,1.4953611804147116e-05,0.7365979531673277,-5.2113442047363456e-05,-0.6670556766074358
895,0.7376,1042.39,1116.65,-0.312359,0.00393257,0.015996,-0.114339,0.552504,0.552504,-1.10094,2.198e-10,1.32681e-05,-5.47821e-05,1.11529,0.737598521724433,2.1979995601384417e-10,1.3268188021609006e-05,0.737598521724433,-5.478059948815783e-05,-0.6674416681042206
896,0.7386,1043.58,1117.84,0.663864,0.00392732,0.109622,0.0226785,0.553079,0.553079,-1.10208,2.44889e-10,1.58127e-05,-5.12667e-05,1.11645,0.7385979281762436,2.448889979689284e-10,1.5812825021388477e-05,0.7385979281762436,-5.1265385885179704e-05,-0.667820568588271
897,0.7396,1042.48,1116.75,-0.6454,0.00392215,-0.0166095,-0.161703,0.553654,0.553654,-1.10324,2.1438e-10,1.26727e-05,-5.60582e-05,1.11762,0.7395979094520102,2.1438006925222908e-10,1.2672780298927933e-05,0.7395979094520102,-5.6056628768508254e-05,-0.6682056733247783
898,0.7406,1042.79,1117.06,-0.546365,0.00391301,-0.00714121,-0.147392,0.554229,0.554229,-1.10439,2.14257e-10,1.26157e-05,-5.63376e-05,1.11879,0.7405984658823512,2.142570565411006e-10,1.2615779578339925e-05,0.7405984658823512,-5.633601306720415e-05,-0.6685870174855351
899,0.7416,1043.93,1118.19,0.375802,0.00390707,0.0821053,-0.0169784,0.554803,0.554803,-1.10553,2.3871e-10,1.48968e-05,-5.32111e-05,1.11995,0.7415978561993493,2.387099407030746e-10,1.4896910957906684e-05,0.7415978561993493,-5.320968431454798e-05,-0.668964613015256
900,0.7426,1043.28,1117.56,-0.476965,0.00390224,0.000376134,-0.136297,0.555377,0.555377,-1.10668,2.18058e-10,1.28517e-05,-5.6401e-05,1.12112,0.7425978203310581,2.180580160882073e-10,1.285178258347841e-05,0.7425978203310581,-5.6399409493534947e-05,-0.6693450848970253
901,0.7436,1043.57,1117.85,-0.394229,0.0038948,0.00799328,-0.124761,0.555951,0.555951,-1.10783,2.18566e-10,1.28497e-05,-5.65997e-05,1.12228,0.7435983586069421,2.1856605414427577e-10,1.28497825577778e-05,0.7435983586069421,-5.659809826719098e-05,-0.6697251194876213
902,0.7446,1044.49,1118.76,0.307566,0.0038897,0.0762758,-0.0250661,0.556524,0.556524,-1.10897,2.38091e-10,1.46316e-05,-5.42033e-05,1.12345,0.7445977267580559,2.3809110238914855e-10,1.463170704241179e-05,0.7445977267580559,-5.420183102766707e-05,-0.6701014183203174
903,0.7456,1044.05,1118.33,-0.337257,0.00388533,0.0144162,-0.115311,0.557097,0.557097,-1.11012,2.22705e-10,1.3116e-05,-5.66176e-05,1.12461,0.7455976677112119,2.2270496558007835e-10,1.3116086015063644e-05,0.7455976677112119,-5.6615997253928185e-05,-0.6704805836274104
904,0.7466,1045.23,1119.51,0.63103,0.00388106,0.107446,0.0206112,0.55767,0.55767,-1.11126,2.49056e-10,1.56492e-05,-5.3122e-05,1.12577,0.7465981817947207,2.4905610906955644e-10,1.5649322449462488e-05,0.7465981817947207,-5.312058905149186e-05,-0.6708560217217014
905,0.7476,1044.18,1118.47,-0.623192,0.00387683,-0.0135228,-0.155829,0.558242,0.558242,-1.11241,2.18223e-10,1.26312e-05,-5.7726e-05,1.12694,0.7475975217386841,2.182229952296666e-10,1.263127977391143e-05,0.7475975217386841,-5.772433388651077e-05,-0.671234319733673
906,0.7486,1044.49,1118.78,-0.520974,0.00386869,-0.00379303,-0.14117,0.558814,0.558814,-1.11355,2.18418e-10,1.26048e-05,-5.79581e-05,1.1281,0.7485974334686103,2.1841795039279077e-10,1.2604879440880623e-05,0.7485974334686103,-5.795642046180216e-05,-0.6716088990583946
907,0.7496,1045.58,1119.87,0.358221,0.00386345,0.0813545,-0.01693,0.559386,0.559386,-1.11469,2.42977e-10,1.4804e-05,-5.4953e-05,1.12925,0.7495979173116551,2.4297697187591893e-10,1.4804109579769076e-05,0.7495979173116551,-5.495149011158773e-05,-0.6719830516059951
908,0.7506,1044.98,1119.28,-0.446462,0.00385918,0.00417228,-0.129448,0.559957,0.559957,-1.11584,2.22686e-10,1.28758e-05,-5.79654e-05,1.13042,0.7505972229970619,2.2268609178865972e-10,1.287588289344832e-05,0.7505972229970619,-5.796372003863404e-05,-0.6723600542785626
909,0.7516,1045.26,1119.56,-0.370379,0.00385238,0.0110626,-0.118994,0.560529,0.560529,-1.11698,2.23249e-10,1.288e-05,-5.81521e-05,1.13157,0.7515988510469289,2.2324897486214468e-10,1.2880082947530624e-05,0.7515988510469289,-5.815040919943115e-05,-0.6727333509971276
910,0.7526,1046.14,1120.44,0.295939,0.00384768,0.0759509,-0.0243979,0.561099,0.561099,-1.11811,2.42734e-10,1.45953e-05,-5.58537e-05,1.13273,0.7525975469933306,2.4273405507813095e-10,1.4595406511830333e-05,0.7525975469933306,-5.5852140211087864e-05,-0.6731029534457884
911,0.7536,1045.73,1120.04,-0.314065,0.00384362,0.0173732,-0.109731,0.56167,0.56167,-1.11926,2.27677e-10,1.31658e-05,-5.81368e-05,1.13389,0.75359856595638,2.2767698837355965e-10,1.3165886669552762e-05,0.75359856595638,-5.813511008900818e-05,-0.6734786689714916
912,0.7546,1046.86,1121.16,0.597798,0.00383958,0.104957,0.0180575,0.56224,0.56224,-1.12039,2.53746e-10,1.55761e-05,-5.48227e-05,1.13504,0.7545984020651955,2.5374591317017803e-10,1.5576221308100102e-05,0.7545984020651955,-5.482119726318846e-05,-0.6738474296865106
913,0.7556,1045.88,1120.2,-0.577919,0.00383556,-0.00853203,-0.14723,0.56281,0.56281,-1.12154,2.23752e-10,1.27436e-05,-5.91476e-05,1.1362,0.7555988082430474,2.2375190589229987e-10,1.2743681200078072e-05,0.7555988082430474,-5.914585081523427e-05,-0.6742222895566331
914,0.7566,1046.18,1120.5,-0.485221,0.00382787,0.000175663,-0.134093,0.563379,0.563379,-1.12267,2.23991e-10,1.27225e-05,-5.93691e-05,1.13736,0.7565980282160609,2.2399104793180413e-10,1.2722580931434635e-05,0.7565980282160609,-5.936733768985292e-05,-0.6745902104549767
915,0.7576,1047.22,1121.53,0.341937,0.00382284,0.0803643,-0.0172628,0.563948,0.563948,-1.12381,2.48098e-10,1.48177e-05,-5.65174e-05,1.13851,0.7575978169070241,2.4809798659930493e-10,1.4817809782741165e-05,0.7575978169070241,-5.651580292187486e-05,-0.6749609662441054
916,0.7586,1046.67,1120.99,-0.412609,0.00381869,0.00793175,-0.122704,0.564517,0.564517,-1.12495,2.2853e-10,1.30118e-05,-5.9345e-05,1.13967,0.7585981746396293,2.2853008374568162e-10,1.3011884653746364e-05,0.7585981746396293,-5.934323912026862e-05,-0.67533129961246
917,0.7596,1046.94,1121.26,-0.345797,0.00381216,0.0138358,-0.113706,0.565085,0.565085,-1.12608,2.29061e-10,1.30143e-05,-5.95317e-05,1.14082,0.7595973421395317,2.2906099239605737e-10,1.3014384686371727e-05,0.7595973421395317,-5.9529928023493994e-05,-0.6756979680372214
918,0.7606,1047.78,1122.1,0.285368,0.00380758,0.0753616,-0.0241472,0.565654,0.565654,-1.12722,2.4827e-10,1.4661e-05,-5.7334e-05,1.14197,0.7605988379257398,2.4827007116812183e-10,1.4661107472946355e-05,0.7605988379257398,-5.73323564376782e-05,-0.6760674617022537
919,0.7616,1047.4,1121.73,-0.291781,0.00380358,0.0198885,-0.104841,0.566221,0.566221,-1.12835,2.33678e-10,1.33116e-05,-5.9495e-05,1.14313,0.7615973805269194,2.3367796586626355e-10,1.3311688599637606e-05,0.7615973805269194,-5.949323020759678e-05,-0.6764332987336793
920,0.7626,1048.47,1122.79,0.566363,0.00379958,0.102284,0.0152149,0.566789,0.566789,-1.12948,2.59183e-10,1.5602e-05,-5.63576e-05,1.14427,0.7625982520596652,2.5918289736637234e-10,1.5602121711921768e-05,0.7625982520596652,-5.635601194031725e-05,-0.6767987226027401
921,0.7636,1047.56,1121.9,-0.53528,0.00379559,-0.0041314,-0.139545,0.567356,0.567356,-1.13062,2.30295e-10,1.29439e-05,-6.04202e-05,1.14543,0.7635979286501142,2.3029489426562577e-10,1.2943983772606416e-05,0.7635979286501142,-6.0418374736470604e-05,-0.6771669621225662
922,0.7646,1047.85,1122.19,-0.4519,0.00378819,0.00358475,-0.12788,0.567923,0.567923,-1.13176,2.30549e-10,1.2925e-05,-6.0636e-05,1.14658,0.7645981722179132,2.3054891329366e-10,1.2925083528125825e-05,0.7645981722179132,-6.0634161674899545e-05,-0.6775347820885311
923,0.7656,1048.84,1123.17,0.326941,0.00378326,0.0791659,-0.0179268,0.568489,0.568489,-1.13288,2.54028e-10,1.49213e-05,-5.793e-05,1.14773,0.7655972174865286,2.540279098184328e-10,1.4921411323198797e-05,0.7655972174865286,-5.792832208995069e-05,-0.677895740957893
924,0.7666,1048.33,1122.67,-0.381495,0.00377914,0.0111109,-0.116853,0.569056,0.569056,-1.13402,2.35283e-10,1.32269e-05,-6.05893e-05,1.14888,0.7665985949725331,2.352829042706617e-10,1.3226987475745133e-05,0.7665985949725331,-6.058746450543495e-05,-0.6782627305893659
925,0.7676,1049.59,1123.92,0.670016,0.00377512,0.112206,0.0302782,0.569622,0.569622,-1.13514,2.66449e-10,1.6013e-05,-5.6733e-05,1.15002,0.7675987728009119,2.6644908501793907e-10,1.601312820875833e-05,0.7675987728009119,-5.673139071382671e-05,-0.6786228746128057
926,0.7686,1048.44,1122.79,-0.675303,0.00377117,-0.017653,-0.158444,0.570187,0.570187,-1.13628,2.30103e-10,1.27276e-05,-6.17028e-05,1.15118,0.7685977482915458,2.3010304772697054e-10,1.2727680996249546e-05,0.7685977482915458,-6.170089642143495e-05,-0.6789890357842241
927,0.7696,1048.78,1123.13,-0.536643,0.0037632,-0.00425861,-0.138526,0.570752,0.570752,-1.13741,2.31373e-10,1.27909e-05,-6.17977e-05,1.15232,0.7695972883628108,2.313729208225368e-10,1.2790981803956214e-05,0.7695972883628108,-6.179579056142526e-05,-0.6793515733015136
928,0.7706,1049.86,1124.21,0.339432,0.00375817,0.0805555,-0.015231,0.571317,0.571317,-1.13854,2.57999e-10,1.50144e-05,-5.87624e-05,1.15347,0.7705973933337851,2.579989555329121e-10,1.5014512716682304e-05,0.7705973933337851,-5.876067352394987e-05,-0.6797137013827836
929,0.7716,1049.29,1123.65,-0.432719,0.00375412,0.00641191,-0.12292,0.571882,0.571882,-1.13967,2.36848e-10,1.31468e-05,-6.16695e-05,1.15461,0.7715980635237276,2.368480966907782e-10,1.3146886419512782e-05,0.7715980635237276,-6.166759847547887e-05,-0.6800754204904353
930,0.7726,1049.58,1123.94,-0.346992,0.00374774,0.0142249,-0.111187,0.572446,0.572446,-1.1408,2.37992e-10,1.31999e-05,-6.17787e-05,1.15576,0.7725975266536638,2.37992070495352e-10,1.3199987119127954e-05,0.7725975266536638,-6.177679173535733e-05,-0.680436731086348
931,0.7736,1050.4,1124.76,0.272111,0.00374329,0.074561,-0.0235609,0.57301,0.57301,-1.14192,2.57747e-10,1.48318e-05,-5.9604e-05,1.1569,0.7735975536397979,2.5774693490632217e-10,1.4831909991741554e-05,0.7735975536397979,-5.9602223716925806e-05,-0.6807944415922553
932,0.7746,1050.05,1124.41,-0.279143,0.00373942,0.0215325,-0.100522,0.573574,0.573574,-1.14305,2.43216e-10,1.35393e-05,-6.16737e-05,1.15805,0.7745981448002344,2.4321589187081827e-10,1.3539391656713917e-05,0.7745981448002344,-6.167179821647828e-05,-0.681154940153209
933,0.7756,1051.07,1125.43,0.540568,0.00373555,0.100222,0.0138711,0.574137,0.574137,-1.14417,2.68862e-10,1.57541e-05,-5.86497e-05,1.15919,0.7755975248548446,2.688620437396594e-10,1.575422409638705e-05,0.7755975248548446,-5.864798013999195e-05,-0.681511846715254
934,0.7766,1050.22,1124.6,-0.502024,0.00373167,-0.000569342,-0.132372,0.5747,0.5747,-1.1453,2.40345e-10,1.32265e-05,-6.25101e-05,1.16033,0.7765974677188414,2.4034507717374254e-10,1.3226587470605011e-05,0.7765974677188414,-6.250814628439016e-05,-0.6818715350662736
935,0.7776,1050.51,1124.88,-0.421486,0.00372464,0.00680919,-0.121238,0.575263,0.575263,-1.14643,2.408e-10,1.3225e-05,-6.26965e-05,1.16148,0.7775979737091758,2.4080004656923393e-10,1.3225087450718931e-05,0.7775979737091758,-6.269453461549279e-05,-0.6822308171990132
936,0.7786,1051.44,1125.81,0.308525,0.00371988,0.0777118,-0.0183336,0.575825,0.575825,-1.14755,2.63881e-10,1.51254e-05,-6.01325e-05,1.16261,0.7785972645448236,2.6388091711737616e-10,1.5125514389424666e-05,0.7785972645448236,-6.013069207744248e-05,-0.6825865194533052
937,0.7796,1050.98,1125.36,-0.34838,0.00371586,0.0145491,-0.109937,0.576387,0.576387,-1.14867,2.45928e-10,1.35528e-05,-6.26055e-05,1.16376,0.7795971171397604,2.459279446753726e-10,1.3552891839685444e-05,0.7795971171397604,-6.260354031661919e-05,-0.6829418235440854
938,0.7806,1052.15,1126.52,0.621319,0.00371191,0.107738,0.0253865,0.576949,0.576949,-1.14979,2.76101e-10,1.61556e-05,-5.90202e-05,1.16489,0.7805975318097842,2.7610091990482033e-10,1.6155730502509513e-05,0.7805975318097842,-5.9018458342219304e-05,-0.6832967299170477
939,0.7816,1051.11,1125.5,-0.609701,0.00370801,-0.011183,-0.147038,0.577511,0.577511,-1.15092,2.41644e-10,1.31363e-05,-6.35893e-05,1.16604,0.7815985088708692,2.4164403811255397e-10,1.3136386281642487e-05,0.7815985088708692,-6.358727824329335e-05,-0.6836544024891789
940,0.7826,1051.44,1125.83,-0.485064,0.00370051,0.000725598,-0.129339,0.578072,0.578072,-1.15204,2.42963e-10,1.32029e-05,-6.36758e-05,1.16718,0.7825982660400115,2.4296298306580866e-10,1.320298715867807e-05,0.7825982660400115,-6.36737727393033e-05,-0.6840085112204852
941,0.7836,1052.44,1126.82,0.316155,0.00369565,0.0783917,-0.0167019,0.578633,0.578633,-1.15316,2.68371e-10,1.52707e-05,-6.08697e-05,1.16831,0.7835985842302771,2.6837110311817014e-10,1.527081659769003e-05,0.7835985842302771,-6.086784747738605e-05,-0.6843622235720267
942,0.7846,1051.94,1126.33,-0.384796,0.00369165,0.0110266,-0.114321,0.579193,0.579193,-1.15428,2.48703e-10,1.35747e-05,-6.35181e-05,1.16945,0.7845976791579161,2.4870305814772564e-10,1.3574792136594738e-05,0.7845976791579161,-6.35160827682224e-05,-0.6847155399875
943,0.7856,1053.18,1127.56,0.656651,0.00368779,0.111167,0.0309539,0.579753,0.579753,-1.15539,2.81392e-10,1.63685e-05,-5.9658e-05,1.17058,0.7855973337354019,2.813920207955789e-10,1.6368633964702894e-05,0.7855973337354019,-5.9656220496862034e-05,-0.6850653115789678
944,0.7866,1052.06,1126.46,-0.658512,0.00368397,-0.0158523,-0.153064,0.580313,0.580313,-1.15652,2.43867e-10,1.31236e-05,-6.45489e-05,1.17173,0.7865975482762262,2.4386692665245846e-10,1.3123686114724364e-05,0.7865975482762262,-6.454681676459906e-05,-0.6854209867825467
945,0.7876,1052.4,1126.8,-0.511092,0.00367638,-0.00162031,-0.132012,0.580873,0.580873,-1.15764,2.45731e-10,1.32314e-05,-6.45743e-05,1.17286,0.7875983230940564,2.457309911108041e-10,1.3231487535403375e-05,0.7875983230940564,-6.457221512479183e-05,-0.6857731180470328
946,0.7886,1053.43,1127.83,0.315896,0.00367156,0.0784815,-0.0159388,0.581432,0.581432,-1.15875,2.72266e-10,1.53641e-05,-6.16754e-05,1.17399,0.7885978699039711,2.722659875331601e-10,1.5364218028279808e-05,0.7885978699039711,-6.167349811159184e-05,-0.6861217163781343
947,0.7896,1052.91,1127.32,-0.396069,0.00366764,0.0100636,-0.115,0.581991,0.581991,-1.15987,2.51906e-10,1.3633e-05,-6.43711e-05,1.17513,0.7895979756167513,2.519060515737692e-10,1.3633092929676849e-05,0.7895979756167513,-6.4369028225153e-05,-0.686473063264807
948,0.7906,1053.19,1127.6,-0.315164,0.00366162,0.0173381,-0.104097,0.58255,0.58255,-1.16099,2.53232e-10,1.37001e-05,-6.44552e-05,1.17626,0.790598640544911,2.532321019543815e-10,1.3700193846721831e-05,0.790598640544911,-6.44531228082279e-05,-0.6868240168632489
949,0.7916,1053.96,1128.36,0.252905,0.00365735,0.0727594,-0.0238706,0.583108,0.583108,-1.1621,2.72409e-10,1.52301e-05,-6.24302e-05,1.17739,0.7915980734021699,2.7240898425873183e-10,1.523021597860108e-05,0.7915980734021699,-6.24282512756702e-05,-0.6871714493438312
950,0.7926,1053.65,1128.07,-0.245594,0.00365358,0.0247446,-0.0933351,0.583666,0.583666,-1.16322,2.58832e-10,1.40617e-05,-6.43091e-05,1.17853,0.7925980640985859,2.588320668905908e-10,1.4061798866205066e-05,0.7925980640985859,-6.430703221416145e-05,-0.687521621187729
951,0.7936,1054.59,1129.0,0.490115,0.0036498,0.0953031,0.00892714,0.584224,0.584224,-1.16433,2.83192e-10,1.60862e-05,-6.15653e-05,1.17966,0.7935986129455199,2.831919143631012e-10,1.6086329383657727e-05,0.7935986129455199,-6.156340489582579e-05,-0.6878682797571115
952,0.7946,1053.85,1128.27,-0.435631,0.00364599,0.00571457,-0.120647,0.584781,0.584781,-1.16545,2.56886e-10,1.3831e-05,-6.50149e-05,1.18079,0.7945979256556841,2.568860679730278e-10,1.3831095648786373e-05,0.7945979256556841,-6.50127865772232e-05,-0.6882176715878352
953,0.7956,1054.11,1128.54,-0.368798,0.00363946,0.0116413,-0.111668,0.585338,0.585338,-1.16656,2.57371e-10,1.38327e-05,-6.51918e-05,1.18192,0.7955977951380746,2.573710133901841e-10,1.3832795672241716e-05,0.7955977951380746,-6.518967506075057e-05,-0.6885635579699168
954,0.7966,1054.97,1129.38,0.283229,0.0036349,0.0750684,-0.0199138,0.585895,0.585895,-1.16767,2.79092e-10,1.55692e-05,-6.28683e-05,1.18305,0.7965982217028997,2.7909208277776543e-10,1.556932120072574e-05,0.7965982217028997,-6.286632382979107e-05,-0.6889090606311187
955,0.7976,1054.58,1129.0,-0.298723,0.00363094,0.019051,-0.100898,0.586451,0.586451,-1.16879,2.62759e-10,1.41756e-05,-6.50703e-05,1.18418,0.7975974080622339,2.6275892572868997e-10,1.417570047435035e-05,0.7975974080622339,-6.506818297391526e-05,-0.6892572874397978
956,0.7986,1055.62,1130.05,0.551959,0.00362707,0.100721,0.0173424,0.587007,0.587007,-1.16989,2.90639e-10,1.64998e-05,-6.18944e-05,1.18531,0.7985971501236548,2.9063906836768183e-10,1.649993612251599e-05,0.7985971501236548,-6.18924845811053e-05,-0.689598916493187
957,0.7996,1054.74,1129.18,-0.517144,0.00362319,-0.0026526,-0.132061,0.587563,0.587563,-1.17101,2.59724e-10,1.38637e-05,-6.58907e-05,1.18644,0.7995974481962187,2.5972402006857465e-10,1.3863796101576398e-05,0.7995974481962187,-6.588852925548672e-05,-0.6899463710958165
958,0.8006,1055.04,1129.48,-0.415422,0.00361628,0.00686194,-0.117901,0.588119,0.588119,-1.17212,2.60925e-10,1.39208e-05,-6.59863e-05,1.18757,0.8005983025891537,2.6092505933661414e-10,1.3920896894781265e-05,0.8005983025891537,-6.598412295200085e-05,-0.6902903396860156
959,0.8016,1055.94,1130.37,0.287174,0.00361163,0.0750935,-0.0192687,0.588674,0.588674,-1.17323,2.84256e-10,1.57763e-05,-6.34917e-05,1.18869,0.8015979120130472,2.8425595210990195e-10,1.5776424446389825e-05,0.8015979120130472,-6.348968444469527e-05,-0.6906339266829031
960,0.8026,1055.52,1129.96,-0.323606,0.00360767,0.0163381,-0.104142,0.589229,0.589229,-1.17434,2.66784e-10,1.42978e-05,-6.58131e-05,1.18982,0.8025980763741518,2.66783928282166e-10,1.4297902213966651e-05,0.8025980763741518,-6.581093436541785e-05,-0.6909771325098124
961,0.8036,1056.62,1131.05,0.574519,0.00360384,0.102604,0.0206333,0.589784,0.589784,-1.17544,2.96303e-10,1.67494e-05,-6.24548e-05,1.19094,0.8035987959805428,2.9630298215010953e-10,1.6749540272087415e-05,0.8035987959805428,-6.245284973960263e-05,-0.6913168707737496
962,0.8046,1055.68,1130.13,-0.548508,0.0036,-0.00594682,-0.136127,0.590338,0.590338,-1.17656,2.63413e-10,1.39634e-05,-6.66631e-05,1.19207,0.8045982665412987,2.634130691347991e-10,1.396349748872261e-05,0.8045982665412987,-6.666087806495025e-05,-0.6916624023446837
963,0.8056,1055.99,1130.44,-0.430822,0.00359305,0.00519955,-0.119623,0.590892,0.590892,-1.17766,2.65007e-10,1.40502e-05,-6.67147e-05,1.19319,0.8055982909621502,2.65006905308951e-10,1.4050298704493258e-05,0.8055982909621502,-6.671247462386454e-05,-0.6920013872262387
964,0.8066,1056.9,1131.35,0.285218,0.00358843,0.0746963,-0.0192446,0.591446,0.591446,-1.17877,2.88918e-10,1.59399e-05,-6.41715e-05,1.19431,0.806598869550021,2.889180006349079e-10,1.5940027040972637e-05,0.806598869550021,-6.416944105336331e-05,-0.6923430760140574
965,0.8076,1056.48,1130.93,-0.32848,0.00358452,0.015672,-0.104435,0.591999,0.591999,-1.17988,2.71148e-10,1.4447e-05,-6.65108e-05,1.19544,0.8075981950129059,2.711479929473626e-10,1.4447104358383811e-05,0.8075981950129059,-6.650858820578254e-05,-0.6926843857377412
966,0.8086,1057.58,1132.03,0.575428,0.00358076,0.102495,0.0210366,0.592552,0.592552,-1.18098,3.01105e-10,1.69196e-05,-6.31239e-05,1.19656,0.8085980732556008,3.0110491877621826e-10,1.6919743137222554e-05,0.8085980732556008,-6.312190772850279e-05,-0.6930222470556371
967,0.8096,1056.64,1131.1,-0.550413,0.00357697,-0.006319,-0.135973,0.593105,0.593105,-1.18209,2.67799e-10,1.41168e-05,-6.73519e-05,1.19768,0.8095985045838785,2.6779889417127833e-10,1.4116899642591108e-05,0.8095985045838785,-6.734963191168397e-05,-0.6933628033177134
968,0.8106,1056.95,1131.42,-0.428484,0.00357011,0.00525396,-0.118871,0.593657,0.593657,-1.18319,2.6956e-10,1.4216e-05,-6.73843e-05,1.1988,0.8105976787050952,2.6955992993293876e-10,1.4216101047903607e-05,0.8105976787050952,-6.738202972900176e-05,-0.6936999187865636
969,0.8116,1057.86,1132.32,0.280404,0.00356555,0.0740525,-0.0195861,0.594209,0.594209,-1.18429,2.93443e-10,1.60924e-05,-6.48613e-05,1.19992,0.811597404522681,2.934430476386751e-10,1.6092529483424656e-05,0.811597404522681,-6.485919655130346e-05,-0.6940366636322781
970,0.8126,1057.44,1131.91,-0.322548,0.00356169,0.0160616,-0.103213,0.594761,0.594761,-1.1854,2.75845e-10,1.46222e-05,-6.71647e-05,1.20105,0.8125976823412564,2.7584490247534177e-10,1.4622306904854554e-05,0.8125976823412564,-6.716244450200026e-05,-0.6943760945166544
971,0.8136,1058.53,1132.99,0.564917,0.00355797,0.101288,0.0198462,0.595313,0.595313,-1.18649,3.05553e-10,1.70584e-05,-6.38322e-05,1.20216,0.81359851246561,3.055529163020765e-10,1.7058545495274302e-05,0.81359851246561,-6.383016276845233e-05,-0.6947090430836975
972,0.8146,1057.61,1132.08,-0.536818,0.00355422,-0.00520045,-0.133676,0.595864,0.595864,-1.1876,2.72699e-10,1.4309e-05,-6.79783e-05,1.20328,0.8145980806017108,2.726989745127639e-10,1.430910237432137e-05,0.8145980806017108,-6.797598952767991e-05,-0.6950477280409488
973,0.8156,1057.92,1132.4,-0.417013,0.00354749,0.00614685,-0.116919,0.596415,0.596415,-1.1887,2.74495e-10,1.44106e-05,-6.80062e-05,1.2044,0.8155981996516177,2.744950933220025e-10,1.441070383312315e-05,0.8155981996516177,-6.800388763084086e-05,-0.6953829911116092
974,0.8166,1058.8,1133.28,0.274306,0.003543,0.0732545,-0.0201587,0.596965,0.596965,-1.1898,2.98011e-10,1.62492e-05,-6.55389e-05,1.20552,0.8165970533210056,2.9801094925119287e-10,1.6249332019047102e-05,0.8165970533210056,-6.553675237319645e-05,-0.6957178855956516
975,0.8176,1058.41,1132.89,-0.3113,0.00353916,0.0169271,-0.101317,0.597516,0.597516,-1.1909,2.80831e-10,1.48197e-05,-6.77804e-05,1.20664,0.8175982741083816,2.8083091407893335e-10,1.4819809812216533e-05,0.8175982741083816,-6.777810296054732e-05,-0.6960524118982987
976,0.8186,1059.46,1133.93,0.548944,0.00353548,0.0995118,0.0178297,0.598066,0.598066,-1.192,3.09921e-10,1.71908e-05,-6.45433e-05,1.20775,0.8185982281212874,3.099209777701617e-10,1.7190947762646402e-05,0.8185982281212874,-6.454121712606842e-05,-0.6963865704243268
977,0.8196,1058.58,1133.07,-0.515863,0.00353175,-0.00341542,-0.13043,0.598616,0.598616,-1.1931,2.77968e-10,1.45288e-05,-6.85589e-05,1.20887,0.8195987322601714,2.779680929876349e-10,1.4528905543542692e-05,0.8195987322601714,-6.855654989235127e-05,-0.6967203615780683
978,0.8206,1058.88,1133.37,-0.401364,0.00352516,0.00738163,-0.114486,0.599165,0.599165,-1.1942,2.79722e-10,1.46272e-05,-6.85904e-05,1.20998,0.820597966228809,2.7972202332193774e-10,1.4627306978098886e-05,0.820597966228809,-6.858804773224314e-05,-0.6970537857634101
979,0.8216,1059.74,1134.23,0.267779,0.00352073,0.0723595,-0.0208789,0.599714,0.599714,-1.19529,3.027e-10,1.64166e-05,-6.61949e-05,1.21109,0.8215977489275081,3.027000872179997e-10,1.6416734753166295e-05,0.8215977489275081,-6.619270916596864e-05,-0.697383817237099
980,0.8226,1059.36,1133.86,-0.297828,0.00351691,0.01795,-0.099207,0.600263,0.600263,-1.19639,2.86052e-10,1.50352e-05,-6.83643e-05,1.21221,0.8225980806576041,2.8605207091914053e-10,1.5035313029265751e-05,0.8225980806576041,-6.836196321446941e-05,-0.6977165120224595
981,0.8236,1060.39,1134.87,0.530828,0.00351325,0.0974701,0.0154259,0.600811,0.600811,-1.19748,3.1434e-10,1.73291e-05,-6.524e-05,1.21332,0.8235971381225482,3.1434010949737967e-10,1.7329250149744624e-05,0.8235971381225482,-6.523787191747843e-05,-0.6980458215180756
982,0.8246,1059.55,1134.05,-0.492068,0.00350952,-0.00141398,-0.126886,0.60136,0.60136,-1.19859,2.83494e-10,1.47679e-05,-6.91061e-05,1.21444,0.8245985678186765,2.8349389502579925e-10,1.4768009045873498e-05,0.8245985678186765,-6.910371222845768e-05,-0.6983808047061267
983,0.8256,1059.84,1134.34,-0.384259,0.00350308,0.00869339,-0.111954,0.601908,0.601908,-1.19968,2.85166e-10,1.486e-05,-6.91454e-05,1.21555,0.8255987218510168,2.8516589090088473e-10,1.4860110410408467e-05,0.8255987218510168,-6.914300951188501e-05,-0.6987093905171973
984,0.8266,1060.68,1135.17,0.261261,0.0034987,0.0714037,-0.021694,0.602455,0.602455,-1.20077,3.07528e-10,1.65962e-05,-6.68275e-05,1.21666,0.8265975975194584,3.0752800306288464e-10,1.6596337717666998e-05,0.8265975975194584,-6.682526709234082e-05,-0.6990376183648592
985,0.8276,1060.32,1134.82,-0.283788,0.0034949,0.0189669,-0.0971173,0.603003,0.603003,-1.20187,2.91453e-10,1.52645e-05,-6.89226e-05,1.21777,0.827598847320288,2.91453083889337e-10,1.5264616503030126e-05,0.827598847320288,-6.892022489213279e-05,-0.6993684949691622
986,0.8286,1061.31,1135.8,0.512325,0.00349125,0.0953302,0.0128768,0.60355,0.60355,-1.20296,3.18865e-10,1.74778e-05,-6.59158e-05,1.21888,0.8285988173566439,3.1886493445654196e-10,1.747795273754349e-05,0.8285988173566439,-6.591362760133279e-05,-0.6996960047843703
987,0.8296,1060.51,1135.02,-0.467813,0.00348752,0.000573501,-0.123377,0.604096,0.604096,-1.20406,2.89196e-10,1.50199e-05,-6.96289e-05,1.21999,0.829597504927817,2.8919600048027405e-10,1.502001279929388e-05,0.829597504927817,-6.962647596442384e-05,-0.7000261575617894
988,0.8306,1060.8,1135.31,-0.367104,0.00348121,0.00995146,-0.109512,0.604643,0.604643,-1.20515,2.90766e-10,1.51045e-05,-6.96781e-05,1.2211,0.830598568528947,2.9076607788169895e-10,1.5104614073502276e-05,0.830598568528947,-6.967567253757245e-05,-0.7003529509153141
989,0.8316,1061.61,1136.12,0.25496,0.00347689,0.0704104,-0.0225696,0.605189,0.605189,-1.20623,3.12488e-10,1.67872e-05,-6.74381e-05,1.22221,0.8315983482623934,3.124880354477e-10,1.678734090582168e-05,0.8315983482623934,-6.743582610246879e-05,-0.7006763950370611
990,0.8326,1061.27,1135.78,-0.270011,0.00347309,0.0199022,-0.0951566,0.605735,0.605735,-1.20733,2.96987e-10,1.55039e-05,-6.94608e-05,1.22332,0.8325986740246267,2.9698710157788355e-10,1.5504020186130063e-05,0.8325986740246267,-6.945838765448631e-05,-0.7010054699781212
991,0.8336,1062.22,1136.73,0.494298,0.00346945,0.0931808,0.0103103,0.60628,0.60628,-1.20841,3.23508e-10,1.76377e-05,-6.65697e-05,1.22442,0.8335977125152305,3.235081091901293e-10,1.7637855545205028e-05,0.8335977125152305,-6.656748428668369e-05,-0.7013282097596925
992,0.8346,1061.46,1135.99,-0.444266,0.00346572,0.00244022,-0.120056,0.606825,0.606825,-1.20951,2.95011e-10,1.52804e-05,-7.01341e-05,1.22553,0.8345972956302083,2.9501090459405077e-10,1.5280516745930228e-05,0.8345972956302083,-7.013164066149713e-05,-0.7016565680987608
993,0.8356,1061.74,1136.27,-0.350575,0.00345955,0.0110994,-0.107241,0.60737,0.60737,-1.2106,2.96472e-10,1.53568e-05,-7.01941e-05,1.22663,0.8355974236664614,2.964719580944575e-10,1.535691791620941e-05,0.8355974236664614,-7.01916364518329e-05,-0.7019815852729937
994,0.8366,1062.53,1137.05,0.248959,0.00345527,0.0693953,-0.023483,0.607915,0.607915,-1.21168,3.17558e-10,1.69876e-05,-6.80296e-05,1.22774,0.8365980969210527,3.175579799119532e-10,1.6987744290153373e-05,0.8365980969210527,-6.802728603927388e-05,-0.7023032714191122
995,0.8376,1062.21,1136.73,-0.256874,0.00345148,0.0207275,-0.0933649,0.608459,0.608459,-1.21277,3.02612e-10,1.57502e-05,-6.99836e-05,1.22884,0.8375974780928104,3.0261193550984444e-10,1.5750324035002095e-05,0.8375974780928104,-6.998115120504522e-05,-0.7026275840707605
996,0.8386,1063.13,1137.65,0.477126,0.00344785,0.0910666,0.00779113,0.609003,0.609003,-1.21386,3.28258e-10,1.78076e-05,-6.72036e-05,1.22995,0.8385974030758288,3.2825808737868556e-10,1.780775855619865e-05,0.8385974030758288,-6.720134188864524e-05,-0.7029515434142064
997,0.8396,1062.41,1136.95,-0.421932,0.00344411,0.00414558,-0.11698,0.609547,0.609547,-1.21495,3.00893e-10,1.55459e-05,-7.06267e-05,1.23105,0.8395978721660216,3.008930882231198e-10,1.554602083819745e-05,0.8395978721660216,-7.062420599335262e-05,-0.7032751498343464
998,0.8406,1062.68,1137.22,-0.334949,0.00343807,0.0121197,-0.105165,0.61009,0.61009,-1.21604,3.02243e-10,1.56139e-05,-7.06977e-05,1.23216,0.8405970450614986,3.0224289737645904e-10,1.561402189764749e-05,0.8405970450614986,-7.06952009764672e-05,-0.7035984037156567
999,0.8416,1063.45,1137.98,0.243278,0.00343383,0.0683693,-0.0244177,0.610634,0.610634,-1.21712,3.22713e-10,1.71952e-05,-6.86052e-05,1.23326,0.8415986022528683,3.2271296745989275e-10,1.719534783828358e-05,0.8415986022528683,-6.860284671705852e-05,-0.7039183446404462
