,Time,S11,S22,S33,S12,S13,S23,LE11,LE22,LE33,LE12,LE13,LE23,SDV_EPBAR,E11,E12,E13,E22,E23,E33
0,1e-05,2.97724,2.97724,-3.9968e-15,0.0,0.0,-2.2373e-38,9.99995e-06,9.99995e-06,-8.57139e-06,0.0,0.0,0.0,0.0,9.999999999621423e-06,0.0,0.0,9.999999999621423e-06,0.0,-8.571353265707238e-06
1,2e-05,5.95444,5.95444,-3.10862e-15,0.0,0.0,-4.47459e-38,1.99998e-05,1.99998e-05,-1.71427e-05,0.0,0.0,0.0,0.0,1.9999999997244444e-05,0.0,0.0,1.9999999997244444e-05,0.0,-1.714255306473067e-05
2,3.5e-05,10.4202,10.4202,-1.73195e-14,0.0,0.0,-8.38973e-38,3.49994e-05,3.49994e-05,-2.99995e-05,0.0,0.0,0.0,0.0,3.5000012486241516e-05,0.0,0.0,3.5000012486241516e-05,0.0,-2.9999050019546836e-05
3,5.75e-05,17.1187,17.1187,-7.9492e-14,0.0,0.0,-1.88766e-37,5.74983e-05,5.74983e-05,-4.92843e-05,0.0,0.0,0.0,0.0,5.749995305892597e-05,0.0,0.0,5.749995305892597e-05,0.0,-4.928308554885685e-05
4,9.125e-05,27.1662,27.1662,-4.11671e-13,0.0,0.0,-4.24714e-37,9.12458e-05,9.12458e-05,-7.82107e-05,0.0,0.0,0.0,0.0,9.124996302456445e-05,0.0,0.0,9.124996302456445e-05,0.0,-7.820764162291827e-05
5,0.00014188,42.2368,42.2368,-2.06724e-12,0.0,0.0,-9.55574e-37,0.000141865,0.000141865,-0.000121599,0.0,0.0,0.0,0.0,0.00014187506331508892,0.0,0.0,0.00014187506331508892,0.0,-0.00012159160714120265
6,0.00021781,64.8412,64.8412,-1.04623e-11,0.0,0.0,-2.14993e-36,0.000217789,0.000217789,-0.000186676,0.0,0.0,0.0,0.0,0.0002178127177461242,0.0,0.0,0.0002178127177461242,0.0,-0.00018665857711963607
7,0.00033172,98.7446,98.7446,-5.30096e-11,0.0,0.0,-4.83696e-36,0.000331664,0.000331664,-0.000284283,0.0,0.0,0.0,0.0,0.0003317190065854625,0.0,0.0,0.0003317190065854625,0.0,-0.00028424259541681707
8,0.00050258,149.593,149.593,-2.68283e-10,0.0,0.0,-1.08819e-35,0.000502452,0.000502452,-0.000430673,0.0,0.0,0.0,0.0,0.0005025782501502096,0.0,0.0,0.0005025782501502096,0.0,-0.00043058027369557994
9,0.00075887,225.848,225.848,-1.35751e-09,0.0,0.0,-2.44799e-35,0.000758579,0.000758579,-0.000650211,0.0,0.0,0.0,0.0,0.0007588667938165372,0.0,0.0,0.0007588667938165372,0.0,-0.0006499996586357693
10,0.0011433,340.195,340.195,-6.86638e-09,0.0,0.0,-5.50653e-35,0.00114265,0.00114265,-0.000979412,0.0,0.0,0.0,0.0,0.0011433030732321825,0.0,0.0,0.0011433030732321825,0.0,-0.0009789325326119425
11,0.0012875,369.169,369.152,0.183179,1.69636e-06,0.00812315,0.0112084,0.00128664,0.00128664,-0.00115585,-3.26689e-12,1.07309e-07,1.48717e-07,9.39349e-05,0.0012874680763521607,-3.2669422722619856e-12,1.0730900568134416e-07,0.0012874680763521607,1.487170111502678e-07,-0.001155182262681631
12,0.0015037,372.004,371.915,-0.219764,0.000134079,-0.0187698,-0.0361594,0.00150258,0.00150258,-0.00157777,-2.6935e-11,-3.10566e-07,-5.34311e-07,0.000505918,0.0015037094389480643,-2.693500977812846e-11,-3.1056595173328816e-07,0.0015037094389480643,-5.343108572253286e-07,-0.001576525975261256
13,0.0016659,374.478,374.347,-0.139282,0.000168356,-0.0155183,-0.0264729,0.0016645,0.0016645,-0.00189206,-2.07853e-11,-3.16333e-07,-4.67381e-07,0.000813565,0.001665886049044607,-2.0785262400124793e-11,-3.163329499455969e-07,0.001665886049044607,-4.67380890767366e-07,-0.0018902711828392427
14,0.0018281,377.028,376.863,0.0381818,0.000196485,-0.00475745,-0.00542684,0.0018264,0.0018264,-0.0022058,-5.17728e-12,-2.01735e-07,-2.06963e-07,0.00112091,0.001828068884342171,-5.1773030307344925e-12,-2.0173497961017972e-07,0.001828068884342171,-2.0696297853284307e-07,-0.0022033690109337645
15,0.0020713,380.337,380.123,-0.195538,0.000329933,-0.0164861,-0.0328974,0.00206921,0.00206921,-0.00267926,-2.89488e-11,-4.35504e-07,-6.31279e-07,0.00158384,0.002071352292374762,-2.8948843322496032e-11,-4.355039051606724e-07,0.002071352292374762,-6.31278800788948e-07,-0.002675673986262228
16,0.0021626,381.926,381.702,0.0873002,0.000307473,-0.000216743,0.00061113,0.00216024,0.00216024,-0.00285471,-4.9154e-12,-2.34174e-07,-2.10531e-07,0.0017561,0.0021625749995124455,-4.915401419225418e-12,-2.3417397254643646e-07,0.0021625749995124455,-2.105309778732689e-07,-0.0028506391899899564
17,0.0022994,383.596,383.356,-0.212882,0.000297473,-0.0205715,-0.0347219,0.00229678,0.00229678,-0.00312198,-3.53233e-11,-5.3481e-07,-7.158e-07,0.00201719,0.0022994196196726158,-3.532329984068383e-11,-5.348098569557536e-07,0.0022994196196726158,-7.157997438111963e-07,-0.003117111688015095
18,0.0025047,386.48,386.216,-0.253427,0.000345157,-0.0202959,-0.0390886,0.00250155,0.00250155,-0.00352059,-4.37803e-11,-6.08433e-07,-8.66656e-07,0.00240737,0.002504681486847238,-4.37803127084635e-11,-6.084328149080775e-07,0.002504681486847238,-8.666556244874002e-07,-0.003514399989319905
19,0.0028126,391.372,391.068,0.310284,0.000578918,0.00755823,0.0267235,0.00280863,0.00280863,-0.00411499,3.0013e-12,-2.792e-07,1.48852e-07,0.00299051,0.0028125778964334103,3.001376924771648e-12,-2.791999610396445e-07,0.0028125778964334103,1.4885201116143776e-07,-0.004106535029998137
20,0.002928,392.504,392.196,-0.180799,0.000529353,-0.0188899,-0.0308713,0.00292376,0.00292376,-0.00434185,-2.73945e-11,-6.43843e-07,-6.18281e-07,0.0032118,0.0029280383548802025,-2.7394531088020813e-11,-6.438427927468737e-07,0.0029280383548802025,-6.182808088839309e-07,-0.004332437796341626
21,0.0031012,394.842,394.525,-0.247563,0.000503076,-0.0208777,-0.0385566,0.00309643,0.00309643,-0.00467837,-3.74643e-11,-7.29818e-07,-7.98218e-07,0.00354132,0.0031012288912377617,-3.746425392137098e-11,-7.298177336911849e-07,0.0031012288912377617,-7.982176813969843e-07,-0.0046674434731577286
22,0.003361,398.931,398.595,0.278882,0.000582522,0.00801183,0.0233221,0.00335538,0.00335538,-0.00517961,2.21898e-12,-3.69532e-07,1.02502e-07,0.0040334,0.003361015588890126,2.218891737015838e-12,-3.6953193172095666e-07,0.003361015588890126,1.0250200532802012e-07,-0.005166218950238388
23,0.0034584,399.851,399.515,-0.140341,0.000535075,-0.0163066,-0.026017,0.00345246,0.00345246,-0.00537106,-2.1634e-11,-6.97363e-07,-5.47459e-07,0.00422021,0.0034584266045376566,-2.1634027902450725e-11,-6.973627568740426e-07,0.0034584266045376566,-5.474588501419575e-07,-0.005356661646911509
24,0.0036046,401.826,401.488,-0.149107,0.000495261,-0.0154574,-0.0270384,0.00359808,0.00359808,-0.00565474,2.39919e-11,-7.23983e-07,-6.09205e-07,0.00449819,0.0036045608603967327,2.3991919562149633e-11,-7.239827378713315e-07,0.0036045608603967327,-6.09204814483455e-07,-0.005638782051285429
25,0.0038238,405.043,404.695,0.116303,0.000513804,0.000742158,0.00423494,0.00381646,0.00381646,-0.00607868,4.95276e-12,-5.36884e-07,-1.81729e-07,0.00491421,0.0038237519570021306,4.952704912852823e-12,-5.368838559283162e-07,0.0038237519570021306,-1.8172898352819544e-07,-0.006060242202801991
26,0.0041525,408.934,408.561,-0.400261,0.000738874,-0.0225673,-0.0556489,0.00414395,0.00414395,-0.00671978,-5.01647e-11,-9.90418e-07,-1.1005e-06,0.00554174,0.004152548033305559,-5.016465021157046e-11,-9.904175095609702e-07,0.004152548033305559,-1.1004993945018526e-06,-0.006697252765971662
27,0.0042758,410.871,410.501,-0.0825848,0.000670896,-0.0108792,-0.0186257,0.00426673,0.00426673,-0.00695729,2.54622e-11,-8.66012e-07,-6.66304e-07,0.00577522,0.004275845452226701,2.546229893596319e-11,-8.660116249670224e-07,0.004275845452226701,-6.663037780407777e-07,-0.006933144087084453
28,0.0044608,413.19,412.819,-0.194818,0.000625691,-0.0169804,-0.0320309,0.00445087,0.00445087,-0.00731689,-3.81413e-11,-9.95528e-07,-9.01708e-07,0.00612765,0.0044607898337147844,-3.81412679217874e-11,-9.955275044326584e-07,0.0044607898337147844,-9.017075934814045e-07,-0.0072901867283563515
29,0.0047382,417.289,416.906,0.301033,0.000695042,0.0100316,0.026386,0.00472701,0.00472701,-0.00785254,6.72127e-13,-6.53636e-07,-2.58967e-08,0.00665396,0.004738199936469734,6.721290191080698e-13,-6.536357863851094e-07,0.004738199936469734,-2.589669967356656e-08,-0.007821789350652364
30,0.0048422,418.195,417.815,-0.146274,0.000636081,-0.01574,-0.0261198,0.00483055,0.00483055,-0.00805699,2.78879e-11,-9.9948e-07,-7.16124e-07,0.00685367,0.004842235915540671,2.7887914200164232e-11,-9.994795004963919e-07,0.004842235915540671,-7.16123743638164e-07,-0.008024619450806125
31,0.0049983,420.18,419.801,-0.165832,0.000584013,-0.0155227,-0.028393,0.00498583,0.00498583,-0.00835998,-3.09111e-11,-1.0354e-06,-7.96855e-07,0.00715088,0.004998279932877603,-3.0911051496218533e-11,-1.0353994639444863e-06,0.004998279932877603,-7.968546824610456e-07,-0.00832513254282885
32,0.0052324,423.467,423.084,0.142547,0.000594951,0.00313814,0.00783077,0.00521871,0.00521871,-0.00881254,-8.4862e-12,-8.11839e-07,-2.93339e-07,0.00759553,0.0052323511865073336,-8.486211733327309e-12,-8.118386705113778e-07,0.0052323511865073336,-2.9333895701366686e-07,-0.008773823383423807
33,0.0055835,427.383,426.978,-0.390624,0.000831956,-0.021218,-0.053509,0.00556793,0.00556793,-0.00949705,-5.17305e-11,-1.2808e-06,-1.21692e-06,0.0082663,0.005583459731683504,-5.173050876550178e-11,-1.28079917982582e-06,0.005583459731683504,-1.2169192595834488e-06,-0.00945209544509118
34,0.0057151,429.321,428.92,-0.0864423,0.00075295,-0.0101749,-0.0185931,0.00569886,0.00569886,-0.00975087,-3.04847e-11,-1.16396e-06,-8.09269e-07,0.00851603,0.005715129393632612,-3.0484725854762473e-11,-1.1639593225920564e-06,0.005715129393632612,-8.092686725191811e-07,-0.009703484409102292
35,0.0059126,431.674,431.274,-0.184891,0.000698444,-0.0153913,-0.0303523,0.00589521,0.00589521,-0.0101347,-4.07416e-11,-1.28035e-06,-1.02017e-06,0.0088927,0.005912620947387648,-4.0741632290064445e-11,-1.2803491803436984e-06,0.005912620947387648,-1.0201694796707628e-06,-0.010083516982064555
36,0.0062089,435.781,435.371,0.289994,0.000769641,0.0103786,0.0253815,0.00618967,0.00618967,-0.010707,-4.92395e-12,-9.55229e-07,-1.74196e-07,0.00945552,0.0062088655917103,-4.923950136515032e-12,-9.552285438196861e-07,0.0062088655917103,-1.7419598485890475e-07,-0.010649884103885454
37,0.00632,436.709,436.304,-0.143131,0.00070267,-0.0145424,-0.0252812,0.00630007,0.00630008,-0.0109251,-3.14715e-11,-1.28942e-06,-8.40846e-07,0.00966885,0.006319957182614688,-3.147149207904931e-11,-1.2894191686596557e-06,0.006319967245814295,-8.408456464437108e-07,-0.010865637835362763
38,0.0064866,438.702,438.299,-0.169137,0.000643019,-0.0147592,-0.0282902,0.00646565,0.00646565,-0.0112486,-3.49686e-11,-1.3305e-06,-9.31149e-07,0.00998658,0.00648659743689084,-3.496858358431609e-11,-1.3304991148821443e-06,0.00648659743689084,-9.311485664742492e-07,-0.011185571049535437
39,0.0067366,442.027,441.619,0.157624,0.000652513,0.0048674,0.00997798,0.00671397,0.00671397,-0.0117319,-1.15846e-11,-1.09106e-06,-3.91708e-07,0.0104619,0.006736559222737304,-1.1584622150451196e-11,-1.0910594048230138e-06,0.006736559222737304,-3.9170792331955084e-07,-0.011663349598560968
40,0.0071115,445.9,445.47,-0.445122,0.000909477,-0.0225086,-0.0589655,0.00708633,0.00708633,-0.012463,6.00656e-11,-1.61327e-06,-1.43275e-06,0.0111791,0.007111497449596493,6.006550812287514e-11,-1.6132686986303213e-06,0.007111497449596493,-1.4327489735732613e-06,-0.012385658451494974
41,0.0072521,447.883,447.459,-0.103172,0.00082091,-0.0103584,-0.0200471,0.00722593,0.00722593,-0.0127339,3.59018e-11,-1.4837e-06,-9.78057e-07,0.0114459,0.007252100028471986,3.590172603651354e-11,-1.4836988992961153e-06,0.007252100028471986,-9.780565216610526e-07,-0.012653166940959637
42,0.007463,450.239,449.816,-0.209041,0.000759315,-0.015875,-0.0326802,0.00743529,0.00743529,-0.0131438,-4.71149e-11,-1.60727e-06,-1.2065e-06,0.0118486,0.007463000404414943,-4.7114867562925156e-11,-1.607268708347931e-06,0.007463000404414943,-1.2064992721549928e-06,-0.013057797473137511
43,0.0077794,454.425,453.992,0.331289,0.000835498,0.0132784,0.0304636,0.00774925,0.00774925,-0.0137547,-6.86715e-12,-1.23113e-06,-2.39893e-07,0.01245,0.0077793531464767085,-6.867173496516443e-12,-1.2311292421074427e-06,0.0077793531464767085,-2.3989297126547626e-07,-0.013660536339329288
44,0.007898,455.293,454.866,-0.167216,0.000761027,-0.0153546,-0.0276157,0.00786696,0.00786696,-0.0139877,-3.70408e-11,-1.61364e-06,-1.00334e-06,0.0126782,0.007897985836125665,-3.704081485977895e-11,-1.6136386981058237e-06,0.007897985836125665,-1.0033394967079445e-06,-0.01389032666275003
45,0.0080759,457.279,456.855,-0.205258,0.000694721,-0.0160883,-0.0319975,0.0080435,0.0080435,-0.0143332,4.10683e-11,-1.66559e-06,-1.11971e-06,0.0130179,0.008075935853731009,4.1068259903909166e-11,-1.6655886129202102e-06,0.008075935853731009,-1.1197093731096786e-06,-0.0142309687055866
46,0.0083429,460.69,460.261,0.201723,0.000704328,0.00815819,0.0154879,0.00830825,0.00830825,-0.0148489,-1.30051e-11,-1.35932e-06,-4.43102e-07,0.0135257,0.008342859290179083,-1.3005152510459084e-11,-1.3593190760774476e-06,0.008342859290179083,-4.4310190183693976e-07,-0.014739198736648085
47,0.0087432,465.416,464.963,0.464181,0.000980995,0.017062,0.0436798,0.00870524,0.00870524,-0.0156243,6.05502e-12,-1.24278e-06,2.37075e-07,0.0142889,0.008743240790356266,6.054934331700679e-12,-1.2427792277502903e-06,0.008743240790356266,2.3707502805336844e-07,-0.015502873846844456
48,0.0091436,468.914,468.444,-0.45229,0.00117516,-0.0219341,-0.0599559,0.00910207,0.00910207,-0.0164064,4.59255e-11,-1.91494e-06,-1.2389e-06,0.0150566,0.009143619806547543,4.5925485636644225e-11,-1.9149381664806953e-06,0.009143619806547543,-1.2388992325362835e-06,-0.016272548028887113
49,0.009544,473.22,472.737,-0.469714,0.00130194,-0.0224037,-0.0613973,0.00949875,0.00949875,-0.0171833,-5.70252e-11,-2.10404e-06,-1.44631e-06,0.0158212,0.009544006305060249,-5.702516236993915e-11,-2.1040377865544357e-06,0.009544006305060249,-1.4463089540450724e-06,-0.01703650908722476
50,0.0098443,477.265,476.785,0.401544,0.00120934,0.0193238,0.0385648,0.00979616,0.00979616,-0.0177609,-4.93108e-13,-1.54407e-06,-1.76011e-08,0.0163914,0.009844299440852744,-4.931610675384945e-13,-1.544068807923793e-06,0.009844299440852744,-1.760109979986879e-08,-0.01760410486213604
51,0.010145,480.342,479.863,0.322702,0.00113748,0.0148783,0.0284438,0.0100935,0.0100935,-0.0183439,1.37016e-14,-1.57648e-06,4.94314e-10,0.0169652,0.010144611189983666,1.3766765505351941e-14,-1.5764787573147032e-06,0.010144611189983666,4.943139231272653e-10,-0.018176674748661914
52,0.010595,484.607,484.107,-0.0936782,0.0013946,-0.00493546,-0.0187181,0.0105393,0.0105393,-0.01922,-1.77502e-11,-1.95146e-06,-5.41373e-07,0.0178272,0.010595034049447838,-1.7750245717707003e-11,-1.951458095894587e-06,0.010595034049447838,-5.413728534353623e-07,-0.01903647347408799
53,0.010764,486.54,486.051,0.122241,0.001239,0.00677366,0.00539747,0.0107064,0.0107064,-0.0195464,-6.61653e-12,-1.79692e-06,-2.22791e-07,0.0181491,0.010763918589547838,-6.616485137556083e-12,-1.796918385532642e-06,0.010763918589547838,-2.2279097522392988e-07,-0.019356607720394936
54,0.011017,488.744,488.259,-0.247501,0.00111658,-0.0158319,-0.037787,0.010957,0.010957,-0.02004,-2.94073e-11,-2.14343e-06,-8.50544e-07,0.0186345,0.011017247768366767,-2.940725440936376e-11,-2.143427702883116e-06,0.011017247768366767,-8.505436382977294e-07,-0.019840533856028464
55,0.011397,493.214,492.72,0.426612,0.00117963,0.0184133,0.0391421,0.0113329,0.0113329,-0.0207732,-9.63147e-12,-1.69144e-06,3.63412e-07,0.0193583,0.011397360589531669,-9.63151780553062e-12,-1.6914385695399048e-06,0.011397360589531669,3.634120659956608e-07,-0.020558923382821948
56,0.011777,496.084,495.583,-0.47058,0.00122525,-0.0232538,-0.062548,0.0117086,0.0117086,-0.0215154,-3.92882e-11,-2.37078e-06,-1.10117e-06,0.0200879,0.011777413966461703,-3.928823932852765e-11,-2.370777189675266e-06,0.011777413966461703,-1.1011693936691103e-06,-0.021285594848748257
57,0.012157,499.834,499.327,-0.413638,0.00125004,-0.0203822,-0.0556542,0.0120841,0.0120841,-0.022252,-4.25652e-11,-2.47818e-06,-1.17952e-06,0.0208142,0.012157407724769254,-4.2565173608011264e-11,-2.4781769293324984e-06,0.012157407724769254,-1.1795193043395713e-06,-0.022006250429547847
58,0.012538,504.261,503.749,0.391573,0.00126202,0.0181106,0.0359923,0.0124596,0.0124596,-0.0229844,5.43682e-12,-1.97245e-06,1.95394e-07,0.0215377,0.012537544197525952,5.4367621515893916e-12,-1.9724480547766987e-06,0.012537544197525952,1.9539401918677868e-07,-0.022722270813062106
59,0.012918,506.995,506.478,-0.47354,0.00127039,-0.0230905,-0.0624782,0.0128348,0.0128348,-0.0237261,-4.4337e-11,-2.63947e-06,-1.22828e-06,0.0222675,0.01291751956303,-4.433697853301055e-11,-2.639466516574096e-06,0.01291751956303,-1.228279245646391e-06,-0.023446848961776623
60,0.013298,511.405,510.885,0.42549,0.00126707,0.0200421,0.0392265,0.01321,0.01321,-0.0244578,7.69203e-12,-2.06634e-06,2.80439e-07,0.0229909,0.013297637522039718,7.692069203812935e-12,-2.0663378651475384e-06,0.013297637522039718,2.804390393240652e-07,-0.024161131550238357
61,0.013678,514.876,514.352,0.421963,0.00126288,0.0198526,0.0382166,0.013585,0.013585,-0.0251945,1.31509e-11,-2.03482e-06,5.01256e-07,0.0237176,0.013677695392507516,1.3150813771289904e-11,-2.034817929708055e-06,0.013677695392507516,5.012561257178305e-07,-0.024879767302643963
62,0.014058,517.626,517.099,-0.261863,0.00125617,-0.0127755,-0.038736,0.0139598,0.0139598,-0.025935,1.79872e-11,-2.54577e-06,-5.52945e-07,0.024447,0.01405769299984394,1.798716731116201e-11,-2.5457667595096822e-06,0.01405769299984394,-5.529448471319753e-07,-0.025601576552098604
63,0.014438,521.655,521.125,0.408313,0.00124324,0.0196303,0.0363507,0.0143345,0.0143345,-0.0266677,1.55192e-11,-2.10683e-06,6.04058e-07,0.0251714,0.014437731613198723,1.5519141527420288e-11,-2.1068277806790547e-06,0.014437731613198723,6.040581823629765e-07,-0.026315256788276176
64,0.014818,525.015,524.483,0.450703,0.00123113,0.0216887,0.040595,0.0147091,0.0147091,-0.0274039,2.16008e-11,-2.03806e-06,8.92686e-07,0.0258982,0.014817811171917716,2.160072121171197e-11,-2.0380579232037732e-06,0.014817811171917716,8.926863983571565e-07,-0.027031819697057702
65,0.015198,527.528,526.993,-0.317943,0.00121894,-0.0156709,-0.0459157,0.0150835,0.0150835,-0.0281446,-9.44714e-12,-2.61615e-06,-3.12201e-07,0.0266281,0.015197830095524001,-9.447109761140382e-12,-2.616146577927303e-06,0.015197830095524001,-3.1220095131345715e-07,-0.027752230391170585
66,0.01534,529.261,528.735,0.216109,0.00110197,0.0159778,0.0147594,0.0152239,0.0152239,-0.0284177,1.18681e-11,-2.19878e-06,4.7112e-07,0.0268988,0.015340373877208657,1.1868062088637998e-11,-2.1987775826737277e-06,0.015340373877208657,4.711201109230956e-07,-0.02801771500347683
67,0.015554,531.083,530.566,0.237119,0.000984923,0.015062,0.0169205,0.0154344,0.0154344,-0.0288317,1.35142e-11,-2.18333e-06,5.47991e-07,0.0273077,0.015554125522481144,1.351430078955218e-11,-2.183327616589459e-06,0.015554125522481144,5.4799115023485e-07,-0.028420032384021354
68,0.015875,533.387,532.869,-0.144761,0.000946704,-0.00795847,-0.0268099,0.0157501,0.0157501,-0.029455,-1.49607e-12,-2.52495e-06,-5.35693e-08,0.0279226,0.015874786573592203,-1.4960255256823984e-12,-2.5249468122989782e-06,0.015874786573592203,-5.356929855260262e-08,-0.02902542948622966
69,0.015995,534.61,534.099,0.0890311,0.000867924,0.00677536,-0.000154256,0.0158685,0.0158685,-0.0296866,7.19323e-12,-2.3336e-06,2.80843e-07,0.0281518,0.015995073269154503,7.193134976546389e-12,-2.333597277193178e-06,0.015995073269154503,2.808430394907191e-07,-0.029250281157931934
70,0.016175,535.833,535.328,-0.174031,0.000783787,-0.012272,-0.0304947,0.016046,0.016046,-0.0300374,-4.25664e-12,-2.59979e-06,-1.50905e-07,0.0284979,0.016175428400704073,-4.25659507641285e-12,-2.5997866205385023e-06,0.016175428400704073,-1.5090498861614066e-07,-0.029590760435744823
71,0.016446,538.573,538.068,0.367502,0.000740123,0.0218128,0.032266,0.0163123,0.0163123,-0.0305583,1.69396e-11,-2.1266e-06,7.46703e-07,0.0290136,0.01644607195187664,1.6939560865125713e-11,-2.1265977387940893e-06,0.01644607195187664,7.467032787644712e-07,-0.03009611497761666
72,0.016852,541.005,540.485,-0.487426,0.000875075,-0.0235908,-0.0650148,0.0167115,0.0167115,-0.0313491,-2.00117e-11,-2.8475e-06,-6.7552e-07,0.0297933,0.01685191822532639,-2.0011658996565984e-11,-2.847495945923484e-06,0.01685191822532639,-6.755197717867034e-07,-0.03086281177802197
73,0.017258,545.157,544.626,0.460264,0.000964866,0.022587,0.0413713,0.0171105,0.0171105,-0.0321294,2.03331e-11,-2.22404e-06,9.00347e-07,0.0305664,0.01725772309338569,2.0333068562194967e-11,-2.2240375268101076e-06,0.01725772309338569,9.003474052970972e-07,-0.031618734564361706
74,0.017664,548.333,547.793,0.470489,0.00102971,0.0230382,0.0419422,0.0175094,0.0175094,-0.032915,2.48679e-11,-2.16962e-06,1.15591e-06,0.031343,0.017663588143530085,2.486788552857888e-11,-2.1696176464303107e-06,0.017663588143530085,1.1559106680714137e-06,-0.03237919613807083
75,0.018069,550.687,550.139,-0.300586,0.00107429,-0.0143154,-0.0440885,0.0179081,0.0179081,-0.033705,-9.84705e-13,-2.74556e-06,-3.70224e-08,0.0321226,0.018069411511635547,-9.846568005400513e-13,-2.745556230920876e-06,0.018069411511635547,-3.7022399368424885e-08,-0.033143314706546634
76,0.018475,554.53,553.976,0.490966,0.00109886,0.0244576,0.0439695,0.0183067,0.0183067,-0.0344859,2.74373e-11,-2.20521e-06,1.31369e-06,0.0328963,0.018475294866242775,2.7437385696771344e-11,-2.2052075685508044e-06,0.018475294866242775,1.313690862980721e-06,-0.03389803837188432
77,0.018881,556.596,556.037,-0.469239,0.00111634,-0.0229915,-0.0638344,0.0187051,0.0187051,-0.0352766,-6.41265e-12,-2.94121e-06,-2.3539e-07,0.0336766,0.018881136261955422,-6.412648190234904e-12,-2.941205674678038e-06,0.018881136261955422,-2.3538997229177738e-07,-0.034661633265918645
78,0.019287,560.436,559.873,0.420768,0.00112048,0.0213872,0.035992,0.0191033,0.0191033,-0.0360567,2.59998e-11,-2.34258e-06,1.22442e-06,0.03445,0.019286935519684967,2.599986892448669e-11,-2.342577256175815e-06,0.019286935519684967,1.2244207496792114e-06,-0.035414400070940544
79,0.019693,562.482,561.915,-0.460471,0.00112286,-0.0225449,-0.0628499,0.0195014,0.0195014,-0.0368467,-5.61176e-12,-3.02978e-06,-2.08736e-07,0.03523,0.01969279442957128,-5.611733300270316e-12,-3.029775410223756e-06,0.01969279442957128,-2.0873597816883915e-07,-0.03617612177519547
80,0.020099,565.353,564.784,-0.455656,0.0011176,-0.0221627,-0.0619012,0.0198993,0.0198993,-0.0376316,1.09088e-11,-3.15928e-06,-3.9075e-07,0.0360067,0.0200986109243122,1.0908829395361863e-11,-3.1592750094899813e-06,0.0200986109243122,-3.9074992363996586e-07,-0.03693233032434595
81,0.020504,569.091,568.519,0.474618,0.00110802,0.0252215,0.0430803,0.0202971,0.0202971,-0.038411,2.46784e-11,-2.50595e-06,1.15631e-06,0.0367799,0.020504486875112304,2.467848148057783e-11,-2.5059468601318358e-06,0.020504486875112304,1.156310668548599e-06,-0.037682652827428886
82,0.02091,570.934,570.359,-0.469553,0.0011003,-0.0228281,-0.0634796,0.0206947,0.0206947,-0.039201,-1.01811e-11,-3.24177e-06,-3.76216e-07,0.0375602,0.020910320133399107,-1.0181078202720073e-11,-3.2417647454208165e-06,0.020910320133399107,-3.762159291875733e-07,-0.03844258331962813
83,0.021316,573.685,573.108,-0.447088,0.00108765,-0.0215647,-0.0605774,0.0210922,0.0210922,-0.0399854,-1.45125e-11,-3.35384e-06,-5.28582e-07,0.0383368,0.021316212651445676,-1.4512502310992659e-11,-3.353834375885434e-06,0.021316212651445676,-5.285818602818182e-07,-0.0391965332194637
84,0.021722,577.254,576.675,0.449089,0.00107293,0.0246243,0.0404986,0.0214895,0.0214895,-0.0407646,2.08011e-11,-2.71665e-06,9.53345e-07,0.0391101,0.02172206219940631,2.0801138589376933e-11,-2.7166463099081994e-06,0.02172206219940631,9.533454543575459e-07,-0.039944899679342005
85,0.022128,579.034,578.452,-0.423532,0.00106114,-0.020334,-0.0579694,0.0218866,0.0218866,-0.0415537,1.31118e-11,-3.39993e-06,-4.56009e-07,0.03989,0.022127868597833444,1.3111733920823099e-11,-3.3999242202709112e-06,0.022127868597833444,-4.5600889597707805e-07,-0.04070218033462725
86,0.022534,582.527,581.943,0.482959,0.00104491,0.0263319,0.0435513,0.0222836,0.0222836,-0.0423325,2.21243e-11,-2.74921e-06,1.04e-06,0.0406633,0.02253373392060265,2.2124302390125195e-11,-2.749206220897804e-06,0.02253373392060265,1.0400005407973367e-06,-0.041448990630906346
87,0.02294,584.186,583.601,-0.424004,0.00103206,-0.0203952,-0.0580858,0.0226804,0.0226804,-0.0431216,-1.07516e-11,-3.45261e-06,-4.0982e-07,0.0414433,0.022939555815961743,-1.0751621815074941e-11,-3.4526040397775404e-06,0.022939555815961743,-4.0981991600297363e-07,-0.042205084876181465
88,0.023345,587.592,587.005,0.478511,0.0010152,0.0263948,0.0429539,0.0230771,0.0230771,-0.0439001,2.245e-11,-2.7994e-06,1.07426e-06,0.0422164,0.023345436438852563,2.2450041825550215e-11,-2.799396081720751e-06,0.023345436438852563,1.0742605769387126e-06,-0.04295043805123766
89,0.023751,589.189,588.601,-0.407229,0.00100183,-0.0195698,-0.0562731,0.0234736,0.0234736,-0.0446888,9.17041e-12,-3.48782e-06,-3.38585e-07,0.0429963,0.0237512733562526,9.170442183403793e-12,-3.487813917568694e-06,0.0237512733562526,-3.385849426384979e-07,-0.0437049654537528
90,0.024157,592.47,591.88,0.451466,0.000984926,0.0252528,0.0398259,0.0238699,0.0238699,-0.0454672,2.20527e-11,-2.86303e-06,1.06815e-06,0.0437695,0.024157066388462045,2.2052804027339334e-11,-2.8630259015782755e-06,0.024157066388462045,1.0681505704379646e-06,-0.0444490558710825
91,0.024563,594.88,594.288,0.468439,0.000970373,0.0260538,0.0413188,0.0242661,0.0242661,-0.0462504,2.56243e-11,-2.78521e-06,1.29752e-06,0.0445459,0.024562917812023244,2.5624391497558463e-11,-2.78520612129185e-06,0.024562917812023244,1.2975208418808393e-06,-0.04519715037847494
92,0.024969,596.493,595.899,-0.281279,0.000956613,-0.0128485,-0.0420155,0.0246622,0.0246622,-0.0470377,-3.5034e-12,-3.35589e-06,1.38777e-07,0.0453251,0.02496882756888885,-3.503419776507144e-12,-3.3558843690606466e-06,0.02496882756888885,1.387770096616947e-07,-0.04594857082650905
93,0.025121,597.831,597.247,0.194705,0.000868989,0.0166919,0.0113034,0.0248107,0.0248107,-0.0473286,1.69269e-11,-2.96405e-06,8.23937e-07,0.0456144,0.02512104674177662,1.6926904322644987e-11,-2.964045607178889e-06,0.02512104674177662,8.239373394669514e-07,-0.04622606402391327
94,0.025349,599.125,598.549,0.193721,0.000779874,0.0146275,0.0109661,0.0250333,0.0250333,-0.047769,-1.93891e-11,-2.9636e-06,8.51591e-07,0.0460511,0.025349264086429457,-1.9389045924356196e-11,-2.9635956085849458e-06,0.025349264086429457,8.515913625384286e-07,-0.04664601358563614
95,0.025692,600.781,600.205,-0.0782731,0.000747023,-0.00274085,-0.0197351,0.0253672,0.0253672,-0.048431,9.35199e-12,-3.20914e-06,4.30121e-07,0.0467071,0.025691685369759742,9.352074670232469e-12,-3.2091348507456985e-06,0.025691685369759742,4.301210925206078e-07,-0.0472769250699
96,0.026205,603.143,602.547,-0.570094,0.000930491,-0.0246958,-0.0731205,0.0258679,0.0258679,-0.0494242,-1.22355e-11,-3.66956e-06,-5.02095e-07,0.0476914,0.02620537778878962,-1.2235545909788925e-11,-3.669553267138248e-06,0.02620537778878962,-5.020948738998499e-07,-0.04822269987840433
97,0.026398,604.624,604.037,-0.129118,0.00083497,-0.00734781,-0.0253538,0.0260556,0.0260556,-0.049793,1.21867e-12,-3.46922e-06,5.32886e-08,0.0480581,0.026398014616601406,1.2185807918285718e-12,-3.4692139823100376e-06,0.026398014616601406,5.328860130937585e-08,-0.04857365062739327
98,0.026687,606.041,605.459,-0.269915,0.000760098,-0.0152432,-0.0416354,0.026337,0.026337,-0.0503508,-5.88271e-12,-3.62064e-06,-2.492e-07,0.0486111,0.026686883659882588,-5.882738740581317e-12,-3.620633445500232e-06,0.026686883659882588,-2.491999689935298e-07,-0.04910420825879336
99,0.02712,609.111,608.52,0.499679,0.000805768,0.028217,0.045731,0.0267591,0.0267591,-0.0511816,-2.34283e-11,-2.99858e-06,1.08194e-06,0.0494369,0.02712033966793026,-2.342825933254744e-11,-2.9985755042316597e-06,0.02712033966793026,1.0819405853457198e-06,-0.0498938844056791
100,0.027283,609.215,608.633,-0.253391,0.000731001,-0.0173366,-0.0395902,0.0269173,0.0269173,-0.0514991,-9.98697e-13,-3.59684e-06,-4.35461e-08,0.0497505,0.02728284295933725,-9.986456106503283e-13,-3.5968335313496524e-06,0.02728284295933725,-4.354609905998785e-08,-0.0501954952141308
101,0.027527,610.392,609.816,-0.344451,0.000661578,-0.0209344,-0.0498004,0.0271546,0.0271546,-0.0519693,-6.46726e-12,-3.69607e-06,-2.76896e-07,0.0502169,0.027526646104070407,-6.467271163046462e-12,-3.6960631695226454e-06,0.027526646104070407,-2.7689596171498465e-07,-0.050641988313527286
102,0.027892,613.014,612.435,0.402514,0.000657988,0.0250992,0.0351569,0.0275104,0.0275104,-0.0526695,-1.99217e-11,-3.05553e-06,9.35249e-07,0.0509132,0.027892305131637762,-1.9921730931571346e-11,-3.0555253318631515e-06,0.027892305131637762,9.352494374503806e-07,-0.0513064961219768
103,0.028029,613.124,612.552,-0.188415,0.000604315,-0.0129934,-0.0320967,0.0276438,0.0276438,-0.052937,1.19248e-12,-3.54976e-06,5.41395e-08,0.0511776,0.028029435111508683,1.1923795284474181e-12,-3.549753699649827e-06,0.028029435111508683,5.413950154853353e-08,-0.05156023769481577
104,0.028235,614.156,613.588,-0.19477,0.000549457,-0.0117725,-0.0328481,0.0278438,0.0278438,-0.0533331,-2.96363e-13,-3.5607e-06,-1.3513e-08,0.0515708,0.028235061560490493,-2.963185252724543e-13,-3.560693660698e-06,0.028235061560490493,-1.351300005225653e-08,-0.05193584029165965
105,0.028544,616.053,615.485,0.161884,0.000529467,0.012124,0.00792686,0.0281439,0.0281439,-0.0539252,1.05808e-11,-3.23914e-06,5.36164e-07,0.0521592,0.028543681208526683,1.0580869513887592e-11,-3.2391347539739712e-06,0.028543681208526683,5.361641437495734e-07,-0.05249702292610903
106,0.029006,617.711,617.126,-0.475655,0.000652931,-0.0214514,-0.062764,0.0285937,0.0285937,-0.0548198,-1.27332e-11,-3.79291e-06,-5.60059e-07,0.0530461,0.029006424219435667,-1.273314786942592e-11,-3.7929028069427773e-06,0.029006424219435667,-5.600588431908804e-07,-0.05334428005477998
107,0.02918,619.292,618.713,0.271395,0.000593472,0.0229094,0.020902,0.0287624,0.0287624,-0.0551496,-1.11248e-11,-3.20352e-06,5.22527e-07,0.053375,0.029180032246626908,-1.1124767773651456e-11,-3.2035148687104e-06,0.029180032246626908,5.22527136448403e-07,-0.05365643563393363
108,0.02944,620.629,620.054,0.356204,0.000546275,0.0256064,0.03016,0.0290153,0.0290153,-0.0556502,1.32568e-11,-3.11513e-06,7.20606e-07,0.0538721,0.029440344791915818,1.3256729047839144e-11,-3.115125147945541e-06,0.029440344791915818,7.206062595521701e-07,-0.054130056665020354
109,0.029831,621.859,621.276,-0.281689,0.000578651,-0.0131195,-0.0415779,0.0293945,0.0293945,-0.0564052,-6.28956e-12,-3.67075e-06,-2.94023e-07,0.0546207,0.029830782592989546,-6.289524456803974e-12,-3.670743262795817e-06,0.029830782592989546,-2.940229567593988e-07,-0.05484391895531371
110,0.029977,622.991,622.414,0.16825,0.000531011,0.0156209,0.00891646,0.0295367,0.0295367,-0.0566843,6.7025e-12,-3.29145e-06,3.5115e-07,0.0548987,0.029977234942789588,6.70241639966207e-12,-3.291444583219949e-06,0.029977234942789588,3.511500616948382e-07,-0.05510767520863602
111,0.030197,624.003,623.431,0.156363,0.000485619,0.0131476,0.00743642,0.02975,0.02975,-0.0571069,6.70865e-12,-3.29984e-06,3.53164e-07,0.0553184,0.030196952519049303,6.708633648599971e-12,-3.2998345554924313e-06,0.030196952519049303,3.531640624387933e-07,-0.05550690234245792
112,0.030526,625.33,624.755,-0.0416881,0.000482682,-0.000114424,-0.0148023,0.0300697,0.0300697,-0.0577418,9.70619e-13,-3.4797e-06,4.89879e-08,0.0559486,0.030526359137611925,9.705569681273118e-13,-3.479693945873663e-06,0.030526359137611925,4.8987901291042135e-08,-0.05610637068879709
113,0.031021,628.077,627.482,0.453943,0.000635326,0.0252389,0.0404744,0.0305492,0.0305492,-0.0586893,1.71322e-11,-3.09374e-06,9.88354e-07,0.0568907,0.031020615015195263,1.713229558220064e-11,-3.0937352143434182e-06,0.031020615015195263,9.88354488473675e-07,-0.057000286343151685
114,0.031206,628.237,627.649,-0.218658,0.000575953,-0.014132,-0.0355135,0.0307289,0.0307289,-0.0590494,-3.99192e-13,-3.61274e-06,-1.98403e-08,0.0572471,0.031205906067615752,-3.992361996552063e-13,-3.6127334740454486e-06,0.031205906067615752,-1.9840299847473375e-08,-0.05733979940704359
115,0.031484,629.317,628.732,-0.372567,0.000532273,-0.0218691,-0.0527257,0.0309985,0.0309985,-0.0595847,-7.46304e-12,-3.77268e-06,-3.5838e-07,0.0577786,0.03148395665942738,-7.463030193832765e-12,-3.7726728834286405e-06,0.03148395665942738,-3.583799357276263e-07,-0.05784427037871931
116,0.031901,631.089,630.494,-0.431159,0.000576225,-0.0210125,-0.0582148,0.0314027,0.0314027,-0.0603864,-1.28754e-11,-3.86743e-06,-6.11164e-07,0.058575,0.03190096674677023,-1.2875367438880403e-11,-3.867422521453001e-06,0.03190096674677023,-6.111638132244579e-07,-0.058599293935524654
117,0.032057,632.344,631.756,0.155921,0.000527108,0.0147326,0.00767934,0.0315542,0.0315542,-0.0606835,4.1655e-12,-3.40065e-06,2.25966e-07,0.0588714,0.03205731158605496,4.165556788393587e-12,-3.4006442177769713e-06,0.03205731158605496,2.2596602544666666e-07,-0.058878942541438994
118,0.032292,633.403,632.82,0.211245,0.000481839,0.0169846,0.0138385,0.0317814,0.0317814,-0.0611338,6.08609e-12,-3.34081e-06,3.38535e-07,0.059319,0.03229182164658129,6.086020576390183e-12,-3.3408044195493147e-06,0.03229182164658129,3.3853505732039935e-07,-0.05930263395233204
119,0.032644,634.55,633.962,-0.139317,0.00048452,-0.00560709,-0.0255747,0.0321222,0.0321222,-0.0618116,-4.19222e-12,-3.65645e-06,-2.15395e-07,0.0599919,0.03264368665379003,-4.192202140984591e-12,-3.6564433152364018e-06,0.03264368665379003,-2.153949768546326e-07,-0.05994002259162734
120,0.033171,637.48,636.869,0.586675,0.000655671,0.0307164,0.0534514,0.0326332,0.0326332,-0.062821,1.78841e-11,-3.10571e-06,1.09933e-06,0.0609964,0.03317150242311384,1.7884138614476797e-11,-3.1057051772531707e-06,0.03317150242311384,1.0993306043260986e-06,-0.06088844038583496
121,0.033699,638.47,637.841,-0.593833,0.000777065,-0.0261838,-0.0748481,0.0331439,0.0331439,-0.0638409,1.88109e-11,-3.9922e-06,-7.92741e-07,0.0620079,0.03369927786538973,1.8810952795433877e-11,-3.9921920311769554e-06,0.03369927786538973,-7.927406857621833e-07,-0.061845752001444376
122,0.034095,640.186,639.559,-0.459707,0.000736004,-0.0232478,-0.0613135,0.0335267,0.0335267,-0.0645997,-1.6799e-11,-4.05752e-06,-8.12529e-07,0.0627626,0.034095053695617494,-1.679900663020817e-11,-4.057511768240651e-06,0.034095053695617494,-8.125286699023349e-07,-0.0625573534291004
123,0.034491,642.531,641.904,0.333292,0.000701631,0.0217132,0.027639,0.0339094,0.0339094,-0.0653546,7.37759e-12,-3.43736e-06,4.261e-07,0.0635146,0.03449087760874159,7.37765404323909e-12,-3.437354092250544e-06,0.03449087760874159,4.261000907668233e-07,-0.06326476183809826
124,0.034639,642.598,641.98,-0.177214,0.000641524,-0.0114608,-0.0300924,0.0340529,0.0340529,-0.0656423,-6.50902e-12,-3.86892e-06,-3.35451e-07,0.0637996,0.034639337701435347,-6.509015548772368e-12,-3.868912515692102e-06,0.034639337701435347,-3.3545094368925277e-07,-0.06353422180244295
125,0.034862,643.448,642.839,-0.183687,0.000577467,-0.0103189,-0.0308215,0.034268,0.034268,-0.0660693,-7.75366e-12,-3.87838e-06,-4.0119e-07,0.0642243,0.034861912560042674,-7.75368658167963e-12,-3.87837247906031e-06,0.034861912560042674,-4.011899195077717e-07,-0.06393400732944898
126,0.035196,645.073,644.465,0.16848,0.000542936,0.0132009,0.00930162,0.0345907,0.0345907,-0.0667078,2.53693e-12,-3.5559e-06,1.44542e-07,0.0648598,0.03519591638784503,2.5368596112684827e-12,-3.55589367784237e-06,0.03519591638784503,1.4454201036073755e-07,-0.06453149469762809
127,0.035697,646.333,645.709,-0.466157,0.000637898,-0.0201937,-0.0603593,0.0350745,0.0350745,-0.0676718,-1.88138e-11,-4.10218e-06,-9.42447e-07,0.0658173,0.03569686534197425,-1.8813839375297903e-11,-4.102171586084502e-06,0.03569686534197425,-9.424465559071393e-07,-0.06543285181280767
128,0.035885,647.765,647.15,0.279707,0.0005769,0.0241616,0.0224271,0.0352559,0.0352559,-0.0680276,2.27377e-12,-3.50869e-06,1.33863e-07,0.0661726,0.0358847577946777,2.2737367544323206e-12,-3.508683844577476e-06,0.0358847577946777,1.3386300889983715e-07,-0.06576531165601929
129,0.036167,648.896,648.286,0.380152,0.000525894,0.0277462,0.033321,0.0355279,0.0355279,-0.0685671,5.91712e-12,-3.40117e-06,3.62195e-07,0.0667093,0.036166556771721314,5.917044632042234e-12,-3.4011642160436395e-06,0.036166556771721314,3.6219506549528546e-07,-0.06626919533553666
130,0.036589,649.742,649.125,-0.311924,0.000546808,-0.014064,-0.0439274,0.0359357,0.0359357,-0.0693809,-1.40336e-11,-3.99933e-06,-7.39109e-07,0.0675175,0.036589191662970144,-1.4033552098169366e-11,-3.999322002679051e-06,0.036589191662970144,-7.391087268882046e-07,-0.0670287563570734
131,0.036748,650.805,650.196,0.191909,0.000499965,0.0181128,0.0122351,0.0360886,0.0360886,-0.0696816,-2.91207e-13,-3.57225e-06,-1.72446e-08,0.0678176,0.03674769826789648,-2.9121149935917856e-13,-3.5722436195761986e-06,0.03674769826789648,-1.724459985918969e-08,-0.06730925863440584
132,0.036985,651.641,651.037,0.187661,0.000454554,0.0159146,0.0115662,0.0363179,0.0363179,-0.070137,6.1396e-14,-3.57017e-06,3.66139e-09,0.0682706,0.03698545177250678,6.150635556423367e-14,-3.5701636269536152e-06,0.03698545177250678,3.6613900800119836e-09,-0.06773390929772871
133,0.037342,652.644,652.038,-0.0615753,0.000447524,-0.000656943,-0.0162954,0.0366618,0.0366618,-0.0708214,8.00793e-12,-3.79232e-06,-3.79055e-07,0.068951,0.0373421323970895,8.008038676621254e-12,-3.7923128091144065e-06,0.0373421323970895,-3.7905492811241004e-07,-0.06837173392172236
134,0.037877,655.145,654.517,0.592289,0.000581259,0.0326695,0.0559537,0.0371774,0.0371774,-0.0718417,-1.5225e-11,-3.26353e-06,8.47886e-07,0.0699674,0.03787712390951348,-1.5225043448197084e-11,-3.2635246747236835e-06,0.03787712390951348,8.478863593452957e-07,-0.06932178948833645
135,0.038078,654.936,654.317,-0.298637,0.000524861,-0.0194807,-0.0438833,0.0373706,0.0373706,-0.0722307,-8.61654e-12,-3.95347e-06,-4.7775e-07,0.0703528,0.03807766114112554,-8.616551916418302e-12,-3.953462185068979e-06,0.03807766114112554,-4.777498858743456e-07,-0.06968375290577644
136,0.038379,656.536,655.921,0.297904,0.000482425,0.0219536,0.0236288,0.0376605,0.0376605,-0.0728031,6.73688e-12,-3.38378e-06,4.39851e-07,0.0709235,0.03837864348037234,6.73683331342545e-12,-3.383774275000917e-06,0.03837864348037234,4.398510966563407e-07,-0.07021611354946156
137,0.03883,657.197,656.572,-0.543549,0.000521173,-0.0265219,-0.069843,0.0380951,0.0380951,-0.0736714,-1.79422e-11,-4.11999e-06,-9.73465e-07,0.071786,0.038830020916041263,-1.7942203278664692e-11,-4.1199815128400985e-06,0.038830020916041263,-9.73464526210499e-07,-0.07102309449658684
138,0.038999,658.188,657.57,-0.0981047,0.000475046,-0.00475949,-0.0208622,0.038258,0.038258,-0.0739926,-6.67479e-12,-3.85539e-06,-3.88677e-07,0.0721065,0.038999260110606615,-6.674771846348904e-12,-3.8553825679743525e-06,0.038999260110606615,-3.8867692442323687e-07,-0.07132143396275126
139,0.039253,658.858,658.246,-0.247178,0.000432427,-0.0144419,-0.0379779,0.0385023,0.0385023,-0.074479,-1.21026e-11,-4.01262e-06,-6.81535e-07,0.0725903,0.0392531186374081,-1.2102652213741294e-11,-4.012611949488765e-06,0.0392531186374081,-6.815347677324723e-07,-0.07177303337939023
140,0.039634,660.713,660.097,0.393325,0.000432653,0.0262974,0.0348144,0.0388687,0.0388687,-0.0752034,5.48176e-12,-3.42887e-06,3.64735e-07,0.0733126,0.03963397074792274,5.481837206389173e-12,-3.4288641214130777e-06,0.03963397074792274,3.647350665936244e-07,-0.07244519750676981
141,0.039777,660.602,659.994,-0.168394,0.000398753,-0.0108287,-0.0287468,0.0390061,0.0390061,-0.0754797,9.62696e-12,-3.90832e-06,-4.6677e-07,0.0735864,0.039776826269453114,9.626965891129657e-12,-3.908312362521649e-06,0.039776826269453114,-4.66769891072083e-07,-0.07270144549640867
142,0.039991,661.266,660.662,-0.174219,0.000364004,-0.00981539,-0.029453,0.0392121,0.0392121,-0.0758891,-8.96649e-12,-3.91609e-06,-5.27084e-07,0.073994,0.039991042359164286,-8.966494213780152e-12,-3.916082332078297e-06,0.039991042359164286,-5.270838611126649e-07,-0.0730810038237314
143,0.040312,662.586,661.981,0.150115,0.000351798,0.0125439,0.0074353,0.039521,0.039521,-0.0765013,-5.14055e-13,-3.60882e-06,-3.30534e-08,0.074604,0.04031234521482019,-5.140332604014475e-13,-3.608813488265028e-06,0.04031234521482019,-3.30533994619131e-08,-0.07364828996918371
144,0.040794,663.52,662.898,-0.399163,0.000433229,-0.0176518,-0.0529653,0.0399843,0.0399843,-0.0774253,2.01309e-11,-4.08762e-06,-9.73226e-07,0.0755228,0.04079443359150736,2.013100797171319e-11,-4.087611645720024e-06,0.04079443359150736,-9.732255263905643e-07,-0.07450384362259332
145,0.040975,664.684,664.07,0.228005,0.000394993,0.0207283,0.016575,0.0401579,0.0401579,-0.0777669,-1.12199e-12,-3.5757e-06,-7.40055e-08,0.0758641,0.04097513118927654,-1.1219913886861832e-12,-3.5756936072051104e-06,0.04097513118927654,-7.400549728586725e-08,-0.07481993911742757
146,0.041246,665.545,664.934,0.281823,0.000364629,0.0219877,0.0223276,0.0404183,0.0404183,-0.0782843,-9.77217e-13,-3.51313e-06,5.64649e-08,0.0763794,0.04124623640980607,-9.772183062750628e-13,-3.5131238289576316e-06,0.04124623640980607,5.646490164323836e-08,-0.07529850346565525
147,0.041653,666.287,665.669,-0.179025,0.000385835,-0.00703494,-0.0290187,0.0408088,0.0408088,-0.0790634,-1.0907e-11,-3.91697e-06,-6.67581e-07,0.0771542,0.041652922465408526,-1.0907053038522463e-11,-3.916962328709417e-06,0.041652922465408526,-6.675807772138498e-07,-0.07601865782904527
148,0.041805,667.02,666.409,0.114955,0.000354959,0.0122764,0.00356946,0.0409552,0.0409552,-0.0793528,-3.85233e-12,-3.65956e-06,-2.53291e-07,0.077443,0.04180543161665495,-3.852362873146831e-12,-3.6595533038363826e-06,0.04180543161665495,-2.5329096786652627e-07,-0.07628601934039292
149,0.042034,667.344,666.737,-0.221663,0.000325484,-0.0129912,-0.0346246,0.0411748,0.0411748,-0.0797914,1.60483e-11,-4.00451e-06,-7.968e-07,0.077879,0.04203423721137267,1.6048273820956638e-11,-4.004501982013409e-06,0.04203423721137267,-7.967996825675172e-07,-0.07669107145788745
150,0.042377,668.237,667.627,-0.310138,0.000323192,-0.0162005,-0.0441325,0.0415041,0.0415041,-0.0804466,2.0686e-11,-4.10102e-06,-1.03356e-06,0.0785313,0.04237743559019824,2.0685897439420842e-11,-4.1010115908735045e-06,0.04237743559019824,-1.0335594659016678e-06,-0.0772958253288657
151,0.042892,670.554,669.924,0.558113,0.000422145,0.0323029,0.0524866,0.0419977,0.0419977,-0.0814235,6.17227e-12,-3.38012e-06,4.50747e-07,0.0795058,0.042892080096220475,6.172173883101095e-12,-3.3801142873546297e-06,0.042892080096220475,4.507471016435005e-07,-0.07819677489663501
152,0.043085,670.23,669.608,-0.300292,0.000383851,-0.0198679,-0.0434944,0.0421828,0.0421828,-0.0817965,-1.3511e-11,-4.06892e-06,-8.23353e-07,0.0798757,0.04308513728713814,-1.3510970120478305e-11,-4.068911721999413e-06,0.04308513728713814,-8.233526610501585e-07,-0.07854054338279026
153,0.043375,671.563,670.944,0.244882,0.000355272,0.0192435,0.0181106,0.0424603,0.0424603,-0.0823454,1.26186e-14,-3.53588e-06,8.90797e-10,0.0804234,0.04337463357848814,1.2656542480726785e-14,-3.5358737487944936e-06,0.04337463357848814,8.907969917260061e-10,-0.0790461936901049
154,0.043809,672.089,671.461,-0.409421,0.000384719,-0.0199456,-0.0547171,0.0428765,0.0428765,-0.0831769,-1.78361e-11,-4.11837e-06,-1.09184e-06,0.0812504,0.04380897648147175,-1.7836065957510527e-11,-4.1183615194784196e-06,0.04380897648147175,-1.0918394038883505e-06,-0.07981164849811273
155,0.043972,673.143,672.522,0.217547,0.000352661,0.020481,0.0154004,0.0430325,0.0430325,-0.0834837,-2.69011e-12,-3.5839e-06,-1.89929e-07,0.0815572,0.043971823383530895,-2.6900703886667543e-12,-3.5838935777965375e-06,0.043971823383530895,-1.8992898198622044e-07,-0.08009391898184715
156,0.044216,673.797,673.18,0.22771,0.000322969,0.019067,0.0163559,0.0432665,0.0432665,-0.0839491,-1.96216e-12,-3.56494e-06,-1.4004e-07,0.0820208,0.04421614137429275,-1.9622081737225017e-12,-3.564933645616719e-06,0.04421614137429275,-1.4003999015965718e-07,-0.08052194366288401
157,0.044583,674.432,673.812,-0.0973154,0.000324285,-0.00268036,-0.019937,0.0436173,0.0436173,-0.084649,-9.67887e-12,-3.85585e-06,-6.43944e-07,0.0827175,0.04458251665515389,-9.678924328682115e-12,-3.855842566236056e-06,0.04458251665515389,-6.439437926220037e-07,-0.08116526119928125
158,0.045132,675.344,674.702,-0.607343,0.000437258,-0.0272022,-0.074704,0.0441434,0.0441434,-0.0856987,-2.7179e-11,-4.32286e-06,-1.6327e-06,0.0837622,0.04513221610292706,-2.717903679894107e-11,-4.322850656435229e-06,0.04513221610292706,-1.6326986671533206e-06,-0.08212925598342147
159,0.045338,676.337,675.703,-0.127844,0.000395573,-0.00633879,-0.0234502,0.0443406,0.0443406,-0.0860884,-1.60524e-11,-4.07354e-06,-1.02795e-06,0.0841513,0.045338336498745635,-1.605238164614775e-11,-4.073531703174815e-06,0.045338336498745635,-1.0279494716547433e-06,-0.08248688052469688
160,0.045648,676.95,676.319,-0.286795,0.00036548,-0.0158975,-0.0416089,0.0446363,0.0446363,-0.0866778,2.73476e-11,-4.24044e-06,-1.35696e-06,0.0847383,0.04564748875075608,2.734767967638163e-11,-4.240431009328027e-06,0.04564748875075608,-1.3569590793238717e-06,-0.08302750342009768
161,0.046111,678.919,678.279,0.541981,0.000397008,0.0334058,0.0515849,0.0450798,0.0450798,-0.0875555,5.33623e-13,-3.50964e-06,4.03331e-08,0.0856144,0.04611133626259978,5.335731856348502e-13,-3.509633841214388e-06,0.04611133626259978,4.0333100859157867e-08,-0.08383197708543355
162,0.046285,678.536,677.904,-0.263157,0.000362317,-0.0174892,-0.0387309,0.045246,0.045246,-0.087891,-1.80208e-11,-4.17519e-06,-1.14928e-06,0.0859472,0.046285214415560993,-1.8020807068808153e-11,-4.175181283927465e-06,0.046285214415560993,-1.1492793395850853e-06,-0.08413929990083635
163,0.046546,679.08,678.452,-0.344835,0.000330565,-0.0207065,-0.0478348,0.0454953,0.0454953,-0.0883876,2.72944e-11,-4.26406e-06,-1.36428e-06,0.0864419,0.04654608583578623,2.7294388971199623e-11,-4.264050908919792e-06,0.04654608583578623,-1.3642790693824125e-06,-0.08459400341227918
164,0.046937,680.747,680.115,0.394738,0.000332264,0.0270145,0.0355454,0.0458691,0.0458691,-0.0891275,-2.46994e-12,-3.58684e-06,-1.85921e-07,0.0871807,0.04693735788686215,-2.4699131628835858e-12,-3.586833567270631e-06,0.04693735788686215,-1.8592098272041113e-07,-0.08527106180051558
165,0.047084,680.518,679.893,-0.177838,0.000306517,-0.0113593,-0.0290264,0.0460093,0.0460093,-0.0894098,-1.55564e-11,-4.08317e-06,-1.03186e-06,0.0874609,0.047084148794239944,-1.5556445021047693e-11,-4.083161663892554e-06,0.047084148794239944,-1.0318594676483883e-06,-0.0855292533343196
166,0.047304,681.029,680.409,-0.177771,0.000280186,-0.00984989,-0.0290718,0.0462195,0.0462195,-0.0898282,-1.62649e-11,-4.08412e-06,-1.08361e-06,0.0878779,0.047304269016141376,-1.6264878333061006e-11,-4.084111659974354e-06,0.047304269016141376,-1.0836094128663376e-06,-0.08591178786292064
167,0.047634,682.116,681.495,0.149577,0.000271482,0.0129418,0.00806772,0.0465347,0.0465347,-0.0904538,-8.06449e-12,-3.76819e-06,-5.86351e-07,0.088502,0.04763443135258605,-8.064438006272212e-12,-3.7681829003766154e-06,0.04763443135258605,-5.863508281134244e-07,-0.08648346260992779
168,0.04813,682.707,682.07,-0.392774,0.000335819,-0.0172375,-0.0513231,0.0470073,0.0470073,-0.0913979,-2.32167e-11,-4.23947e-06,-1.51591e-06,0.0894419,0.048129660398249285,-2.3216650824053886e-11,-4.239461013466617e-06,0.048129660398249285,-1.5159088510019458e-06,-0.08734550658099116
169,0.048315,683.734,683.104,0.225416,0.000306338,0.0209541,0.0169267,0.0471845,0.0471845,-0.0917471,-8.47052e-12,-3.7285e-06,-6.31257e-07,0.0897911,0.04831540543059565,-8.470557588680094e-12,-3.7284930491932045e-06,0.04831540543059565,-6.312568007205144e-07,-0.08766414989173299
170,0.048594,684.399,683.773,0.275941,0.000283067,0.0220543,0.0222871,0.0474502,0.0474502,-0.0922758,8.43205e-12,-3.66689e-06,-5.07211e-07,0.0903183,0.04859397984078995,8.432143872028064e-12,-3.6668832770203608e-06,0.04859397984078995,-5.072108714143653e-07,-0.0881463743684121
171,0.049012,684.876,684.242,-0.16545,0.000299966,-0.00603302,-0.0267001,0.0478486,0.0478486,-0.0930717,-1.72424e-11,-4.05262e-06,-1.19913e-06,0.0911108,0.049011822911171565,-1.7242429706243456e-11,-4.052611788152305e-06,0.049011822911171565,-1.1991292810931142e-06,-0.08887182993571385
172,0.049169,685.484,684.857,0.109212,0.000276059,0.0121654,0.00359624,0.047998,0.047998,-0.0933676,-1.09531e-11,-3.80874e-06,-8.13072e-07,0.0914062,0.04916855698525824,-1.0953127294044407e-11,-3.8087327467462018e-06,0.04916855698525824,-8.130716694365603e-07,-0.08914139287743184
173,0.049404,685.672,685.049,-0.205606,0.000253302,-0.0116426,-0.0320466,0.048222,0.048222,-0.0938155,-1.92164e-11,-4.1326e-06,-1.32093e-06,0.0918521,0.0494035970655291,-1.9216406244026984e-11,-4.132591460814794e-06,0.0494035970655291,-1.3209291275240176e-06,-0.08954927509552035
174,0.049756,686.332,685.706,-0.293274,0.000251671,-0.0150386,-0.0414776,0.0485579,0.0485579,-0.094485,-2.29194e-11,-4.22603e-06,-1.55155e-06,0.0925194,0.04975615094189201,-2.2919444120361732e-11,-4.226021070308228e-06,0.04975615094189201,-1.5515487963302377e-06,-0.09015861785559454
175,0.050285,688.284,687.639,0.553315,0.000328775,0.0326927,0.0525048,0.0490616,0.0490616,-0.0954832,-1.30469e-12,-3.50569e-06,-1.07588e-07,0.0935162,0.05028504630623676,-1.304734098539484e-12,-3.505683855098418e-06,0.05028504630623676,-1.0758799418031373e-07,-0.0910663683895857
176,0.050483,687.842,687.205,-0.294155,0.000299122,-0.019252,-0.0420157,0.0492504,0.0492504,-0.0958642,-1.96909e-11,-4.19144e-06,-1.36346e-06,0.0938944,0.05048335884309374,-1.9690915564751776e-11,-4.191431215883057e-06,0.05048335884309374,-1.3634590705358107e-06,-0.09141260614074931
177,0.050781,688.978,688.343,0.242087,0.000276884,0.0194542,0.0184338,0.0495335,0.0495335,-0.0964251,9.01584e-12,-3.66096e-06,-5.53018e-07,0.0944547,0.050780792781769835,9.015899138375971e-12,-3.660953298734171e-06,0.050780792781769835,-5.53017847071402e-07,-0.091922089911884
178,0.051227,690.154,689.512,0.52477,0.000299157,0.0329002,0.0489961,0.0499581,0.0499581,-0.0972692,3.50869e-13,-3.38365e-06,3.05336e-08,0.0952969,0.051227049039884065,3.5083047578154947e-13,-3.38364427543425e-06,0.051227049039884065,3.053360053684173e-08,-0.09268827506185429
179,0.051896,690.27,689.592,-0.688598,0.000465312,-0.0271763,-0.0795126,0.0505946,0.0505946,-0.0985442,-2.85162e-11,-4.33404e-06,-1.96254e-06,0.0965659,0.05189636804477438,-2.8516189409799608e-11,-4.334030608066364e-06,0.05189636804477438,-1.962538074273823e-06,-0.09384436035016575
180,0.052146,691.181,690.514,-0.249378,0.000414943,-0.0144309,-0.0367229,0.0508323,0.0508323,-0.0990151,-2.10074e-11,-4.20543e-06,-1.49706e-06,0.0970364,0.05214643353056414,-2.1007418027352287e-11,-4.205421157199574e-06,0.05214643353056414,-1.4970588794183115e-06,-0.09427096858808393
181,0.052521,691.944,691.281,-0.194156,0.000382011,-0.00915803,-0.0307991,0.0511886,0.0511886,-0.0997248,-2.08496e-11,-4.17449e-06,-1.50748e-06,0.0977442,0.05252138009759544,-2.0849655335553052e-11,-4.174481286867149e-06,0.05252138009759544,-1.507478863738143e-06,-0.09491353643950451
182,0.053084,693.501,692.824,0.313562,0.000429223,0.0198905,0.0262353,0.0517229,0.0517229,-0.100786,-7.77144e-12,-3.74138e-06,-6.33572e-07,0.0988039,0.05308389253279655,-7.771450150073633e-12,-3.7413730010760204e-06,0.05308389253279655,-6.335717992467238e-07,-0.09587350474536316
183,0.053928,693.983,693.253,-0.757823,0.000713671,-0.0248946,-0.081916,0.0525238,0.0525238,-0.102389,4.65003e-11,-4.55962e-06,-2.44188e-06,0.1004,0.05392764525800353,4.650035911879513e-11,-4.559609604992687e-06,0.05392764525800353,-2.4418770185885563e-06,-0.09732165851191343
184,0.054178,694.935,694.222,-0.236363,0.000627759,-0.0132955,-0.0348011,0.052761,0.052761,-0.102858,3.54833e-11,-4.44262e-06,-1.91748e-06,0.100869,0.05417766654681122,3.548339400083478e-11,-4.4426101315497846e-06,0.05417766654681122,-1.91747816158383e-06,-0.09774491539257446
185,0.054553,695.54,694.84,-0.278211,0.000549431,-0.0144095,-0.0400406,0.0531167,0.0531167,-0.103567,-3.01627e-11,-4.50732e-06,-2.09703e-06,0.101576,0.05455270423930125,-3.0162650155318715e-11,-4.507309842027851e-06,0.05455270423930125,-2.097027801184481e-06,-0.09838438752790168
186,0.055115,697.305,696.6,0.525273,0.000539531,0.0310442,0.0496185,0.0536499,0.0536499,-0.104626,-8.53983e-12,-3.81485e-06,-7.08623e-07,0.102634,0.05511514167369658,-8.539835505416704e-12,-3.814842723492973e-06,0.05511514167369658,-7.08622748923915e-07,-0.09933869306754006
187,0.055326,696.844,696.153,-0.287237,0.000482554,-0.0181593,-0.0406098,0.0538498,0.0538498,-0.105029,-2.68901e-11,-4.46656e-06,-1.913e-06,0.103034,0.05532608027312769,-2.689004574563114e-11,-4.466550024950777e-06,0.05532608027312769,-1.9129981702059595e-06,-0.09970158644630656
188,0.055643,697.917,697.236,0.266282,0.000426414,0.0211781,0.0216858,0.0541496,0.0541496,-0.105623,-1.3101e-11,-3.92058e-06,-1.06779e-06,0.103628,0.05564251446310853,-1.3100964757484235e-11,-3.92057231457521e-06,0.05564251446310853,-1.0677894298760648e-06,-0.10023620490655538
189,0.056117,697.963,697.28,-0.469616,0.000408712,-0.022488,-0.0595978,0.0545991,0.0545991,-0.106523,-3.26811e-11,-4.57021e-06,-2.30434e-06,0.104525,0.056117132435757666,-3.268108006437842e-11,-4.570199556575005e-06,0.056117132435757666,-2.304337345049312e-06,-0.10104562802709915
190,0.056295,698.972,698.3,0.259461,0.000371162,0.0244013,0.0214396,0.0547676,0.0547676,-0.106855,-1.52889e-11,-3.94549e-06,-1.25259e-06,0.104857,0.05629510316618602,-1.528888127211303e-11,-3.945482216605178e-06,0.05629510316618602,-1.2525892154613416e-06,-0.1013440313409032
191,0.056562,699.426,698.762,0.289757,0.000331801,0.0239405,0.0245628,0.0550203,0.0550203,-0.107359,1.85422e-11,-3.90135e-06,-1.15681e-06,0.10536,0.05656206266766861,1.854227882347459e-11,-3.901342389700524e-06,0.05656206266766861,-1.156809330882247e-06,-0.10179683983178256
192,0.056963,699.619,698.956,-0.151239,0.000312611,-0.00521888,-0.0244691,0.0553992,0.0553992,-0.108117,-2.42019e-11,-4.29275e-06,-1.84376e-06,0.106115,0.05696246988557041,-2.420186273610625e-11,-4.292740786171478e-06,0.05696246988557041,-1.8437583002572921e-06,-0.10247741985477499
193,0.057113,700.099,699.443,0.0978063,0.000287665,0.0117323,0.00298284,0.0555413,0.0555413,-0.108398,-1.85239e-11,-4.06536e-06,-1.49399e-06,0.106397,0.057112674924356455,-1.8523849121265812e-11,-4.065351736470824e-06,0.057112674924356455,-1.4939888840492799e-06,-0.10272958826847445
194,0.057338,700.173,699.525,-0.174774,0.000260143,-0.00938089,-0.0278007,0.0557544,0.0557544,-0.108825,-2.55146e-11,-4.34954e-06,-1.93085e-06,0.106822,0.057337969639682074,-2.5514590440423035e-11,-4.349530540737057e-06,0.057337969639682074,-1.9308481359336938e-06,-0.1031126409467168
195,0.057676,701.252,700.605,0.388198,0.000242321,0.0289682,0.0359481,0.0560739,0.0560739,-0.109458,-1.17238e-11,-3.79145e-06,-1.02371e-06,0.107455,0.05767584309339213,-1.172384411773919e-11,-3.7914428124841137e-06,0.05767584309339213,-1.0237094759668608e-06,-0.10368019099645587
196,0.058183,702.157,701.498,0.522701,0.00027294,0.0318032,0.0487849,0.0565529,0.0565529,-0.110413,-6.98671e-12,-3.63924e-06,-6.41092e-07,0.108408,0.05818259117871105,-6.986744516268573e-12,-3.639233377983331e-06,0.05818259117871105,-6.410917945398609e-07,-0.10453576781109963
197,0.058943,702.399,701.695,-0.37839,0.000450648,-0.011354,-0.0444573,0.0572711,0.0572711,-0.11185,-2.56895e-11,-4.3008e-06,-2.02038e-06,0.10984,0.058942850892279575,-2.5689450566801497e-11,-4.300790751532446e-06,0.058942850892279575,-2.020377959044417e-06,-0.10582162580251686
198,0.059193,703.474,702.783,0.344738,0.000399555,0.0290194,0.0315103,0.0575072,0.0575072,-0.112317,-1.0972e-11,-3.73528e-06,-9.97682e-07,0.110307,0.05919289681613504,-1.0972001085463035e-11,-3.7352730238859877e-06,0.05919289681613504,-9.976815023016172e-07,-0.10623910961320993
199,0.059568,703.317,702.633,-0.344246,0.000358447,-0.0178372,-0.0464499,0.0578612,0.0578612,-0.113027,-2.71228e-11,-4.38521e-06,-2.1139e-06,0.111014,0.0595679174763486,-2.7122748491592574e-11,-4.385200384926513e-06,0.0595679174763486,-2.113897765720907e-06,-0.10687345462625708
200,0.06013,703.889,703.194,-0.563814,0.000374598,-0.0254023,-0.0685699,0.0583919,0.0583919,-0.114086,4.83163e-11,-4.61355e-06,-2.67847e-06,0.112071,0.06013037940622512,4.831623989787204e-11,-4.613539357545271e-06,0.06013037940622512,-2.6784664128864932e-06,-0.10781877500232229
201,0.060552,704.575,703.886,-0.451652,0.000343296,-0.0230072,-0.057613,0.0587898,0.0587898,-0.114879,-3.66373e-11,-4.66854e-06,-2.72581e-06,0.112863,0.06055228921758138,-3.6637248790327703e-11,-4.6685291024139985e-06,0.06055228921758138,-2.7258062850199494e-06,-0.1085259942642468
202,0.060974,705.94,705.254,0.348844,0.000317565,0.0247299,0.0314365,0.0591875,0.0591875,-0.115668,2.31257e-11,-3.98989e-06,-1.48632e-06,0.113652,0.06097415474540302,2.3125723558337086e-11,-3.989882040422721e-06,0.06097415474540302,-1.48631889540507e-06,-0.10922908984709068
203,0.061132,705.623,704.947,-0.174968,0.00029112,-0.0105998,-0.027363,0.0593366,0.0593366,-0.115968,-2.87048e-11,-4.44909e-06,-2.26207e-06,0.11395,0.061132357785619096,-2.8704816301683422e-11,-4.449080102775227e-06,0.061132357785619096,-2.262067441471949e-06,-0.10949628103945375
204,0.06137,705.93,705.263,-0.176475,0.000261567,-0.00920253,-0.0275588,0.0595602,0.0595602,-0.116414,-2.92765e-11,-4.4501e-06,-2.31542e-06,0.114396,0.061369653509493194,-2.9276470137062915e-11,-4.45009009830688e-06,0.061369653509493194,-2.315417319431745e-06,-0.10989335714355686
205,0.061726,706.731,706.067,0.162819,0.00024127,0.0143437,0.0108314,0.0598955,0.0598955,-0.117081,-2.08676e-11,-4.11615e-06,-1.79443e-06,0.115062,0.06172559042380388,-2.086764094855198e-11,-4.116141528620609e-06,0.06172559042380388,-1.7944283899895552e-06,-0.11048686031902943
206,0.06226,706.852,706.176,-0.407391,0.000268129,-0.0173327,-0.0510815,0.0603983,0.0603983,-0.118087,-3.57882e-11,-4.60394e-06,-2.77488e-06,0.116065,0.06225956027944135,-3.5788150221094384e-11,-4.603929401936213e-06,0.06225956027944135,-2.7748761499690744e-06,-0.11138126057878739
207,0.06246,707.75,707.083,0.244673,0.000242772,0.0229789,0.0203655,0.0605867,0.0605867,-0.11846,2.8664e-11,-4.05945e-06,-1.84027e-06,0.116438,0.06245970883399998,2.8663960094377217e-11,-4.0594417604067345e-06,0.06245970883399998,-1.8402683067408887e-06,-0.1117126535599583
208,0.06276,708.188,707.527,0.310447,0.000220316,0.024877,0.027333,0.0608694,0.0608694,-0.119023,-1.86093e-11,-3.97787e-06,-1.68315e-06,0.117,0.06276010865320103,-1.860933629416195e-11,-3.977862088277995e-06,0.06276010865320103,-1.683148583508931e-06,-0.11221261858264409
209,0.063211,708.238,707.571,-0.198352,0.000223729,-0.00732078,-0.0288116,0.0612932,0.0612932,-0.119872,-3.02962e-11,-4.41841e-06,-2.48442e-06,0.117846,0.06321060184001204,-3.029620998518112e-11,-4.418400238792586e-06,0.06321060184001204,-2.484416913861587e-06,-0.1129660302009805
210,0.06338,708.769,708.11,0.132472,0.00020492,0.0145758,0.00750508,0.0614521,0.0614521,-0.120187,-2.28747e-11,-4.12284e-06,-2.01556e-06,0.118162,0.06337955942796913,-2.2874702132469338e-11,-4.1228315010855e-06,0.06337955942796913,-2.015557968748638e-06,-0.11324540189811483
211,0.063633,708.683,708.03,-0.256764,0.000186285,-0.0147957,-0.0364669,0.0616904,0.0616903,-0.120664,4.53935e-11,-4.52472e-06,-2.64265e-06,0.118638,0.06363299297238845,4.539346676324385e-11,-4.524709763420454e-06,0.0636328866090945,-2.642646508177471e-06,-0.11366828297625409
212,0.064013,709.007,708.353,-0.385854,0.000181063,-0.0202184,-0.0503022,0.0620477,0.0620477,-0.121378,-3.764e-11,-4.65897e-06,-2.9638e-06,0.11935,0.06401309694230783,-3.7640002226169145e-11,-4.658959147030295e-06,0.06401309694230783,-2.96379560793536e-06,-0.11430089795178744
213,0.064583,709.49,708.816,-0.57875,0.000228326,-0.0259841,-0.069377,0.0625834,0.0625834,-0.122448,6.37351e-11,-4.8652e-06,-3.49866e-06,0.120418,0.06458324145791372,6.373501726386621e-11,-4.8651881648931194e-06,0.06458324145791372,-3.498653879718816e-06,-0.1152480891533163
214,0.064797,710.581,709.916,0.272882,0.000206473,0.0250321,0.0240006,0.0627842,0.0627842,-0.122844,-2.56482e-11,-4.17954e-06,-2.27826e-06,0.120814,0.06479703123657377,-2.564815027028544e-11,-4.179531265746661e-06,0.06479703123657377,-2.2782574047308657e-06,-0.11559838154753987
215,0.065118,710.43,709.769,-0.241714,0.000189919,-0.0121743,-0.0342048,0.0630854,0.0630854,-0.123448,-3.88775e-11,-4.68292e-06,-3.09718e-06,0.121416,0.06511779640719184,-3.8877456809416344e-11,-4.6829090351030445e-06,0.06511779640719184,-3.0971752037478595e-06,-0.11613239883562931
216,0.065599,710.759,710.09,-0.454589,0.000202391,-0.0216033,-0.0567213,0.0635369,0.0635369,-0.12435,-4.67062e-11,-4.89335e-06,-3.5867e-06,0.122317,0.0655988056719401,-4.6706194467560636e-11,-4.893338027556204e-06,0.0655988056719401,-3.5866935678141587e-06,-0.11692928796085478
217,0.065779,711.596,710.935,0.188818,0.000184756,0.0192315,0.014513,0.0637062,0.0637062,-0.124684,4.33751e-11,-4.35066e-06,-2.66591e-06,0.122652,0.06577922682195969,4.3375081304475316e-11,-4.3506505359447445e-06,0.06577922682195969,-2.6659064464862325e-06,-0.117224184328241
218,0.06605,711.941,711.286,0.24092,0.00016833,0.0210337,0.0201674,0.0639601,0.0639601,-0.12519,-2.88633e-11,-4.28394e-06,-2.54883e-06,0.123157,0.06604986252339828,-2.8863245127297432e-11,-4.283930823967275e-06,0.06604986252339828,-2.548826751769262e-06,-0.11767075589883536
219,0.066456,712.004,711.345,-0.13704,0.000167913,-0.00405961,-0.0217086,0.0643408,0.0643408,-0.125952,-3.81171e-11,-4.61886e-06,-3.14079e-06,0.123917,0.06645578496849569,-3.8117065059850574e-11,-4.618849333115627e-06,0.06645578496849569,-3.1407850676901106e-06,-0.11834283468830176
220,0.067065,712.153,711.471,-0.643955,0.000224587,-0.0281788,-0.0753212,0.0649116,0.0649116,-0.127094,-5.49829e-11,-5.0768e-06,-4.15893e-06,0.125057,0.06706469169600338,-5.498290711614118e-11,-5.076787113034165e-06,0.06706469169600338,-4.158921351637979e-06,-0.11934911247710778
221,0.067521,713.784,713.101,0.516712,0.000218826,0.0340391,0.0502154,0.0653394,0.0653394,-0.127941,-2.57133e-11,-4.17429e-06,-2.38119e-06,0.125905,0.06752127962830623,-2.5713320361830938e-11,-4.174281287627757e-06,0.06752127962830623,-2.3811871650014638e-06,-0.12009470797457167
222,0.067978,714.206,713.522,0.474095,0.000214299,0.0314383,0.0453569,0.0657671,0.0657671,-0.128795,-2.38981e-11,-4.0998e-06,-2.26824e-06,0.126757,0.06797795613291213,-2.3898105716568807e-11,-4.099791595879587e-06,0.06797795613291213,-2.2682374275495576e-06,-0.12084582632077734
223,0.068663,714.339,713.629,-0.0873291,0.000283206,0.00132207,-0.0136001,0.0664083,0.0664083,-0.130078,-3.49429e-11,-4.49587e-06,-3.05427e-06,0.128037,0.06866296318817722,-3.494293743244725e-11,-4.495859893594023e-06,0.06866296318817722,-3.0542653357557015e-06,-0.12197305785195367
224,0.068913,714.832,714.134,0.1689,0.000252174,0.0166412,0.0126149,0.0666422,0.0666422,-0.130544,-2.91963e-11,-4.27022e-06,-2.69639e-06,0.128503,0.06891295269039932,-2.919631203468498e-11,-4.270210882673098e-06,0.06891295269039932,-2.6963863647422315e-06,-0.12238212308739216
225,0.069288,714.739,714.048,-0.282186,0.000228163,-0.0137492,-0.0381993,0.066993,0.066993,-0.131246,-4.08564e-11,-4.69865e-06,-3.44752e-06,0.129204,0.0692879931324506,-4.0856429350810686e-11,-4.698638961353474e-06,0.0692879931324506,-3.447514057342005e-06,-0.12299799464077754
226,0.06985,716.122,715.422,0.566959,0.000241519,0.0337435,0.054257,0.0675189,0.0675189,-0.132291,-2.00151e-11,-3.95968e-06,-2.01997e-06,0.130249,0.06985047958088675,-2.0015100687942322e-11,-3.959672160491756e-06,0.06985047958088675,-2.019967959898672e-06,-0.12391398304907775
227,0.070413,715.528,714.821,-0.552049,0.000251182,-0.024988,-0.0662392,0.0680445,0.0680445,-0.133347,-4.58057e-11,-4.82549e-06,-3.82339e-06,0.131301,0.07041294079481286,-4.580569257228717e-11,-4.8254783573398186e-06,0.07041294079481286,-3.823382690892885e-06,-0.12483864157734836
228,0.070975,717.18,716.468,0.59224,0.000255081,0.0351443,0.0570306,0.0685699,0.0685699,-0.134389,-1.92628e-11,-3.91999e-06,-1.99468e-06,0.132344,0.07097548352093996,-1.9262813566456316e-11,-3.919982316857862e-06,0.07097548352093996,-1.994678010652784e-06,-0.1257500847684545
229,0.071397,716.535,715.83,-0.424908,0.000232929,-0.0216181,-0.0538239,0.0689637,0.0689637,-0.135181,-4.12367e-11,-4.71492e-06,-3.5709e-06,0.133133,0.07139731671985605,-4.12366807367448e-11,-4.7149088847620035e-06,0.07139731671985605,-3.5708936243494804e-06,-0.126442216580941
230,0.071819,716.958,716.259,-0.365764,0.000214305,-0.018075,-0.0472016,0.0693574,0.0693574,-0.135967,-4.19363e-11,-4.7343e-06,-3.63751e-06,0.133918,0.07181920888747229,-4.1936343286863575e-11,-4.7342887932178e-06,0.07181920888747229,-3.6375033842794835e-06,-0.12712856322914057
231,0.072452,718.428,717.714,0.559597,0.000244072,0.0324453,0.0540284,0.0699476,0.0699476,-0.13714,-1.96823e-11,-3.94808e-06,-2.06478e-06,0.135091,0.07245198329791802,-1.96822558251597e-11,-3.9480722063833795e-06,0.07245198329791802,-2.0647778683491325e-06,-0.12815184115463962
232,0.072689,717.729,717.027,-0.333711,0.000218292,-0.0209618,-0.044391,0.0701689,0.0701689,-0.137587,-3.80869e-11,-4.66413e-06,-3.39303e-06,0.135536,0.07268934318472464,-3.808686699358077e-11,-4.664119122921306e-06,0.07268934318472464,-3.39302424368082e-06,-0.12854147019306572
233,0.073045,718.72,718.027,0.368652,0.000195904,0.0278177,0.0343542,0.0705007,0.0705007,-0.138245,-2.18434e-11,-3.97125e-06,-2.29636e-06,0.136195,0.07304532056217439,-2.184341596489503e-11,-3.971242114597651e-06,0.07304532056217439,-2.2963573633738577e-06,-0.1291147012919649
234,0.073579,718.234,717.534,-0.556504,0.000201914,-0.0261575,-0.067025,0.0709981,0.0709981,-0.139244,-4.37098e-11,-4.77335e-06,-3.8504e-06,0.137191,0.07357918606596603,-4.37098135463998e-11,-4.773338607599875e-06,0.07357918606596603,-3.850392587212426e-06,-0.1299842812778511
235,0.074113,719.779,719.075,0.563897,0.000203968,0.0345731,0.0544166,0.0714953,0.0714953,-0.14023,-1.89259e-11,-3.86759e-06,-2.07214e-06,0.138178,0.07411310235786917,-1.892586087848258e-11,-3.867582520911128e-06,0.07411310235786917,-2.0721378530819123e-06,-0.1308416940025734
236,0.074647,720.192,719.485,0.559321,0.000205116,0.0341972,0.0537431,0.0719923,0.0719923,-0.141223,-1.61536e-11,-3.73706e-06,-1.84325e-06,0.139169,0.07464706924952247,-1.6153633985993565e-11,-3.737053017149883e-06,0.07464706924952247,-1.8432483012142953e-06,-0.13170433982589325
237,0.075181,719.775,719.064,-0.26823,0.000205312,-0.00993961,-0.0347234,0.072489,0.072489,-0.142219,-3.13606e-11,-4.34596e-06,-3.09868e-06,0.140163,0.07518097903433696,-3.136058079888926e-11,-4.345950556317035e-06,0.07518097903433696,-3.098675199098011e-06,-0.13256873176478357
238,0.075715,719.936,719.224,-0.50637,0.000203962,-0.023614,-0.0616612,0.0729855,0.0729855,-0.143212,-3.94424e-11,-4.62558e-06,-3.68704e-06,0.141155,0.0757149389350038,-3.9442449306648086e-11,-4.625569302030286e-06,0.0757149389350038,-3.6870332028593467e-06,-0.13342966349079577
239,0.076249,720.32,719.606,-0.513596,0.000201729,-0.0239645,-0.0622838,0.0734817,0.0734817,-0.144203,-4.29178e-11,-4.73737e-06,-3.9442e-06,0.142145,0.07624884113788544,-4.2917780440632214e-11,-4.737358778705847e-06,0.07624884113788544,-3.944192221605469e-06,-0.13428800931367413
240,0.076783,720.666,719.951,-0.549286,0.000199034,-0.0258068,-0.0659095,0.0739777,0.0739777,-0.145194,-4.73228e-11,-4.87552e-06,-4.25465e-06,0.143134,0.07678279297219803,-4.732281233543745e-11,-4.875508114676741e-06,0.07678279297219803,-4.254640948997412e-06,-0.13514550493718525
241,0.076983,721.567,720.864,0.217453,0.000179693,0.0213085,0.0182896,0.0741637,0.0741637,-0.145561,-3.0508e-11,-4.24528e-06,-3.15803e-06,0.143502,0.07698309319903451,-3.05080405382796e-11,-4.245270988856298e-06,0.07698309319903451,-3.1580250133833587e-06,-0.13546284830080424
242,0.077283,721.885,721.192,0.331431,0.000160455,0.0269526,0.0307889,0.0744425,0.0744425,-0.146117,-2.72657e-11,-4.11156e-06,-2.92527e-06,0.144058,0.07728339794595485,-2.7265745217164294e-11,-4.111551547558712e-06,0.07728339794595485,-2.9252657214318134e-06,-0.13594339735213312
243,0.077734,721.602,720.909,-0.262202,0.000154044,-0.0110428,-0.0347593,0.0748606,0.0748606,-0.146955,-4.04796e-11,-4.6365e-06,-3.87319e-06,0.144895,0.07773390430642801,-4.047961965625291e-11,-4.636489251419462e-06,0.07773390430642801,-3.873182499170014e-06,-0.13666717348059854
244,0.077903,722.131,721.448,0.157435,0.000140987,0.0170294,0.0114288,0.0750173,0.0750173,-0.147266,-3.13399e-11,-4.25819e-06,-3.27197e-06,0.145206,0.07790279844174264,-3.133993065063123e-11,-4.258180933969236e-06,0.07790279844174264,-3.271964647111325e-06,-0.13693562824276684
245,0.078156,721.823,721.147,-0.318024,0.000127334,-0.0192661,-0.0421963,0.0752524,0.0752524,-0.147738,-4.30412e-11,-4.75738e-06,-4.0349e-06,0.145677,0.07815624318091818,-4.304123724097053e-11,-4.757368683661056e-06,0.07815624318091818,-4.034891859849843e-06,-0.13734289850289372
246,0.078536,721.952,721.278,-0.441142,0.000119938,-0.0238624,-0.0552876,0.0756049,0.0756049,-0.148443,-4.75829e-11,-4.88862e-06,-4.3615e-06,0.146381,0.07853636024833643,-4.758293759010712e-11,-4.8886080507015706e-06,0.07853636024833643,-4.361490488657971e-06,-0.1379508574287469
247,0.079107,722.217,721.529,-0.554898,0.000140422,-0.0251417,-0.065788,0.0761334,0.0761334,-0.149499,-5.31682e-11,-5.02443e-06,-4.77527e-06,0.147436,0.07910651736547503,-5.316824758239136e-11,-5.024417377597068e-06,0.07910651736547503,-4.775258598432863e-06,-0.13886070084143032
248,0.07932,723.15,722.47,0.245999,0.000126855,0.0234311,0.0219458,0.0763315,0.0763315,-0.14989,5.34811e-11,-4.36948e-06,-3.62478e-06,0.147828,0.079320309541981,5.3480997408428266e-11,-4.369470453791102e-06,0.079320309541981,-3.6247734305216994e-06,-0.13919734049006127
249,0.079641,723.496,722.822,0.391139,0.00011566,0.0306386,0.0377787,0.0766286,0.0766286,-0.150483,-3.07848e-11,-4.20269e-06,-3.32719e-06,0.14842,0.07964102324560751,-3.078481913831865e-11,-4.202681168741229e-06,0.07964102324560751,-3.3271844649407356e-06,-0.13970764514686584
250,0.080122,723.066,722.385,-0.343899,0.000120414,-0.0151328,-0.0430986,0.0770741,0.0770741,-0.151377,-4.78174e-11,-4.84516e-06,-4.50921e-06,0.149312,0.08012211047568707,-4.7817416692907955e-11,-4.845148262266896e-06,0.08012211047568707,-4.509199833524491e-06,-0.14047640282622031
251,0.080303,723.727,723.055,0.211134,0.000109966,0.0213543,0.0179124,0.0772412,0.0772412,-0.151707,-3.52549e-11,-4.35223e-06,-3.70916e-06,0.149643,0.08030261396099392,-3.525491010236692e-11,-4.352220529080242e-06,0.08030261396099392,-3.70915312108977e-06,-0.14075999881737555
252,0.080573,723.886,723.219,0.206977,0.000100002,0.0189831,0.0172041,0.0774916,0.0774916,-0.152208,-3.47944e-11,-4.34297e-06,-3.68055e-06,0.150143,0.08057315560592992,-3.4794389591752406e-11,-4.342960569281296e-06,0.08057315560592992,-3.680543226747268e-06,-0.1411903702409244
253,0.080979,723.868,723.2,-0.0568171,9.84289e-05,0.000915127,-0.0119003,0.0778672,0.0778672,-0.152959,-4.04431e-11,-4.57197e-06,-4.08373e-06,0.150894,0.08097909511384294,-4.044309331874274e-11,-4.571959548616e-06,0.08097909511384294,-4.08372166160742e-06,-0.14183509414874407
254,0.081588,724.905,724.215,0.610189,0.000127106,0.0353642,0.0590722,0.0784303,0.0784303,-0.15408,-2.46996e-11,-3.97592e-06,-2.88885e-06,0.152015,0.08158796585376993,-2.4699575718045708e-11,-3.9759120959992345e-06,0.08158796585376993,-2.888845827331288e-06,-0.14279655800702618
255,0.081816,724.121,723.441,-0.302526,0.000115112,-0.0189279,-0.0401998,0.0786414,0.0786414,-0.154507,-4.25449e-11,-4.69976e-06,-4.22119e-06,0.15244,0.08181631317457327,-4.2544856526660624e-11,-4.699748956116245e-06,0.08181631317457327,-4.221181090779957e-06,-0.1431625057413557
256,0.082159,724.935,724.259,0.317104,0.000105521,0.0250899,0.0293131,0.0789579,0.0789579,-0.155136,4.43864e-11,-4.07518e-06,-3.25766e-06,0.15307,0.08215876222739693,4.4386494479908833e-11,-4.075171696427127e-06,0.08215876222739693,-3.2576546937779227e-06,-0.1437012870607557
257,0.082673,724.341,723.656,-0.572497,0.000114059,-0.0278255,-0.0683347,0.0794325,0.0794325,-0.156089,-4.92029e-11,-4.86402e-06,-4.76493e-06,0.15402,0.08267247667074495,-4.920286400533769e-11,-4.864008170679668e-06,0.08267247667074495,-4.7649186477594085e-06,-0.14451695100858286
258,0.082865,724.91,724.233,-0.106669,0.000103792,-0.00432982,-0.0180031,0.0796105,0.0796105,-0.156442,-4.02037e-11,-4.57191e-06,-4.15152e-06,0.154374,0.08286520952430743,-4.0203729234633556e-11,-4.5718995488330805e-06,0.08286520952430743,-4.151511382444184e-06,-0.14481888323070435
259,0.083154,724.919,724.248,-0.254169,9.44792e-05,-0.014088,-0.0348045,0.0798773,0.0798773,-0.156976,-4.43345e-11,-4.72817e-06,-4.44179e-06,0.154907,0.08315415650602187,-4.4334536042356376e-11,-4.728158822242534e-06,0.08315415650602187,-4.441780135255868e-06,-0.1452754280387466
260,0.083588,725.834,725.16,0.423731,9.40973e-05,0.0300954,0.0415172,0.0802774,0.0802774,-0.157771,-2.8432e-11,-4.06813e-06,-3.32743e-06,0.155703,0.0835876131912674,-2.843203450453302e-11,-4.068121725153695e-06,0.0835876131912674,-3.327424464072415e-06,-0.14595466404137014
261,0.08375,725.314,724.647,-0.180446,8.69256e-05,-0.0108017,-0.0262185,0.0804274,0.0804274,-0.158075,-4.07267e-11,-4.60179e-06,-4.22157e-06,0.156005,0.08375016352421638,-4.072675530153447e-11,-4.6017794117503286e-06,0.08375016352421638,-4.221561089146064e-06,-0.14621425436377344
262,0.083994,725.428,724.767,-0.19357,7.92973e-05,-0.0102644,-0.0277453,0.0806524,0.0806524,-0.158524,-4.14097e-11,-4.61462e-06,-4.29255e-06,0.156454,0.08399403474549283,-4.14096534839814e-11,-4.6146093526378e-06,0.08399403474549283,-4.292540787043109e-06,-0.14659751811441324
263,0.08436,725.998,725.336,0.183429,7.63615e-05,0.0162062,0.0147916,0.0809897,0.0809897,-0.159196,-3.26688e-11,-4.23351e-06,-3.70689e-06,0.157126,0.08435972760404598,-3.266875658880508e-11,-4.233501038730658e-06,0.08435972760404598,-3.7068831294506666e-06,-0.14717081193394277
264,0.084908,725.645,724.967,-0.462198,9.4024e-05,-0.0203515,-0.0552365,0.0814955,0.0814955,-0.16021,7.47775e-11,-4.79069e-06,-4.82464e-06,0.158138,0.08490833548550536,7.477751751139294e-11,-4.790678524657643e-06,0.08490833548550536,-4.824628361488337e-06,-0.14803514244101623
265,0.085114,726.479,725.809,0.271579,8.53981e-05,0.0256492,0.0250221,0.0816851,0.0816851,-0.160585,-3.23503e-11,-4.16506e-06,-3.76345e-06,0.158514,0.08511405360737512,-3.2350344625342586e-11,-4.165051326165958e-06,0.08511405360737512,-3.7634429181920837e-06,-0.14835456936630909
266,0.085423,726.702,726.036,0.341139,7.86955e-05,0.0276209,0.03238,0.0819694,0.0819694,-0.161152,-3.00919e-11,-4.07481e-06,-3.59084e-06,0.159082,0.0854225953899519,-3.009192894865009e-11,-4.074801697950825e-06,0.0854225953899519,-3.5908335529466484e-06,-0.14883731545402934
267,0.085886,726.376,725.703,-0.219052,8.3338e-05,-0.00836221,-0.0293626,0.0823958,0.0823958,-0.162007,-4.18198e-11,-4.5658e-06,-4.47716e-06,0.159935,0.08588551827277069,-4.1819769869277934e-11,-4.565789576749246e-06,0.08588551827277069,-4.477149977533124e-06,-0.149564748527363
268,0.086059,726.82,726.154,0.1433,7.64641e-05,0.0159085,0.0103534,0.0825557,0.0825557,-0.162325,-3.42261e-11,-4.23567e-06,-3.95748e-06,0.160253,0.08605916524984836,-3.422606642544679e-11,-4.235661029583504e-06,0.08605916524984836,-3.9574721691915116e-06,-0.14983514394218178
269,0.086319,726.523,725.862,-0.278137,7.02052e-05,-0.0162258,-0.0371671,0.0827954,0.0827954,-0.162806,-4.41537e-11,-4.67779e-06,-4.63647e-06,0.160733,0.08631952483460847,-4.415368071164494e-11,-4.677779059103493e-06,0.08631952483460847,-4.636459251639025e-06,-0.15024397490621644
270,0.08671,726.583,725.92,-0.406615,6.9639e-05,-0.0215375,-0.0508966,0.0831548,0.0831548,-0.163525,-4.83971e-11,-4.81195e-06,-4.96206e-06,0.161451,0.08671001823929547,-4.839706413406475e-11,-4.811938422610851e-06,0.08671001823929547,-4.962047688961135e-06,-0.15085472989552884
271,0.087296,726.701,726.018,-0.575036,9.1041e-05,-0.0260231,-0.0672915,0.0836938,0.0836938,-0.164603,-5.49541e-11,-4.99267e-06,-5.46598e-06,0.162528,0.08729591282353244,-5.4954152339803386e-11,-4.992657536617706e-06,0.08729591282353244,-5.46596506156849e-06,-0.15176961528487876
272,0.087516,727.639,726.964,0.265729,8.23283e-05,0.0249697,0.0246795,0.0838958,0.0838958,-0.165002,-3.67449e-11,-4.30137e-06,-4.25247e-06,0.162928,0.08751556878242761,-3.6744940423716344e-11,-4.3013607491371175e-06,0.08751556878242761,-4.252460958253934e-06,-0.15210799169779654
273,0.087845,727.946,727.275,0.424148,7.60295e-05,0.0328214,0.041933,0.0841988,0.0841988,-0.165606,-3.23513e-11,-4.1188e-06,-3.92421e-06,0.163533,0.08784513592666965,-3.235134382606475e-11,-4.118791517737641e-06,0.08784513592666965,-3.924202300331636e-06,-0.1526199638396596
274,0.088339,727.366,726.686,-0.384059,8.25189e-05,-0.0172749,-0.0468813,0.0846531,0.0846531,-0.166518,-5.02487e-11,-4.82652e-06,-5.22987e-06,0.164443,0.08833945624828043,-5.0248694094534585e-11,-4.826508352318015e-06,0.08833945624828043,-5.229856324229232e-06,-0.1533924221381131
275,0.088525,728.065,727.393,0.236428,7.52886e-05,0.023418,0.0212753,0.0848234,0.0848234,-0.166855,-3.67803e-11,-4.27484e-06,-4.33084e-06,0.164781,0.08852481624063491,-3.6780245515899423e-11,-4.274830862849299e-06,0.08852481624063491,-4.330830621901427e-06,-0.15367768082306443
276,0.088803,728.187,727.52,0.238633,6.88048e-05,0.0212434,0.021242,0.0850788,0.0850788,-0.167365,-3.61288e-11,-4.25741e-06,-4.28454e-06,0.165291,0.08880286098350498,-3.612876664504938e-11,-4.257400937235367e-06,0.08880286098350498,-4.284530821352384e-06,-0.1541091951603356
277,0.08922,728.05,727.38,-0.0816736,6.90788e-05,-0.000547775,-0.0141309,0.0854617,0.0854617,-0.168133,-4.27534e-11,-4.53868e-06,-4.7776e-06,0.166057,0.08921984342516942,-4.275335641068523e-11,-4.538669700182574e-06,0.08921984342516942,-4.7775885873013735e-06,-0.15475858989895375
278,0.089845,727.793,727.1,-0.617228,9.32292e-05,-0.0271914,-0.0710474,0.0860359,0.0860359,-0.169283,-5.73284e-11,-5.01617e-06,-5.83593e-06,0.167206,0.08984545305459979,-5.7328364277964283e-11,-5.016157418991085e-06,0.08984545305459979,-5.835912970986179e-06,-0.15573005881887703
279,0.090002,728.689,728.005,0.217932,8.5646e-05,0.0226908,0.0193019,0.0861794,0.0861794,-0.169565,6.44464e-11,-4.35317e-06,-4.66077e-06,0.167489,0.09000185709883501,6.444644817804601e-11,-4.35316052493917e-06,0.09000185709883501,-4.66075913863051e-06,-0.15596810937558414
280,0.090158,728.608,727.932,0.0761026,7.90579e-05,0.0105476,0.00309937,0.0863229,0.0863229,-0.169852,-4.26691e-11,-4.49522e-06,-4.86329e-06,0.167776,0.09015828358866096,-4.266909048311618e-11,-4.495209896537844e-06,0.09015828358866096,-4.863278174171981e-06,-0.15621031177048716
281,0.090393,728.695,728.026,0.0691262,7.17212e-05,0.00952484,0.00250245,0.0865381,0.0865381,-0.170282,-4.25442e-11,-4.49118e-06,-4.86563e-06,0.168206,0.09039291089628199,-4.254419039284585e-11,-4.491169914633275e-06,0.09039291089628199,-4.865618162819274e-06,-0.15657306333924914
282,0.090745,728.784,728.116,0.0151391,6.72057e-05,0.00543275,-0.00338426,0.0868607,0.0868607,-0.170928,-4.34684e-11,-4.5295e-06,-4.94785e-06,0.16885,0.09074472839444847,-4.346845106084629e-11,-4.529489741833537e-06,0.09074472839444847,-4.94783775939478e-06,-0.1571177411904442
283,0.091273,729.2,728.52,0.212693,7.59499e-05,0.0166563,0.0187943,0.0873446,0.0873446,-0.171893,-3.8199e-11,-4.32219e-06,-4.58222e-06,0.169816,0.0912726674930815,-3.819899951906791e-11,-4.322180659377395e-06,0.0912726674930815,-4.582209501613477e-06,-0.15793073023988935
284,0.092064,729.229,728.508,-0.0891363,0.000125792,0.00177979,-0.0118063,0.0880699,0.0880699,-0.173344,-4.33797e-11,-4.5139e-06,-5.02451e-06,0.171266,0.09206445466572188,-4.337974424117874e-11,-4.513889812374217e-06,0.09206445466572188,-5.024497377159598e-06,-0.1591516867321593
285,0.092314,729.53,728.82,0.121563,0.000112026,0.0135397,0.00871836,0.0882988,0.0882988,-0.173801,-3.9267e-11,-4.338e-06,-4.74498e-06,0.171722,0.092314456831051,-3.926703406875731e-11,-4.337990590852492e-06,0.092314456831051,-4.744968742587119e-06,-0.15953586661953212
286,0.092689,729.342,728.641,-0.204494,0.00010047,-0.00893591,-0.0280608,0.088642,0.088642,-0.174488,-4.67882e-11,-4.65167e-06,-5.29332e-06,0.172409,0.09268940348980181,-4.6788239949080435e-11,-4.651659180954226e-06,0.09268940348980181,-5.2933059904169966e-06,-0.1601130671880674
287,0.093252,729.234,728.525,-0.526212,0.000102916,-0.0241391,-0.0619577,0.0891567,0.0891567,-0.175519,-5.60343e-11,-4.95404e-06,-5.9874e-06,0.173438,0.09325195548611509,-5.60342883204612e-11,-4.954027728709676e-06,0.09325195548611509,-5.9873820755784735e-06,-0.1609785443856372
288,0.093463,730.087,729.388,0.255114,9.26393e-05,0.0244326,0.0238349,0.0893496,0.0893496,-0.1759,-3.92861e-11,-4.29455e-06,-4.85295e-06,0.173821,0.0934628641298132,-3.9286129904780864e-11,-4.2945407784378276e-06,0.0934628641298132,-4.852938224497727e-06,-0.16129815067136255
289,0.093779,730.306,729.615,0.363441,8.29842e-05,0.0292142,0.0355664,0.0896389,0.0896389,-0.176477,-3.61006e-11,-4.16308e-06,-4.61531e-06,0.174398,0.09377924869922727,-3.61005669802239e-11,-4.163071334439827e-06,0.09377924869922727,-4.615299349475244e-06,-0.1617819420511898
290,0.094254,729.836,729.143,-0.277246,8.13602e-05,-0.0115632,-0.0349926,0.0900727,0.0900727,-0.177348,-4.98676e-11,-4.72842e-06,-5.64063e-06,0.175267,0.09425383306722002,-4.986755453018077e-11,-4.728408821041974e-06,0.09425383306722002,-5.640614091695362e-06,-0.16251171211866267
291,0.094432,730.344,729.66,0.172714,7.42479e-05,0.0184378,0.0143986,0.0902354,0.0902354,-0.177671,-4.02301e-11,-4.32007e-06,-4.98968e-06,0.175591,0.09443188264980074,-4.0230152542619635e-11,-4.320060668527859e-06,0.09443188264980074,-4.989667551580368e-06,-0.16278217715319387
292,0.094699,729.91,729.233,-0.351229,6.73024e-05,-0.0213712,-0.0446637,0.0904793,0.0904793,-0.178161,-5.29228e-11,-4.8728e-06,-5.83532e-06,0.17608,0.09469884714097532,-5.292277727164674e-11,-4.872788127885386e-06,0.09469884714097532,-5.835302974599443e-06,-0.16319231339480345
293,0.095099,730.728,730.051,0.328432,6.36864e-05,0.024942,0.0313547,0.090845,0.090845,-0.178888,-3.71477e-11,-4.2056e-06,-4.76507e-06,0.176808,0.09509925171888955,-3.714772933705035e-11,-4.205591156436483e-06,0.09509925171888955,-4.765058647104858e-06,-0.16380045149798006
294,0.0957,731.192,730.497,0.581023,7.67359e-05,0.0345809,0.0570332,0.0913934,0.0913934,-0.179983,-3.0151e-11,-3.92777e-06,-4.16636e-06,0.177902,0.09569996885011434,-3.015099281356015e-11,-3.927762286304315e-06,0.09569996885011434,-4.166351320722406e-06,-0.1647155888744367
295,0.096301,730.325,729.617,-0.492228,8.63748e-05,-0.0208512,-0.0565848,0.0919414,0.0919414,-0.181084,-5.09584e-11,-4.73736e-06,-5.87371e-06,0.179001,0.09630057698464278,-5.0958348651874985e-11,-4.7373487787050195e-06,0.09630057698464278,-5.873692749847059e-06,-0.16563473093053538
296,0.096901,730.434,729.717,-0.581085,9.22102e-05,-0.0261877,-0.0672226,0.0924892,0.0924892,-0.182179,9.29591e-11,-4.93002e-06,-6.31174e-06,0.180096,0.0969012949623469,9.295919589646928e-11,-4.930007847514517e-06,0.0969012949623469,-6.3117200810314245e-06,-0.1665478608702856
297,0.097352,730.731,730.019,-0.424147,8.5068e-05,-0.0211506,-0.0515993,0.0928998,0.0928998,-0.182999,-5.62758e-11,-4.93973e-06,-6.28634e-06,0.180916,0.097351775111304,-5.627576182831717e-11,-4.939717799579135e-06,0.097351775111304,-6.286320241022381e-06,-0.16723101149433695
298,0.097802,731.602,730.894,0.309954,7.8913e-05,0.023201,0.0297684,0.0933103,0.0933103,-0.183815,-3.98139e-11,-4.29379e-06,-5.13925e-06,0.181733,0.09780233048515075,-3.9813929930687664e-11,-4.293780781705614e-06,0.09780233048515075,-5.1392367941272e-06,-0.16791027381224088
299,0.097971,731.184,730.485,-0.156128,7.25671e-05,-0.00859684,-0.0224199,0.0934642,0.0934642,-0.184126,-4.95288e-11,-4.71177e-06,-5.83589e-06,0.182042,0.09797129526531867,-4.9528825485367634e-11,-4.7117588996004045e-06,0.09797129526531867,-5.835872971204914e-06,-0.16816901348098134
300,0.098225,731.253,730.563,-0.159724,6.52815e-05,-0.0075329,-0.0228547,0.0936949,0.0936949,-0.184587,-4.98317e-11,-4.71277e-06,-5.88497e-06,0.182504,0.0982246264637665,-4.9831694326485376e-11,-4.712758894909186e-06,0.0982246264637665,-5.884952683610223e-06,-0.16855239918857123
301,0.098605,731.685,731.0,0.160769,6.03094e-05,0.014887,0.0133475,0.094041,0.094041,-0.185277,-4.22182e-11,-4.38322e-06,-5.38065e-06,0.183194,0.0986047877901084,-4.22182289128159e-11,-4.383210393754666e-06,0.0986047877901084,-5.380635524354638e-06,-0.16912590015254492
302,0.099175,731.333,730.635,-0.365932,6.78558e-05,-0.0147833,-0.043494,0.0945598,0.0945598,-0.186317,-5.41149e-11,-4.83082e-06,-6.29277e-06,0.184232,0.09917489182621386,-5.411493475548923e-11,-4.830808331579561e-06,0.09917489182621386,-6.292750200587172e-06,-0.16998956003540266
303,0.099389,731.983,731.294,0.227051,6.12287e-05,0.022255,0.021028,0.0947544,0.0947544,-0.186702,-4.16883e-11,-4.32032e-06,-5.43175e-06,0.184619,0.09938881207392813,-4.1688319463162316e-11,-4.320310667438321e-06,0.09938881207392813,-5.431735248029312e-06,-0.1703090525485338
304,0.099709,732.129,731.446,0.283354,5.56034e-05,0.0237224,0.0269115,0.095046,0.095046,-0.187285,6.81356e-11,-4.24376e-06,-5.28913e-06,0.185201,0.09970944059689568,6.813549724427048e-11,-4.243750995280848e-06,0.09970944059689568,-5.289116012607842e-06,-0.17079262139688212
305,0.1002,731.826,731.139,-0.157967,5.68492e-05,-0.00451687,-0.0214866,0.0954834,0.0954834,-0.188162,-4.87811e-11,-4.62383e-06,-5.98487e-06,0.186077,0.10019055871907545,-4.878109027828259e-11,-4.6238193101011404e-06,0.10019055871907545,-5.984852090690218e-06,-0.17151951747739602
306,0.1004,732.144,731.465,0.11421,5.19608e-05,0.0136733,0.00813219,0.0956474,0.0956474,-0.188488,-4.30354e-11,-4.37193e-06,-5.59381e-06,0.186404,0.10037100476687688,-4.303535305894002e-11,-4.3719204431136305e-06,0.10037100476687688,-5.593794354719073e-06,-0.17178955809568597
307,0.1006,731.893,731.219,-0.209449,4.73988e-05,-0.0109588,-0.0283549,0.0958933,0.0958933,-0.188981,-5.059e-11,-4.71031e-06,-6.11926e-06,0.186896,0.10064161926763826,-5.058997665230436e-11,-4.710298906474009e-06,0.10064161926763826,-6.1192412773580784e-06,-0.17219776521222274
308,0.101,731.879,731.204,-0.334967,4.6203e-05,-0.0167441,-0.0418635,0.096262,0.096262,-0.189719,-5.42932e-11,-4.83704e-06,-6.41996e-06,0.187634,0.10104750065229773,-5.429323657324403e-11,-4.837028301563073e-06,0.10104750065229773,-6.419939392099394e-06,-0.17280845788818122
309,0.1017,731.813,731.119,-0.57356,5.85485e-05,-0.0255885,-0.065905,0.0968148,0.0968148,-0.190825,-6.19714e-11,-5.07261e-06,-7.02813e-06,0.188739,0.101656327975026,-6.197142798924915e-11,-5.0725971343368315e-06,0.101656327975026,-7.028105302731014e-06,-0.17372282599498645
310,0.1019,732.724,732.039,0.281766,5.25994e-05,0.0262961,0.0275187,0.0970221,0.0970221,-0.191235,-4.37462e-11,-4.36187e-06,-5.78199e-06,0.18915,0.10188472500434953,-4.3746228861607506e-11,-4.36186048702325e-06,0.10188472500434953,-5.781973284380015e-06,-0.17406153019722237
311,0.1022,732.281,731.6,-0.248509,4.86342e-05,-0.0123119,-0.0323295,0.0973329,0.0973329,-0.191859,-5.60735e-11,-4.88958e-06,-6.63288e-06,0.189773,0.10222724400157568,-5.607347919323047e-11,-4.889568046007042e-06,0.10222724400157568,-6.63285800250879e-06,-0.17457675503551173
312,0.1027,732.176,731.487,-0.488903,5.19673e-05,-0.023358,-0.0577179,0.0977988,0.0977988,-0.192792,-6.33161e-11,-5.12444e-06,-7.18091e-06,0.190705,0.10274089131940767,-6.331613011667514e-11,-5.124426870062315e-06,0.10274089131940767,-7.180884217361516e-06,-0.1753465157738402
313,0.1029,732.915,732.235,0.206234,4.71289e-05,0.0211334,0.0189552,0.0979735,0.0979735,-0.193137,-4.79232e-11,-4.52279e-06,-6.16917e-06,0.191052,0.1029335569819767,-4.792322094715473e-11,-4.522779772253571e-06,0.1029335569819767,-6.169150970736226e-06,-0.17563097215435108
314,0.1032,733.043,732.369,0.264825,4.28931e-05,0.0232497,0.0252939,0.0982355,0.0982355,-0.19366,-4.59167e-11,-4.44457e-06,-6.03113e-06,0.191575,0.10322256343209779,-4.5916714874749687e-11,-4.444560122940366e-06,0.10322256343209779,-6.031111812743184e-06,-0.17606200443114906
315,0.1037,732.733,732.056,-0.153711,4.29925e-05,-0.00469846,-0.0209474,0.0986283,0.0986283,-0.194448,-5.50213e-11,-4.81968e-06,-6.69149e-06,0.192362,0.10365599437527817,-5.502132083279321e-11,-4.819668385391829e-06,0.10365599437527817,-6.691467612007784e-06,-0.17671101182915938
316,0.1038,733.02,732.35,0.0971904,3.95624e-05,0.0125648,0.00654814,0.0987756,0.0987756,-0.194741,-4.94146e-11,-4.5825e-06,-6.33016e-06,0.192655,0.10381857487700974,-4.9414583536133705e-11,-4.582489500415399e-06,0.10381857487700974,-6.3301399645387946e-06,-0.1769522001668764
317,0.1041,732.806,732.141,-0.173958,3.63047e-05,-0.00868606,-0.023984,0.0989965,0.0989965,-0.195184,-5.60198e-11,-4.87137e-06,-6.76603e-06,0.193097,0.10406243533359594,-5.6019855421141074e-11,-4.871358134872494e-06,0.10406243533359594,-6.766007110470262e-06,-0.17731672959297307
318,0.1044,733.46,732.794,0.392815,3.46583e-05,0.0304673,0.0399606,0.0993277,0.0993277,-0.195843,-4.23284e-11,-4.28446e-06,-5.83227e-06,0.193757,0.10442816137306732,-4.232836303685872e-11,-4.284450821678831e-06,0.10442816137306732,-5.832252992332698e-06,-0.177858699269549
319,0.105,733.727,733.047,0.523962,4.20701e-05,0.0332185,0.0523108,0.0998243,0.0998243,-0.196835,-3.77812e-11,-4.1126e-06,-5.45063e-06,0.194749,0.10497675660292671,-3.7781222594901465e-11,-4.112591543314892e-06,0.10497675660292671,-5.450615145341509e-06,-0.1786738590537732
320,0.1058,733.098,732.373,-0.316228,7.59258e-05,-0.00802019,-0.0336641,0.100569,0.100569,-0.198328,-5.31052e-11,-4.70076e-06,-6.75335e-06,0.19624,0.10579993926759079,-5.310518691459265e-11,-4.700748951425027e-06,0.10579993926759079,-6.753327196129533e-06,-0.17989918404948746
321,0.106,733.743,733.03,0.279183,6.74772e-05,0.0257064,0.0275955,0.100795,0.100795,-0.198776,-4.16365e-11,-4.21873e-06,-5.91321e-06,0.19669,0.10604987829591161,-4.163647204791232e-11,-4.218721101123535e-06,0.10604987829591161,-5.9131925169708666e-06,-0.18026650692856483
322,0.1064,733.924,733.219,0.381595,6.02604e-05,0.0291214,0.0380845,0.101134,0.101134,-0.199453,-3.85838e-11,-4.09228e-06,-5.66813e-06,0.197367,0.10642489276601519,-3.858380281940299e-11,-4.092271626676691e-06,0.10642489276601519,-5.66811393620803e-06,-0.1808212786919432
323,0.107,733.392,732.681,-0.276036,6.1411e-05,-0.0101211,-0.0332739,0.101642,0.101642,-0.200473,-5.16596e-11,-4.64223e-06,-6.72398e-06,0.198385,0.10698709939993489,-5.1659565514228234e-11,-4.642219224915145e-06,0.10698709939993489,-6.723957394094704e-06,-0.18165641499575624
324,0.1072,733.915,733.214,0.207146,5.52971e-05,0.0207827,0.0191517,0.101833,0.101833,-0.200851,-4.18742e-11,-4.21166e-06,-6.01883e-06,0.198764,0.10719855412920398,-4.1874170797484567e-11,-4.211651130958671e-06,0.10719855412920398,-6.018811886887576e-06,-0.18196569041415123
325,0.1075,733.996,733.303,0.224789,4.95413e-05,0.0198341,0.0207431,0.102118,0.102118,-0.201422,-4.09138e-11,-4.17631e-06,-5.94736e-06,0.199335,0.10751415068750436,-4.0913827881183806e-11,-4.176301279246175e-06,0.10751415068750436,-5.947342314516213e-06,-0.1824326546739411
326,0.108,733.798,733.103,-0.0734821,4.82526e-05,0.000350983,-0.0118528,0.102547,0.102547,-0.202281,-4.65184e-11,-4.42665e-06,-6.40669e-06,0.200192,0.10798937618673032,-4.651834473179406e-11,-4.4266402023929174e-06,0.10798937618673032,-6.406669477154736e-06,-0.18313464347622022
327,0.1082,733.973,733.287,0.0697071,4.41222e-05,0.0100545,0.00348365,0.102707,0.102707,-0.202601,-4.35706e-11,-4.28814e-06,-6.20431e-06,0.200513,0.10816666866994074,-4.3570591579111806e-11,-4.288130805996104e-06,0.10816666866994074,-6.204290753264452e-06,-0.18339599857126243
328,0.1084,733.852,733.172,-0.102838,3.99459e-05,-0.00323562,-0.0159537,0.102948,0.102948,-0.203083,-4.7322e-11,-4.46563e-06,-6.48599e-06,0.200995,0.10843376902138968,-4.732203517932021e-11,-4.465620029092676e-06,0.10843376902138968,-6.485968966019051e-06,-0.18378950685683582
329,0.1088,734.331,733.652,0.29654,3.76855e-05,0.0234194,0.0290878,0.103309,0.103309,-0.203803,-3.83682e-11,-4.05197e-06,-5.81612e-06,0.201716,0.10883398584679704,-3.8368197508020785e-11,-4.051961790763059e-06,0.10883398584679704,-5.816103086364599e-06,-0.18437696690090477
330,0.1094,734.701,734.005,0.539041,4.49257e-05,0.0327468,0.0533906,0.103851,0.103851,-0.204884,-3.22113e-11,-3.78505e-06,-5.25477e-06,0.202797,0.10943513676430827,-3.221134470265952e-11,-3.785042836712549e-06,0.10943513676430827,-5.254756193728838e-06,-0.18525817901872266
331,0.1103,733.897,733.151,-0.463327,7.99636e-05,-0.0133018,-0.047218,0.104663,0.104663,-0.206513,-4.93586e-11,-4.4781e-06,-6.8597e-06,0.204424,0.11033636394407753,-4.93586282956926e-11,-4.47808997328103e-06,0.11033636394407753,-6.859676472292797e-06,-0.18658431301570366
332,0.1106,734.75,734.018,0.350076,7.07209e-05,0.0310897,0.0357754,0.104888,0.104888,-0.206959,-3.53042e-11,-3.84773e-06,-5.7226e-06,0.20487,0.11058621773346222,-3.530420400466028e-11,-3.8477225975386276e-06,0.11058621773346222,-5.722583625966671e-06,-0.18694701552342718
333,0.111,734.157,733.436,-0.30742,6.25296e-05,-0.0158077,-0.0386189,0.105226,0.105226,-0.207637,-4.88014e-11,-4.49729e-06,-6.78993e-06,0.205548,0.11096165932111024,-4.880140735963323e-11,-4.4972798871611985e-06,0.11096165932111024,-6.7899069484678165e-06,-0.18749807861540446
334,0.1115,735.072,734.349,0.504213,5.97898e-05,0.0318152,0.0501477,0.105732,0.105732,-0.208645,-3.2373e-11,-3.74975e-06,-5.42826e-06,0.206557,0.11152394816780764,-3.237299317504494e-11,-3.749742969683112e-06,0.11152394816780764,-5.428245267058429e-06,-0.18831666791384216
335,0.1121,735.237,734.512,0.568717,5.77769e-05,0.0352606,0.057032,0.106238,0.106238,-0.209656,-2.86687e-11,-3.55674e-06,-5.09244e-06,0.207568,0.11208652160465693,-2.8668734053383105e-11,-3.5567336748032474e-06,0.11208652160465693,-5.092427033503988e-06,-0.1891368650830505
336,0.1126,734.444,733.717,-0.324068,5.64776e-05,-0.0128178,-0.0382342,0.106743,0.106743,-0.210672,-4.32167e-11,-4.23314e-06,-6.48108e-06,0.208582,0.11264826712687337,-4.3216652478861306e-11,-4.2331310402543565e-06,0.11264826712687337,-6.481058997809264e-06,-0.1899602836606572
337,0.1129,735.051,734.337,0.253426,5.07348e-05,0.024353,0.024385,0.106933,0.106933,-0.211048,-3.2913e-11,-3.71501e-06,-5.63429e-06,0.208959,0.11285969038220056,-3.2913005654222616e-11,-3.7150030993693406e-06,0.11285969038220056,-5.634274127364058e-06,-0.19026480134108925
338,0.1132,735.117,734.413,0.270698,4.51368e-05,0.0228975,0.0258515,0.107217,0.107217,-0.211616,-3.20346e-11,-3.67901e-06,-5.55242e-06,0.209527,0.11317578741792356,-3.203459719713919e-11,-3.67900323250403e-06,0.11317578741792356,-5.552404585329462e-06,-0.19072460033865035
339,0.1137,734.818,734.115,-0.107319,4.29834e-05,-0.0018406,-0.0156329,0.107643,0.107643,-0.21247,-3.84249e-11,-4.00555e-06,-6.14165e-06,0.21038,0.11365010132505282,-3.842492990457913e-11,-4.005541977769589e-06,0.11365010132505282,-6.14163114009969e-06,-0.19141542650520216
340,0.1138,735.039,734.344,0.0882597,3.92503e-05,0.0114266,0.0055222,0.107803,0.107803,-0.212789,-3.49074e-11,-3.81889e-06,-5.86089e-06,0.210699,0.11382829959674634,-3.490741029565925e-11,-3.818882708062077e-06,0.11382829959674634,-5.8608728250586495e-06,-0.19167332384733393
341,0.1141,734.846,734.159,-0.144361,3.54429e-05,-0.00648384,-0.0206885,0.108043,0.108043,-0.213269,-3.9455e-11,-4.06305e-06,-6.24033e-06,0.211179,0.11409565046947101,-3.945499482682635e-11,-4.063041745827611e-06,0.11409565046947101,-6.240310529204152e-06,-0.1920612275475514
342,0.1145,735.431,734.747,0.377193,3.29039e-05,0.0284689,0.0380666,0.108402,0.108402,-0.213985,-2.93402e-11,-3.5261e-06,-5.36507e-06,0.211895,0.1144956826094623,-2.93401969386764e-11,-3.526093783290385e-06,0.1144956826094623,-5.365055607997604e-06,-0.192639504660716
343,0.1151,734.6,733.9,-0.557457,3.86049e-05,-0.0254358,-0.0641519,0.108941,0.108941,-0.215067,-4.67052e-11,-4.33988e-06,-6.97388e-06,0.212976,0.11509655770367955,-4.670519526683847e-11,-4.339870582681371e-06,0.11509655770367955,-6.97385568260156e-06,-0.19351259628892314
344,0.1157,735.835,735.124,0.579081,4.14703e-05,0.0348934,0.0577927,0.10948,0.10948,-0.216137,-2.68277e-11,-3.40416e-06,-5.13228e-06,0.214048,0.11569775675687155,-2.6827651211647208e-11,-3.4041542058549368e-06,0.11569775675687155,-5.1322668298547924e-06,-0.1943750763017994
345,0.1161,734.902,734.194,-0.420821,3.91565e-05,-0.0214209,-0.0507883,0.109883,0.109883,-0.21695,-4.31536e-11,-4.20556e-06,-6.70734e-06,0.214859,0.11614747356469479,-4.31535918110626e-11,-4.205551156655218e-06,0.11614747356469479,-6.70731750584963e-06,-0.19502978319035402
346,0.1166,735.017,734.312,-0.371778,3.67398e-05,-0.0184737,-0.0453362,0.110287,0.110287,-0.217757,-4.37787e-11,-4.23064e-06,-6.7892e-06,0.215666,0.11659848824284569,-4.377864737392656e-11,-4.230631050816669e-06,0.11659848824284569,-6.78917695340342e-06,-0.19567913210779064
347,0.1173,736.102,735.38,0.606193,4.33371e-05,0.0352548,0.0612914,0.110892,0.110892,-0.218961,5.14191e-11,-3.35866e-06,-5.09235e-06,0.216872,0.11727423472093057,5.1419091207094425e-11,-3.3586543597419194e-06,0.11727423472093057,-5.092337034051653e-06,-0.19664695168843138
348,0.1175,735.671,734.961,0.145922,3.89593e-05,0.0149506,0.0119278,0.111116,0.111116,-0.219411,-3.10192e-11,-3.59276e-06,-5.70739e-06,0.217321,0.11752453218177705,-3.1019187218817024e-11,-3.5927535460000826e-06,0.11752453218177705,-5.707373712859898e-06,-0.19700837923287495
349,0.1179,735.948,735.245,0.373361,3.50574e-05,0.0292831,0.03818,0.111451,0.111451,-0.22008,-2.63671e-11,-3.32474e-06,-5.25848e-06,0.21799,0.11789896561415603,-2.6367130701032693e-11,-3.3247344730646944e-06,0.11789896561415603,-5.2584661741628125e-06,-0.1975454009733668
350,0.1185,735.228,734.518,-0.428674,3.68184e-05,-0.0188078,-0.0498123,0.111954,0.111954,-0.221091,-3.99517e-11,-4.02818e-06,-6.60631e-06,0.218999,0.118461410236824,-3.9951708608043646e-11,-4.028171886938381e-06,0.118461410236824,-6.606288178390152e-06,-0.1983562726083039
351,0.1187,735.957,735.258,0.276603,3.30581e-05,0.0261156,0.0270517,0.112143,0.112143,-0.221464,-2.8423e-11,-3.40557e-06,-5.56858e-06,0.219374,0.11867281942089725,-2.8423041698033558e-11,-3.4055642010866194e-06,0.11867281942089725,-5.568564495517236e-06,-0.19865522995960883
352,0.119,736.042,735.35,0.3223,2.97517e-05,0.0264489,0.0317312,0.112426,0.112426,-0.222029,-2.71044e-11,-3.33813e-06,-5.4313e-06,0.219939,0.11898944862971317,-2.710442981168626e-11,-3.3381244284313993e-06,0.11898944862971317,-5.431285250545592e-06,-0.19910786187412488
353,0.1195,735.608,734.914,-0.176348,2.94938e-05,-0.00606155,-0.0231715,0.11285,0.11285,-0.22288,-3.50455e-11,-3.78124e-06,-6.22326e-06,0.220788,0.1194640007538732,-3.5045522039922616e-11,-3.7812328511632742e-06,0.1194640007538732,-6.223240635594429e-06,-0.1997891311624731
354,0.1196,735.925,735.24,0.121687,2.65915e-05,0.0141106,0.00937304,0.113009,0.113009,-0.223196,-3.01425e-11,-3.50106e-06,-5.78912e-06,0.221105,0.11964200968132777,-3.0142555118573e-11,-3.5010538712576533e-06,0.11964200968132777,-5.789103243114546e-06,-0.20004195784830558
355,0.1199,735.611,734.932,-0.223939,2.42957e-05,-0.0124797,-0.0295725,0.113247,0.113247,-0.223674,-3.6487e-11,-3.8704e-06,-6.35245e-06,0.221583,0.11990851619264875,-3.648703561509592e-11,-3.870392510041398e-06,0.11990851619264875,-6.3524298232753296e-06,-0.200424246418207
356,0.1203,735.556,734.877,-0.330781,2.33005e-05,-0.0170762,-0.0410443,0.113605,0.113605,-0.22439,-3.90136e-11,-3.98158e-06,-6.62369e-06,0.222298,0.1203095152159881,-3.901357015223539e-11,-3.981572073485928e-06,0.1203095152159881,-6.623668063365784e-06,-0.20099653775302462
357,0.1209,735.382,734.686,-0.589638,2.83472e-05,-0.0272695,-0.067386,0.114141,0.114141,-0.225463,-4.53473e-11,-4.2383e-06,-7.26711e-06,0.223371,0.12091016207512184,-4.5347281485419444e-11,-4.238291018365814e-06,0.12091016207512184,-7.267083594664214e-06,-0.2018534086745546
358,0.1211,736.275,735.588,0.280093,2.53098e-05,0.0261174,0.0276871,0.114342,0.114342,-0.22586,6.1295e-11,-3.50249e-06,-5.98809e-06,0.223769,0.12113548766216176,6.129496910034504e-11,-3.502483866268946e-06,0.12113548766216176,-5.988072071416717e-06,-0.20217020998209034
359,0.1215,735.804,735.122,-0.229953,2.34907e-05,-0.0115573,-0.0298926,0.114643,0.114643,-0.226465,-4.01287e-11,-4.0202e-06,-6.80972e-06,0.224374,0.12147300023704233,-4.0128678158168896e-11,-4.020191919029692e-06,0.12147300023704233,-6.809696813880883e-06,-0.20265275102166813
360,0.122,735.688,734.999,-0.41157,2.47511e-05,-0.0196779,-0.0490671,0.115095,0.115095,-0.22737,-4.44293e-11,-4.20108e-06,-7.24359e-06,0.225278,0.1219800206111219,-4.4429349088659364e-11,-4.2010711754914e-06,0.1219800206111219,-7.243563765246819e-06,-0.20337402385680725
361,0.1222,736.286,735.605,0.167489,2.20202e-05,0.0178318,0.0148931,0.115264,0.115264,-0.227705,-3.43832e-11,-3.68925e-06,-6.39285e-06,0.225614,0.12216965125794355,-3.438316298343125e-11,-3.68924319471553e-06,0.12216965125794355,-6.392829565826652e-06,-0.20364084886313127
362,0.1225,736.354,735.679,0.205082,2.0066e-05,0.0188945,0.0189329,0.115518,0.115518,-0.228213,-3.33043e-11,-3.63478e-06,-6.29898e-06,0.226122,0.12245471855137668,-3.330424824810052e-11,-3.634773394156632e-06,0.12245471855137668,-6.298960161466027e-06,-0.20404529657349257
363,0.1229,736.107,735.429,-0.0934095,2.00805e-05,-0.0014009,-0.0139765,0.115899,0.115899,-0.228976,-3.83017e-11,-3.90269e-06,-6.76935e-06,0.226885,0.12288245527781694,-3.830169514884574e-11,-3.9026823844823255e-06,0.12288245527781694,-6.769327087985388e-06,-0.20465237838104544
364,0.1235,735.681,734.982,-0.604023,2.67656e-05,-0.0269891,-0.0682165,0.11647,0.11647,-0.230121,-4.91318e-11,-4.36654e-06,-7.79961e-06,0.228028,0.12352380424748577,-4.913180973176168e-11,-4.366530466648477e-06,0.12352380424748577,-7.799579583078753e-06,-0.20556253024642024
365,0.1237,736.508,735.818,0.209881,2.41166e-05,0.0220217,0.0198118,0.116613,0.116613,-0.230402,-3.54041e-11,-3.70417e-06,-6.63346e-06,0.228311,0.12368447963951001,-3.540412407687654e-11,-3.704163139550687e-06,0.12368447963951001,-6.633437998670999e-06,-0.20578573581357007
366,0.1238,736.385,735.702,0.0720671,2.2139e-05,0.0101646,0.00408693,0.116755,0.116755,-0.230688,-3.781e-11,-3.84555e-06,-6.83222e-06,0.228596,0.12384405416514199,-3.7809977371239256e-11,-3.845542605906971e-06,0.12384405416514199,-6.8321966604223405e-06,-0.2060128486144488
367,0.1241,736.403,735.728,0.0674678,2.01084e-05,0.0093536,0.00375229,0.116969,0.116969,-0.231116,-3.76586e-11,-3.83896e-06,-6.82913e-06,0.229024,0.1240845825283503,-3.765865397298285e-11,-3.838952631229908e-06,0.1240845825283503,-6.829106681593977e-06,-0.20635260240274467
368,0.1244,736.389,735.715,0.0138716,1.88707e-05,0.00527636,-0.00208808,0.11729,0.11729,-0.231758,7.56143e-11,-3.87748e-06,-6.90941e-06,0.229666,0.1244454715989387,7.561440362735539e-11,-3.877472482538558e-06,0.1244454715989387,-6.90938613012726e-06,-0.2068619605105546
369,0.125,736.65,735.964,0.210678,2.11972e-05,0.0165935,0.0200164,0.117772,0.117772,-0.232719,6.85626e-11,-3.66349e-06,-6.53801e-06,0.230628,0.12498758495507278,6.856248901954132e-11,-3.663483289395586e-06,0.12498758495507278,-6.537988627264291e-06,-0.20762380004397696
370,0.1258,736.46,735.734,-0.0850705,3.51307e-05,0.00182506,-0.00995614,0.118493,0.118493,-0.234163,-3.80803e-11,-3.84715e-06,-6.98141e-06,0.232071,0.12579899348144896,-3.808031667773548e-11,-3.847142599711084e-06,0.12579899348144896,-6.981385630044912e-06,-0.20876716556813224
371,0.126,736.677,735.964,0.112598,3.13112e-05,0.0128932,0.0091179,0.118715,0.118715,-0.234606,-3.49639e-11,-3.67896e-06,-6.71576e-06,0.232514,0.12604894860199356,-3.496392064761267e-11,-3.6789532326109153e-06,0.12604894860199356,-6.7157374493698185e-06,-0.20911760408592284
372,0.1264,736.415,735.71,-0.183904,2.81896e-05,-0.00791245,-0.0243513,0.119048,0.119048,-0.235273,-4.0456e-11,-3.97164e-06,-7.21838e-06,0.233181,0.1264239853420297,-4.045597190582839e-11,-3.971632113075607e-06,0.1264239853420297,-7.218353947568978e-06,-0.20964494675566636
373,0.127,737.16,736.448,0.501582,2.81012e-05,0.0318187,0.0504312,0.119547,0.119547,-0.236268,-2.81432e-11,-3.32132e-06,-6.03e-06,0.234177,0.12698621117439424,-2.8143154473525556e-11,-3.321314484439064e-06,0.12698621117439424,-6.02998181953307e-06,-0.21043095892774122
374,0.1272,736.436,735.735,-0.238422,2.54154e-05,-0.0147627,-0.0307059,0.119734,0.119734,-0.236646,-3.95365e-11,-3.95031e-06,-7.13363e-06,0.234554,0.1271969773019026,-3.953648519683384e-11,-3.950302197575084e-06,0.1271969773019026,-7.13360455573131e-06,-0.21072935962398187
375,0.1275,736.346,735.653,-0.354716,2.29069e-05,-0.0206421,-0.0435684,0.120015,0.120015,-0.237208,-4.22361e-11,-4.07569e-06,-7.40376e-06,0.235116,0.1275137641589934,-4.223610350351237e-11,-4.0756816943599006e-06,0.1275137641589934,-7.403732592226042e-06,-0.2111728051040217
376,0.128,737.237,736.542,0.489405,2.18274e-05,0.0338171,0.0507433,0.120436,0.120436,-0.238045,-2.71473e-11,-3.2471e-06,-5.99414e-06,0.235954,0.12798854738856158,-2.714728442043679e-11,-3.2470947282092766e-06,0.12798854738856158,-5.994122035168914e-06,-0.2118327772292855
377,0.1282,736.537,735.851,-0.222885,2.01681e-05,-0.0142495,-0.0288728,0.120594,0.120594,-0.238364,-3.83145e-11,-3.89143e-06,-7.0685e-06,0.236272,0.12816678365934364,-3.831446271362893e-11,-3.891422428403679e-06,0.12816678365934364,-7.068475018190412e-06,-0.21208416247527084
378,0.1284,736.536,735.856,-0.246339,1.82807e-05,-0.0140729,-0.0315367,0.12083,0.12083,-0.238837,-3.90211e-11,-3.91714e-06,-7.16576e-06,0.236745,0.12843306243994745,-3.902111966880284e-11,-3.917132328057349e-06,0.12843306243994745,-7.165734326020079e-06,-0.21245675854050394
379,0.1288,737.059,736.38,0.239506,1.71267e-05,0.0197102,0.0231229,0.121185,0.121185,-0.239544,-3.02437e-11,-3.41818e-06,-6.38338e-06,0.237453,0.1288337272909168,-3.024369643611635e-11,-3.4181741580541214e-06,0.1288337272909168,-6.383359626327412e-06,-0.21301335483224215
380,0.1294,736.362,735.667,-0.520106,2.09671e-05,-0.0237205,-0.0596824,0.121717,0.121717,-0.240612,-4.36417e-11,-4.09172e-06,-7.7291e-06,0.238519,0.12943442660568572,-4.3641645852687816e-11,-4.091711628961825e-06,0.12943442660568572,-7.729070130579885e-06,-0.21385340790109386
381,0.1297,736.781,736.094,-0.117174,1.84012e-05,-0.0049674,-0.0169622,0.121917,0.121917,-0.241009,-3.82501e-11,-3.85561e-06,-7.2009e-06,0.238917,0.1296603360812012,-3.825006977820067e-11,-3.855602567104377e-06,0.1296603360812012,-7.20087407357628e-06,-0.21416544615446553
382,0.13,736.711,736.029,-0.21532,1.69408e-05,-0.0109037,-0.0281299,0.122216,0.122216,-0.241607,-4.03678e-11,-3.96041e-06,-7.41678e-06,0.239515,0.12999815502310463,-4.0367820197673154e-11,-3.9604021575545545e-06,0.12999815502310463,-7.416752495714718e-06,-0.21463523473687907
383,0.1305,737.379,736.691,0.405762,1.74488e-05,0.0281895,0.0414959,0.122664,0.122664,-0.2425,6.18155e-11,-3.34417e-06,-6.34958e-06,0.240409,0.1305045076110658,6.181544165428932e-11,-3.344164408281003e-06,0.1305045076110658,-6.349559841467567e-06,-0.21533625242127752
384,0.1307,736.803,736.123,-0.182667,1.60398e-05,-0.0107081,-0.0242633,0.122832,0.122832,-0.24284,-3.82776e-11,-3.86613e-06,-7.24085e-06,0.240748,0.13069444832291732,-3.827760330921137e-11,-3.866122526563487e-06,0.13069444832291732,-7.240823785115147e-06,-0.21560299274702932
385,0.131,736.777,736.102,-0.230839,1.46759e-05,-0.01259,-0.0296652,0.123084,0.123084,-0.243344,-3.94165e-11,-3.91737e-06,-7.37399e-06,0.241252,0.1309794192287208,-3.941647008787186e-11,-3.9173623270771785e-06,0.1309794192287208,-7.3739628122515555e-06,-0.21599822923072454
386,0.1314,737.322,736.645,0.276996,1.42766e-05,0.0217481,0.0274245,0.123462,0.123462,-0.244097,-3.02492e-11,-3.40001e-06,-6.54021e-06,0.242006,0.13140701025880275,-3.024924755123948e-11,-3.4000042199444636e-06,0.13140701025880275,-6.540188612902398e-06,-0.21658836035186257
387,0.132,736.527,735.829,-0.581227,1.94012e-05,-0.0259858,-0.0655921,0.124029,0.124029,-0.245236,-4.53189e-11,-4.1488e-06,-8.06722e-06,0.243143,0.13204869993545132,-4.531885977598904e-11,-4.14879139376545e-06,0.13204869993545132,-8.067187460047975e-06,-0.21748015823411548
388,0.1322,737.343,736.653,0.225414,1.73775e-05,0.0233319,0.0218184,0.124171,0.124171,-0.245514,-3.24594e-11,-3.47771e-06,-6.90094e-06,0.243423,0.13220946226469743,-3.2459368526360777e-11,-3.477703952814437e-06,0.13220946226469743,-6.900916188601336e-06,-0.21769766851479655
389,0.1324,737.198,736.516,0.0715835,1.59971e-05,0.0100937,0.00428357,0.124312,0.124312,-0.245798,-3.50133e-11,-3.63802e-06,-7.12409e-06,0.243706,0.13236911505413396,-3.501332557220849e-11,-3.638013382434302e-06,0.13236911505413396,-7.124064623775794e-06,-0.21791981083123635
390,0.1326,737.219,736.543,0.0763165,1.40472e-05,0.00999937,0.00500085,0.124525,0.124525,-0.246223,-3.46965e-11,-3.62094e-06,-7.10515e-06,0.244131,0.13261033536469147,-3.469646792098047e-11,-3.620933444414831e-06,0.13261033536469147,-7.105124758433057e-06,-0.21825212429002105
391,0.133,737.17,736.497,0.000170409,1.32623e-05,0.00431594,-0.0033788,0.124843,0.124843,-0.24686,-3.57841e-11,-3.68324e-06,-7.22249e-06,0.244768,0.13297056272445218,-3.578415341820573e-11,-3.6832332168668103e-06,0.13297056272445218,-7.22246391793302e-06,-0.21874993911599305
392,0.1335,737.464,736.779,0.245465,1.49676e-05,0.0185649,0.0240771,0.125321,0.125321,-0.247814,-3.1017e-11,-3.42215e-06,-6.76389e-06,0.245722,0.13351225210688278,-3.1016966772767773e-11,-3.422144144504813e-06,0.13351225210688278,-6.763867124948142e-06,-0.21949489627301277
393,0.1343,737.083,736.359,-0.216395,2.52302e-05,-0.00426485,-0.0233216,0.126037,0.126037,-0.249248,-3.75522e-11,-3.74821e-06,-7.51974e-06,0.247156,0.1343241374996771,-3.7552183584921295e-11,-3.748202975439874e-06,0.1343241374996771,-7.519711726855505e-06,-0.22061333847703735
394,0.1346,737.496,736.784,0.184168,2.18881e-05,0.0183639,0.0175224,0.126257,0.126257,-0.249687,-3.1608e-11,-3.41808e-06,-6.95292e-06,0.247595,0.1345737162625844,-3.1608049511078207e-11,-3.4180741583789143e-06,0.1345737162625844,-6.952895828526984e-06,-0.22095541413034625
395,0.1349,736.937,736.232,-0.399471,2.00149e-05,-0.0223302,-0.048268,0.126588,0.126588,-0.250351,-4.23011e-11,-4.01253e-06,-7.94756e-06,0.248258,0.13494932232204082,-4.230105155045294e-11,-4.012521949814385e-06,0.13494932232204082,-7.94752841826174e-06,-0.2214725280345481
396,0.1355,736.873,736.163,-0.506732,2.03763e-05,-0.0239686,-0.0583635,0.127083,0.127083,-0.251342,-4.54748e-11,-4.13508e-06,-8.32333e-06,0.249249,0.13551126130501445,-4.5474846110948874e-11,-4.135071450583894e-06,0.13551126130501445,-8.323295361156724e-06,-0.22224366659699812
397,0.1361,737.924,737.209,0.501992,1.99801e-05,0.032016,0.0509374,0.127578,0.127578,-0.252327,-2.87259e-11,-3.26874e-06,-6.67727e-06,0.250236,0.13607347851664042,-2.87259105391513e-11,-3.2687346577242593e-06,0.13607347851664042,-6.6772477070875524e-06,-0.22300937940993026
398,0.1366,736.943,736.225,-0.519121,2.05979e-05,-0.0246286,-0.0596567,0.128073,0.128073,-0.253323,-4.51657e-11,-4.11404e-06,-8.37425e-06,0.25123,0.13663597409467632,-4.516564899859077e-11,-4.114031537327811e-06,0.13663597409467632,-8.37421493604662e-06,-0.22378287680239306
399,0.1372,738.007,737.286,0.505167,1.99344e-05,0.0322004,0.0513172,0.128568,0.128568,-0.254306,-2.83245e-11,-3.23539e-06,-6.70382e-06,0.252215,0.13719874817694744,-2.8324453893446844e-11,-3.2353847660981927e-06,0.13719874817694744,-6.703797529428179e-06,-0.22454552333231537
400,0.1378,737.016,736.293,-0.524467,2.03647e-05,-0.0249463,-0.0602087,0.129063,0.129063,-0.255301,-4.47686e-11,-4.08907e-06,-8.41631e-06,0.253208,0.1377618009013475,-4.476863324498481e-11,-4.089061639733771e-06,0.1377618009013475,-8.416274582923045e-06,-0.22531671680422238
401,0.1383,738.083,737.359,0.505504,1.95576e-05,0.032229,0.051392,0.129557,0.129557,-0.256283,-2.79804e-11,-3.20525e-06,-6.73644e-06,0.254192,0.13832399408127527,-2.7980395778115508e-11,-3.2052448631914032e-06,0.13832399408127527,-6.736417310193588e-06,-0.22607708238771596
402,0.1389,737.089,736.365,-0.5246,1.98855e-05,-0.0249758,-0.0601976,0.130051,0.130051,-0.257277,-4.42934e-11,-4.06028e-06,-8.45069e-06,0.255184,0.13888646505324287,-4.429334676814278e-11,-4.060271757033718e-06,0.13888646505324287,-8.450654293001847e-06,-0.22684597956261843
403,0.1394,738.151,737.426,0.502179,1.90068e-05,0.0320533,0.0510683,0.130545,0.130545,-0.258259,-2.76965e-11,-3.1786e-06,-6.77563e-06,0.256168,0.1394492139545136,-2.7696511750718855e-11,-3.178594948249902e-06,0.1394492139545136,-6.775607045428345e-06,-0.22760484414719429
404,0.14,737.164,736.438,-0.519646,1.92782e-05,-0.0247237,-0.0596373,0.131038,0.131038,-0.259252,-4.37368e-11,-4.02742e-06,-8.4769e-06,0.257159,0.14001110091074742,-4.373679196589819e-11,-4.027411889984123e-06,0.14001110091074742,-8.476864071238488e-06,-0.22837145185323737
405,0.1406,738.213,737.486,0.495099,1.8371e-05,0.0316676,0.050336,0.131532,0.131532,-0.260232,-2.74672e-11,-3.15519e-06,-6.82091e-06,0.258141,0.14057440551938005,-2.746725069613376e-11,-3.155185022363227e-06,0.14057440551938005,-6.820886737646248e-06,-0.2291272774154045
406,0.1411,737.241,736.514,-0.509655,1.86094e-05,-0.0241924,-0.0585329,0.132025,0.132025,-0.261224,-4.30953e-11,-3.9902e-06,-8.49438e-06,0.259131,0.1411368473318162,-4.3095305102269776e-11,-3.990192039116103e-06,0.1411368473318162,-8.494343922804681e-06,-0.22989160398754982
407,0.1417,738.267,737.54,0.484337,1.77001e-05,0.0310755,0.0492025,0.132517,0.132517,-0.262204,-2.72852e-11,-3.13468e-06,-6.87156e-06,0.260113,0.14169842479743178,-2.7285174120095235e-11,-3.1346750869465367e-06,0.14169842479743178,-6.8715363908955496e-06,-0.2306459405303639
408,0.1423,737.32,736.593,-0.494773,1.79168e-05,-0.0233897,-0.0569006,0.13301,0.13301,-0.263194,-4.23679e-11,-3.94844e-06,-8.50277e-06,0.261102,0.1422614208879902,-4.2367886976535374e-11,-3.948432204969876e-06,0.1422614208879902,-8.502733851556421e-06,-0.23140722415166848
409,0.1428,738.316,737.589,0.47006,1.70223e-05,0.030286,0.0476859,0.133502,0.133502,-0.264173,-2.71426e-11,-3.11661e-06,-6.92671e-06,0.262082,0.14282355177992723,-2.7142621483733365e-11,-3.11660514340506e-06,0.14282355177992723,-6.926686010433336e-06,-0.23215930827397713
410,0.1434,737.401,736.673,-0.475265,1.72216e-05,-0.0223297,-0.0547687,0.133994,0.133994,-0.265163,-4.15562e-11,-3.90206e-06,-8.5019e-06,0.26307,0.14338595930831,-4.155620292323192e-11,-3.902052386983712e-06,0.14338595930831,-8.501863858922931e-06,-0.23291909440259662
411,0.1439,737.362,736.634,-0.543802,1.68905e-05,-0.0261508,-0.0620949,0.134486,0.134486,-0.266147,-4.49017e-11,-4.06205e-06,-8.85715e-06,0.264054,0.1439486436092774,-4.490174898563737e-11,-4.062041749852696e-06,0.1439486436092774,-8.857110775584154e-06,-0.23367353077013775
412,0.1445,738.423,737.696,0.488908,1.59701e-05,0.0314015,0.0498835,0.134978,0.134978,-0.267124,-2.831e-11,-3.17385e-06,-7.17331e-06,0.265033,0.1445116048190347,-2.8310020994126717e-11,-3.1738449632889854e-06,0.1445116048190347,-7.173284271910774e-06,-0.23442186610923643
413,0.1451,737.456,736.729,-0.506582,1.62367e-05,-0.0240516,-0.0580237,0.135469,0.135469,-0.268112,-4.38346e-11,-4.00455e-06,-8.83537e-06,0.26602,0.14507369799958414,-4.383460261436767e-11,-4.004541981794674e-06,0.14507369799958414,-8.83533096818212e-06,-0.235177883771297
414,0.1456,738.46,737.733,0.469604,1.53509e-05,0.0303274,0.0478174,0.13596,0.13596,-0.269089,-2.82593e-11,-3.16202e-06,-7.23991e-06,0.266998,0.14563606723565137,-2.8259283801901347e-11,-3.1620150008349057e-06,0.14563606723565137,-7.239883791920754e-06,-0.23592475007525415
415,0.1462,737.543,736.816,-0.474484,1.55913e-05,-0.0222908,-0.0545305,0.136451,0.136451,-0.270076,-4.28084e-11,-3.94845e-06,-8.81498e-06,0.267983,0.1461987126628128,-4.2808423472706636e-11,-3.948442204859681e-06,0.1461987126628128,-8.81494114812753e-06,-0.23667852030013226
416,0.1468,737.509,736.782,-0.535244,1.52875e-05,-0.0256849,-0.0610197,0.136942,0.136942,-0.271057,-4.60066e-11,-4.10079e-06,-9.15465e-06,0.268965,0.14676163441671175,-4.6006642939744324e-11,-4.100781591742653e-06,0.14676163441671175,-9.15460809636226e-06,-0.2374269714963827
417,0.1473,738.546,737.819,0.475609,1.43954e-05,0.0307236,0.0486158,0.137432,0.137432,-0.272032,-2.95905e-11,-3.2291e-06,-7.50442e-06,0.269942,0.1473236853087987,-2.959055223072937e-11,-3.2290947864499486e-06,0.1473236853087987,-7.504391841939295e-06,-0.23817011785645215
418,0.1479,737.609,736.881,-0.487368,1.46848e-05,-0.0229916,-0.0557968,0.137922,0.137922,-0.273018,-4.47268e-11,-4.03361e-06,-9.11344e-06,0.270926,0.14788601167330806,-4.4726777836956444e-11,-4.033601864961156e-06,0.14788601167330806,-9.113398472759826e-06,-0.23892091191794673
419,0.1484,737.58,736.853,-0.540622,1.43996e-05,-0.0259721,-0.0614753,0.138412,0.138412,-0.273998,-4.78802e-11,-4.18164e-06,-9.44428e-06,0.271906,0.14844861364525452,-4.788025531610174e-11,-4.181631256927609e-06,0.14844861364525452,-9.444235402944479e-06,-0.23966640407344675
420,0.149,738.617,737.89,0.472041,1.35137e-05,0.030582,0.0483712,0.138902,0.138902,-0.274971,7.33957e-11,-3.3078e-06,-7.79074e-06,0.272881,0.14901149135971847,7.339573393494447e-11,-3.3077945292836475e-06,0.14901149135971847,-7.790709652288896e-06,-0.2404058488640548
421,0.1496,737.686,736.959,-0.483559,1.38311e-05,-0.0227643,-0.0552579,0.139391,0.139391,-0.275956,1.01565e-10,-4.10719e-06,-9.38855e-06,0.273863,0.14957349537777676,1.0156497864954872e-10,-4.107181565515816e-06,0.14957349537777676,-9.388505927687696e-06,-0.24115368073526344
422,0.1501,737.66,736.933,-0.532428,1.35638e-05,-0.0255026,-0.0604645,0.13988,0.13988,-0.276934,-4.94975e-11,-4.24999e-06,-9.70886e-06,0.274842,0.1501357742830045,-4.9497517196073204e-11,-4.249980968817901e-06,0.1501357742830045,-9.708812869213546e-06,-0.24189546964160336
423,0.1507,738.678,737.951,0.462642,1.26931e-05,0.0301118,0.04749,0.140369,0.140369,-0.277906,-3.27495e-11,-3.38967e-06,-8.0824e-06,0.275816,0.15069832820985418,-3.274946980269533e-11,-3.389664255060154e-06,0.15069832820985418,-8.082367337514107e-06,-0.24263198923859985
424,0.1513,737.768,737.041,-0.470047,1.30256e-05,-0.0219974,-0.053672,0.140858,0.140858,-0.278889,-4.78983e-11,-4.17019e-06,-9.64234e-06,0.276797,0.15126115729284417,-4.789835195140313e-11,-4.170181304719023e-06,0.15126115729284417,-9.642293512746036e-06,-0.24337611619485922
425,0.1518,737.744,737.017,-0.516502,1.2776e-05,-0.0246021,-0.0586206,0.141347,0.141347,-0.279866,-5.08826e-11,-4.3074e-06,-9.95144e-06,0.277774,0.15182426166655882,-5.088263144159555e-11,-4.307390723212734e-06,0.15182426166655882,-9.951390484541633e-06,-0.24411497673718996
426,0.1524,738.732,738.005,0.450104,1.19264e-05,0.0294623,0.0462628,0.141835,0.141835,-0.280837,-3.43482e-11,-3.46943e-06,-8.36911e-06,0.278747,0.1523864890785831,-3.4348190958155556e-11,-3.469423981550257e-06,0.1523864890785831,-8.369074979142077e-06,-0.24484858487038985
427,0.1529,737.851,737.125,-0.451338,1.22661e-05,-0.0209415,-0.0515275,0.142323,0.142323,-0.281818,-4.91772e-11,-4.22364e-06,-9.87681e-06,0.279726,0.15294899092454095,-4.9177217853468846e-11,-4.2236310804355526e-06,0.15294899092454095,-9.876761224436592e-06,-0.2455890251632874
428,0.1535,737.827,737.1,-0.496636,1.2034e-05,-0.0234821,-0.0563545,0.142811,0.142811,-0.282794,-5.20596e-11,-4.35526e-06,-1.01747e-05,0.280702,0.15351176733838856,-5.205957887000068e-11,-4.3552505158972465e-06,0.15351176733838856,-1.0174648237937234e-05,-0.24632497107470286
429,0.1541,737.815,737.088,-0.528626,1.18052e-05,-0.0251982,-0.059659,0.143298,0.143298,-0.283769,-5.49349e-11,-4.48312e-06,-1.04663e-05,0.281677,0.15407366437990655,-5.493494548147737e-11,-4.483109950825792e-06,0.15407366437990655,-1.0466245228490934e-05,-0.24705944611313957
430,0.1546,738.809,738.083,0.445801,1.09539e-05,0.0293208,0.0460311,0.143785,0.143785,-0.284738,-3.76673e-11,-3.63863e-06,-8.87219e-06,0.282648,0.1546358351319268,-3.7667313712574924e-11,-3.6386233801533052e-06,0.1546358351319268,-8.872150642269538e-06,-0.24778869213309818
431,0.1548,738.114,737.399,-0.250952,1.02538e-05,-0.0156819,-0.0305992,0.143968,0.143968,-0.285107,-4.93001e-11,-4.25874e-06,-9.93414e-06,0.283016,0.15484715282473527,-4.930011954229485e-11,-4.258730931572252e-06,0.15484715282473527,-9.934090656638084e-06,-0.2480662069010775
432,0.1552,738.045,737.341,-0.325221,8.77811e-06,-0.0185675,-0.0387711,0.144242,0.144242,-0.285655,-5.11499e-11,-4.34023e-06,-1.01328e-05,0.283564,0.15516362429922115,-5.1149862123622825e-11,-4.34022058126704e-06,0.15516362429922115,-1.0132748663349567e-05,-0.24847815373595383
433,0.1556,738.794,738.09,0.407866,7.97819e-06,0.0294352,0.0432693,0.144653,0.144653,-0.286473,8.75591e-11,-3.60028e-06,-8.89142e-06,0.284383,0.15563849412787345,8.755907110469252e-11,-3.600273518977737e-06,0.15563849412787345,-8.891380471443e-06,-0.24909264724408864
434,0.1558,738.204,737.51,-0.183045,7.65754e-06,-0.0108234,-0.0228764,0.144807,0.144807,-0.286784,-4.70767e-11,-4.14762e-06,-9.79737e-06,0.284693,0.15581647616023386,-4.707667589087805e-11,-4.14761139866382e-06,0.15581647616023386,-9.7973220059e-06,-0.249326143120305
435,0.1561,738.197,737.51,-0.195583,6.67856e-06,-0.0102187,-0.0243333,0.145038,0.145038,-0.287246,-4.74575e-11,-4.15952e-06,-9.86417e-06,0.285155,0.156083500606363,-4.745748238832448e-11,-4.159511349244305e-06,0.156083500606363,-9.864121349290045e-06,-0.24967287434110408
436,0.1565,738.595,737.91,0.190334,6.08883e-06,0.0169079,0.0191651,0.145384,0.145384,-0.287936,-3.99268e-11,-3.74929e-06,-9.22901e-06,0.285846,0.15648357470640084,-3.992683961229204e-11,-3.749282971421408e-06,0.15648357470640084,-9.228967412844291e-06,-0.2501904214835109
437,0.1571,737.958,737.26,-0.472716,7.75223e-06,-0.0206974,-0.0525176,0.145903,0.145903,-0.288979,-5.19611e-11,-4.34031e-06,-1.04126e-05,0.286887,0.15708394546440885,-5.1961102087716426e-11,-4.34030058082957e-06,0.15708394546440885,-1.0412545789040273e-05,-0.2509720651758588
438,0.1573,738.716,738.027,0.28255,6.4188e-06,0.0267602,0.0298414,0.146098,0.146098,-0.289364,-3.90242e-11,-3.66628e-06,-9.27019e-06,0.287274,0.15730959883426276,-3.902422829327179e-11,-3.666273279190335e-06,0.15730959883426276,-9.270147031892328e-06,-0.25126038542555673
439,0.1576,738.801,738.117,0.360043,5.32558e-06,0.0291605,0.0380363,0.14639,0.14639,-0.289947,-3.69851e-11,-3.56068e-06,-9.06456e-06,0.287857,0.15764758258034783,-3.6985081663942765e-11,-3.5606736608073675e-06,0.15764758258034783,-9.064518917023534e-06,-0.2516967734013984
440,0.1582,738.222,737.533,-0.237121,6.17115e-06,-0.0091886,-0.0276404,0.146828,0.146828,-0.290826,-4.70652e-11,-4.10382e-06,-1.00386e-05,0.288735,0.15815474328160373,-4.706524059372441e-11,-4.1038115793368135e-06,0.15815474328160373,-1.003854961345585e-05,-0.2523542429373852
441,0.1583,738.617,737.936,0.15583,5.31893e-06,0.0171691,0.01535,0.146992,0.146992,-0.291152,-4.02042e-11,-3.7297e-06,-9.44591e-06,0.289062,0.1583446962352184,-4.0204173323843406e-11,-3.729693044629556e-06,0.1583446962352184,-9.445865387536223e-06,-0.25259793573010414
442,0.1586,738.161,737.485,-0.305894,4.9406e-06,-0.018063,-0.0366797,0.147238,0.147238,-0.291646,-4.92809e-11,-4.23527e-06,-1.02136e-05,0.289556,0.15862968408256028,-4.9280912683968836e-11,-4.235261031215742e-06,0.15862968408256028,-1.0213547841364523e-05,-0.25296706116836354
443,0.1591,738.774,738.097,0.293333,4.58405e-06,0.0228738,0.0302748,0.147607,0.147607,-0.292381,-3.79433e-11,-3.61876e-06,-9.22669e-06,0.290291,0.159057297325778,-3.794331515649674e-11,-3.618753452339085e-06,0.159057297325778,-9.22664743419066e-06,-0.2535159286448978
444,0.1597,737.971,737.274,-0.538521,6.93886e-06,-0.0239566,-0.0597396,0.14816,0.14816,-0.293492,-5.27856e-11,-4.35514e-06,-1.07059e-05,0.291401,0.15969843326894861,-5.278555370580307e-11,-4.355130516442429e-06,0.15969843326894861,-1.0705842692027012e-05,-0.254344811918256
445,0.1603,737.997,737.286,-0.537133,8.15355e-06,-0.0238883,-0.0595041,0.148713,0.148713,-0.294598,-5.53488e-11,-4.46771e-06,-1.0984e-05,0.292507,0.1603399238583465,-5.534883662505763e-11,-4.4677000198278805e-06,0.1603399238583465,-1.0983939676134646e-05,-0.2551690506682258
446,0.1608,738.174,737.466,-0.372258,7.69614e-06,-0.018006,-0.0429469,0.149128,0.149128,-0.295426,-5.46735e-11,-4.45332e-06,-1.09156e-05,0.293335,0.16082156486034327,-5.4673487959178146e-11,-4.453310084029383e-06,0.16082156486034327,-1.0915540425093795e-05,-0.25578551544263606
447,0.1613,738.83,738.124,0.271263,6.93643e-06,0.0210551,0.0283908,0.149542,0.149542,-0.296251,-4.26824e-11,-3.85824e-06,-9.86333e-06,0.294162,0.16130224448201158,-4.268241315941168e-11,-3.85823255699691e-06,0.16130224448201158,-9.863281357547216e-06,-0.25639923919653773
448,0.1615,738.424,737.727,-0.135153,6.59575e-06,-0.00677351,-0.0171523,0.149697,0.149697,-0.296564,-4.98055e-11,-4.23708e-06,-1.04913e-05,0.294474,0.16148226028077017,-4.980549306310422e-11,-4.237071023593941e-06,0.16148226028077017,-1.0491244966548408e-05,-0.25663194981355775
449,0.1618,738.896,738.207,0.334136,5.37926e-06,0.0294627,0.035904,0.14993,0.14993,-0.297027,-4.01545e-11,-3.6957e-06,-9.71258e-06,0.294938,0.16175291717771967,-4.015454635464266e-11,-3.6956931709353213e-06,0.16175291717771967,-9.712532832995002e-06,-0.25697604955555686
450,0.1622,738.921,738.234,0.348992,4.3489e-06,0.0269126,0.0368064,0.15028,0.15028,-0.297726,-3.90334e-11,-3.64781e-06,-9.58777e-06,0.295637,0.16215960186440048,-3.903344314437618e-11,-3.6478033467179927e-06,0.16215960186440048,-9.58772403747421e-06,-0.2574952418180819
451,0.1628,738.468,737.768,-0.126125,5.86646e-06,-0.00173929,-0.0144057,0.150803,0.150803,-0.298776,-4.63847e-11,-4.03664e-06,-1.03321e-05,0.296686,0.16276757030606492,-4.638467387962919e-11,-4.0366318527773615e-06,0.16276757030606492,-1.0332046624039748e-05,-0.25827446265164444
452,0.163,738.731,738.039,0.134751,5.02898e-06,0.015064,0.0133476,0.151,0.151,-0.299167,-4.18081e-11,-3.78714e-06,-9.93923e-06,0.297078,0.1629966580818203,-4.180811252751937e-11,-3.787132828780848e-06,0.1629966580818203,-9.939180605988973e-06,-0.2585644206462656
453,0.1633,738.366,737.68,-0.235624,4.50107e-06,-0.0118451,-0.0283873,0.151294,0.151294,-0.299758,-4.89027e-11,-4.17515e-06,-1.05662e-05,0.297668,0.16333862936661192,-4.8902659699479045e-11,-4.175141284035178e-06,0.16333862936661192,-1.0566144177936998e-05,-0.2590024796144881
454,0.1639,739.026,738.335,0.408487,4.49244e-06,0.0282947,0.0427514,0.151736,0.151736,-0.300637,-3.69045e-11,-3.5321e-06,-9.45305e-06,0.298549,0.16385293869478046,-3.690447947235498e-11,-3.532093762137478e-06,0.16385293869478046,-9.453005320070318e-06,-0.25965353025623084
455,0.164,738.435,737.751,-0.183544,4.4692e-06,-0.0106271,-0.0226147,0.151901,0.151901,-0.300972,-4.64827e-11,-4.06557e-06,-1.03556e-05,0.298882,0.16404499027348463,-4.648270657270359e-11,-4.065561735600021e-06,0.16404499027348463,-1.0355546380957925e-05,-0.2599015047855423
456,0.1643,738.398,737.72,-0.224637,3.8929e-06,-0.0120059,-0.0272144,0.152149,0.152149,-0.301468,-4.74432e-11,-4.10929e-06,-1.04744e-05,0.299379,0.1643337092307433,-4.7443160511306814e-11,-4.109281556918809e-06,0.1643337092307433,-1.0474345143673958e-05,-0.26026850261618273
457,0.1648,738.893,738.214,0.259651,2.81672e-06,0.0210131,0.0272569,0.152522,0.152522,-0.30221,-3.82438e-11,-3.60098e-06,-9.65884e-06,0.300121,0.16476808671065002,-3.824385252926277e-11,-3.600973516482142e-06,0.16476808671065002,-9.658793353573003e-06,-0.2608171798028317
458,0.1654,739.203,738.505,0.545218,4.44064e-06,0.0328363,0.0561864,0.15308,0.15308,-0.303325,-3.23756e-11,-3.2843e-06,-8.99816e-06,0.301236,0.16541820867019275,-3.237554668800158e-11,-3.284294606720195e-06,0.16541820867019275,-8.998119516712144e-06,-0.2616409093327985
459,0.1664,738.19,737.437,-0.518311,1.08613e-05,-0.0151586,-0.049718,0.153916,0.153916,-0.305004,-4.73444e-11,-4.03539e-06,-1.07684e-05,0.302913,0.1663929056592146,-4.7344350662115176e-11,-4.035381857780962e-06,0.1663929056592146,-1.0768342020961441e-05,-0.26287957409597285
460,0.1666,738.569,737.832,-0.136549,9.41302e-06,-0.00606985,-0.0173005,0.15413,0.15413,-0.30543,-4.42699e-11,-3.92496e-06,-1.03668e-05,0.303341,0.1666425404509959,-4.426992106232319e-11,-3.924952297396089e-06,0.1666425404509959,-1.036674626486711e-05,-0.26319352052207134
461,0.167,738.517,737.792,-0.191449,7.8448e-06,-0.0090342,-0.0239011,0.154452,0.154452,-0.306073,-4.55639e-11,-3.98915e-06,-1.05202e-05,0.303984,0.16701825983659568,-4.556388599752381e-11,-3.989142043359095e-06,0.16701825983659568,-1.0520144662851116e-05,-0.26366713480506576
462,0.1676,739.102,738.377,0.381488,7.20102e-06,0.0263459,0.0404803,0.154934,0.154934,-0.307033,-3.49799e-11,-3.40613e-06,-9.48851e-06,0.304945,0.16758089822279532,-3.497990785916727e-11,-3.4061241991345526e-06,0.16758089822279532,-9.488464984275247e-06,-0.26437367516201926
463,0.1678,738.541,737.827,-0.178208,6.83004e-06,-0.00991174,-0.0219425,0.155114,0.155114,-0.307398,-4.37258e-11,-3.90569e-06,-1.0356e-05,0.305309,0.1677910817004209,-4.37258007579544e-11,-3.90568237285116e-06,0.1677910817004209,-1.0355946376772174e-05,-0.26464212977463797
464,0.1681,738.468,737.764,-0.252959,5.87906e-06,-0.0135947,-0.0302811,0.155385,0.155385,-0.30794,-4.53316e-11,-3.98639e-06,-1.05375e-05,0.305851,0.1681075959693079,-4.533162734077223e-11,-3.986382054343984e-06,0.1681075959693079,-1.0537444480762659e-05,-0.2650405857489767
465,0.1686,739.082,738.379,0.351497,4.26883e-06,0.0260727,0.0374848,0.155792,0.155792,-0.308749,-3.43878e-11,-3.36383e-06,-9.49782e-06,0.306661,0.16858311252192193,-3.4387825920134674e-11,-3.3638243422950964e-06,0.16858311252192193,-9.49777489589465e-06,-0.26563492747146356
466,0.1688,738.577,737.884,-0.151879,4.24457e-06,-0.00831272,-0.0189522,0.155944,0.155944,-0.309057,-4.23681e-11,-3.83418e-06,-1.02766e-05,0.306967,0.16876075065518137,-4.23681090211403e-11,-3.834172649486156e-06,0.16876075065518137,-1.0276547195875452e-05,-0.2658610770849741
467,0.169,738.568,737.882,-0.163394,3.71396e-06,-0.00791084,-0.0202985,0.156172,0.156172,-0.309513,-4.26515e-11,-3.8441e-06,-1.03339e-05,0.307424,0.16902725848706912,-4.26515489593271e-11,-3.844092611449135e-06,0.16902725848706912,-1.0333846605425911e-05,-0.26619576811846823
468,0.1694,738.905,738.221,0.166872,2.81344e-06,0.0153886,0.016982,0.156515,0.156515,-0.310196,-3.65393e-11,-3.48623e-06,-9.78322e-06,0.308108,0.1694283036120372,-3.6539327119555765e-11,-3.486223923099274e-06,0.1694283036120372,-9.783172144506302e-06,-0.2666967852920019
469,0.17,738.376,737.679,-0.380424,4.22402e-06,-0.0158626,-0.0421779,0.157028,0.157028,-0.311227,1.11785e-10,-3.97478e-06,-1.0761e-05,0.309137,0.17002837423674544,1.1178502568043314e-10,-3.974772100567847e-06,0.17002837423674544,-1.0760942100618287e-05,-0.2674524313039115
470,0.1703,738.988,738.299,0.230953,3.35897e-06,0.0226819,0.0243884,0.157221,0.157221,-0.311608,-3.58605e-11,-3.42104e-06,-9.82885e-06,0.30952,0.17025421150556852,-3.5860536762299944e-11,-3.4210341482987516e-06,0.17025421150556852,-9.828801696976086e-06,-0.2677314787656677
471,0.1706,739.044,738.361,0.28295,2.77648e-06,0.0238732,0.0298059,0.157509,0.157509,-0.312185,-3.44667e-11,-3.34475e-06,-9.68014e-06,0.310097,0.17059129325592415,-3.446665175488306e-11,-3.344744406330591e-06,0.17059129325592415,-9.680093147612645e-06,-0.26815387582914807
472,0.1711,738.621,737.933,-0.151913,3.48986e-06,-0.00428214,-0.017907,0.157942,0.157942,-0.313053,-4.12009e-11,-3.73739e-06,-1.03845e-05,0.310964,0.17109826903823988,-4.120093155535187e-11,-3.737383015955942e-06,0.17109826903823988,-1.0384446081257437e-05,-0.2687888426494618
473,0.1713,738.882,738.202,0.109623,2.97605e-06,0.0133471,0.0105379,0.158105,0.158105,-0.313376,-3.68852e-11,-3.4823e-06,-9.98802e-06,0.311288,0.17128917361439333,-3.68851615917265e-11,-3.4822939367629147e-06,0.17128917361439333,-9.98797011986241e-06,-0.26902498571412803
474,0.1716,738.578,737.903,-0.19749,2.81126e-06,-0.0102131,-0.0240692,0.158348,0.158348,-0.313865,-4.24664e-11,-3.81911e-06,-1.05015e-05,0.311776,0.17157383146811012,-4.2466363758819625e-11,-3.819102707192101e-06,0.17157383146811012,-1.0501444859478681e-05,-0.26938234511461934
475,0.172,738.474,737.798,-0.309543,2.37455e-06,-0.015368,-0.0361453,0.158713,0.158713,-0.314595,-4.48127e-11,-3.93635e-06,-1.07766e-05,0.312506,0.1720015339675538,-4.481270909906243e-11,-3.9363422525973135e-06,0.1720015339675538,-1.0776541932600026e-05,-0.2699155013769734
476,0.1726,739.36,738.665,0.555578,3.18102e-06,0.0336935,0.0577038,0.15926,0.15926,-0.315685,-3.03324e-11,-3.11799e-06,-9.24072e-06,0.313597,0.1726427941753117,-3.03324032557839e-11,-3.1179851390783497e-06,0.1726427941753117,-9.240677304678258e-06,-0.2707108599313133
477,0.1729,738.506,737.819,-0.298976,3.38584e-06,-0.018873,-0.0354632,0.159465,0.159465,-0.3161,-4.27849e-11,-3.85629e-06,-1.05526e-05,0.314011,0.17288321058995804,-4.278488674458458e-11,-3.856282564496105e-06,0.17288321058995804,-1.0552544321473789e-05,-0.27101345213221717
478,0.1732,739.076,738.393,0.266743,2.43644e-06,0.0223396,0.027963,0.159773,0.159773,-0.316712,-3.27621e-11,-3.24348e-06,-9.62586e-06,0.314624,0.17324451425672827,-3.276212634517606e-11,-3.243474739900165e-06,0.17324451425672827,-9.625813671587657e-06,-0.27145945540858907
479,0.1738,738.372,737.681,-0.450839,3.52025e-06,-0.021621,-0.0509784,0.160234,0.160234,-0.317638,-4.46578e-11,-3.91989e-06,-1.08884e-05,0.315549,0.1737855046665091,-4.465783298712722e-11,-3.919882317293677e-06,0.1737855046665091,-1.0888340721604273e-05,-0.2721337716962553
480,0.174,739.07,738.388,0.248413,2.6967e-06,0.0245125,0.0263491,0.160407,0.160407,-0.31798,-3.34695e-11,-3.26405e-06,-9.81075e-06,0.315892,0.17398858712494247,-3.3469449434164744e-11,-3.2640446729903516e-06,0.17398858712494247,-9.810701874779504e-06,-0.27238265938411466
481,0.1743,739.092,738.415,0.267724,2.27931e-06,0.0234615,0.0282375,0.160666,0.160666,-0.318498,-3.27084e-11,-3.22474e-06,-9.7203e-06,0.316411,0.1742926895485719,-3.27083915507842e-11,-3.2247348005221e-06,0.1742926895485719,-9.72025275802757e-06,-0.2727594675648094
482,0.1747,738.718,738.038,-0.115081,2.06636e-06,-0.00255688,-0.0140522,0.161055,0.161055,-0.319278,-3.85336e-11,-3.58213e-06,-1.03341e-05,0.31719,0.17474957826389992,-3.853362073868993e-11,-3.582123584200403e-06,0.17474957826389992,-1.0334046603333036e-05,-0.2733264940110466
483,0.1754,738.281,737.579,-0.574726,3.94285e-06,-0.0251419,-0.0626924,0.161638,0.161638,-0.320446,-4.70479e-11,-4.01294e-06,-1.1304e-05,0.318358,0.17543465694906035,-4.704792111454026e-11,-4.012931948182974e-06,0.17543465694906035,-1.130393611004088e-05,-0.27417475318624873
484,0.1759,739.338,738.634,0.473365,2.49122e-06,0.0321958,0.0502592,0.162075,0.162075,-0.321314,-3.09526e-11,-3.11946e-06,-9.59278e-06,0.319228,0.17594843414628825,-3.0952573837339514e-11,-3.1194551345370414e-06,0.17594843414628825,-9.592733989483015e-06,-0.274804496152497
485,0.1765,739.287,738.582,0.413604,1.91183e-06,0.0285776,0.0436098,0.162512,0.162512,-0.322188,-3.00155e-11,-3.05847e-06,-9.51356e-06,0.320101,0.17646243591321653,-3.001554560455588e-11,-3.058465322891557e-06,0.17646243591321653,-9.513514746206653e-06,-0.27543804012381523
486,0.1772,738.931,738.201,0.0334277,4.24952e-06,0.00734758,0.00431001,0.163166,0.163166,-0.3235,-3.39671e-11,-3.30156e-06,-1.00138e-05,0.321413,0.1772320939970642,-3.396705139380174e-11,-3.301554549861585e-06,0.1772320939970642,-1.0013749862092247e-05,-0.2763880420776178
487,0.1775,738.965,738.248,0.0698312,3.70847e-06,0.00975655,0.00634885,0.163379,0.163379,-0.323924,-3.32663e-11,-3.25074e-06,-9.9736e-06,0.321837,0.17748287113990324,-3.326627862065834e-11,-3.2507347162979983e-06,0.17748287113990324,-9.973550263775444e-06,-0.27669478851293705
488,0.1779,738.874,738.166,-0.0221797,3.13488e-06,0.00287521,-0.0040695,0.163697,0.163697,-0.324562,-3.45723e-11,-3.33483e-06,-1.01236e-05,0.322474,0.17785737023512582,-3.4572344986827375e-11,-3.334824439482631e-06,0.17785737023512582,-1.0123548756513223e-05,-0.277156110060644
489,0.1784,739.189,738.477,0.282683,2.19415e-06,0.0207822,0.0300215,0.164175,0.164175,-0.325515,-2.92754e-11,-3.00637e-06,-9.53698e-06,0.323428,0.17842052064032243,-2.927535991403829e-11,-3.00636548089539e-06,0.17842052064032243,-9.536934523102225e-06,-0.27784465214534115
490,0.1793,738.571,737.829,-0.362084,5.12874e-06,-0.0108709,-0.0364711,0.16489,0.16489,-0.32695,-3.79279e-11,-3.50061e-06,-1.06579e-05,0.324862,0.17926339260339907,-3.792788305645445e-11,-3.5006038728857547e-06,0.17926339260339907,-1.065784320475327e-05,-0.27888020188487195
491,0.1795,739.18,738.452,0.250644,4.14511e-06,0.0237832,0.026981,0.165102,0.165102,-0.32737,-2.96006e-11,-2.98958e-06,-9.75219e-06,0.325284,0.17951342294491068,-2.960065526025346e-11,-2.989575531242572e-06,0.17951342294491068,-9.752142447583267e-06,-0.2791830086062176
492,0.1799,739.268,738.551,0.338659,3.35882e-06,0.0268428,0.0361079,0.16542,0.16542,-0.328006,-2.77386e-11,-2.87326e-06,-9.52714e-06,0.325919,0.1798885678582871,-2.773858920335215e-11,-2.8732558722266432e-06,0.1798885678582871,-9.527094616990084e-06,-0.2796413024598504
493,0.1805,738.711,737.992,-0.227106,2.90992e-06,-0.00814294,-0.0255939,0.165897,0.165897,-0.328962,-3.57187e-11,-3.37836e-06,-1.04641e-05,0.326875,0.18045150895593354,-3.571865025975285e-11,-3.3783542933152333e-06,0.18045150895593354,-1.0464045251512566e-05,-0.28032963629869934
494,0.1807,739.099,738.391,0.164184,2.34529e-06,0.0174749,0.0169386,0.166075,0.166075,-0.329317,-2.99196e-11,-3.00547e-06,-9.86334e-06,0.327231,0.1806616480263501,-2.991962233522827e-11,-3.005465483596481e-06,0.1806616480263501,-9.86329135743702e-06,-0.28058507393495025
495,0.181,738.606,737.907,-0.328762,2.38555e-06,-0.0192435,-0.0386247,0.166343,0.166343,-0.329856,-3.82372e-11,-3.54558e-06,-1.07025e-05,0.327768,0.1809781077517303,-3.8237191191115016e-11,-3.5455737144030053e-06,0.1809781077517303,-1.0702442728494077e-05,-0.2809727340963005
496,0.1815,739.34,738.641,0.398972,1.4362e-06,0.0285584,0.0423711,0.166745,0.166745,-0.330655,-2.66205e-11,-2.79976e-06,-9.4587e-06,0.328569,0.18145295638922776,-2.6620483595252153e-11,-2.7997560806403143e-06,0.18145295638922776,-9.458655266691984e-06,-0.28154700742900984
497,0.1816,738.762,738.072,-0.176627,1.72105e-06,-0.0105386,-0.0214681,0.166896,0.166896,-0.33096,-3.47215e-11,-3.34103e-06,-1.03479e-05,0.328873,0.18163136925547496,-3.472144793903453e-11,-3.3410244187903615e-06,0.18163136925547496,-1.0347846460700971e-05,-0.2817661021780963
498,0.1819,738.756,738.074,-0.182353,1.51496e-06,-0.00949362,-0.0221606,0.167122,0.167122,-0.331412,-3.48942e-11,-3.34536e-06,-1.04e-05,0.329325,0.18189844812370204,-3.489419864166621e-11,-3.3453544042716388e-06,0.18189844812370204,-1.0399945920225306e-05,-0.2820906705419357
499,0.1823,739.113,738.432,0.170074,1.00094e-06,0.0155134,0.0175907,0.167461,0.167461,-0.332087,-2.90743e-11,-2.96123e-06,-9.80942e-06,0.330001,0.18229917961776643,-2.9074298524278674e-11,-2.9612256156053007e-06,0.18229917961776643,-9.80937188777009e-06,-0.28257509582739304
500,0.1829,738.545,737.851,-0.411486,1.13254e-06,-0.017831,-0.0453767,0.167968,0.167968,-0.333106,-3.78275e-11,-3.49052e-06,-1.08605e-05,0.331019,0.18289875728192717,-3.7827518895028334e-11,-3.4905139081331527e-06,0.18289875728192717,-1.0860441024940215e-05,-0.2833057794582089
501,0.1831,739.199,738.513,0.243478,5.81055e-07,0.0236043,0.0260623,0.168159,0.168159,-0.333483,-2.83903e-11,-2.89136e-06,-9.85126e-06,0.331397,0.18312471252260654,-2.8390290118807116e-11,-2.8913558199894496e-06,0.18312471252260654,-9.851211476452626e-06,-0.28357592225423645
502,0.1835,739.255,738.574,0.297633,4.35866e-07,0.0248489,0.0317257,0.168444,0.168444,-0.334054,-2.71224e-11,-2.8119e-06,-9.69376e-06,0.331968,0.18346195111989294,-2.7122415424685187e-11,-2.811896046561735e-06,0.18346195111989294,-9.693713015623828e-06,-0.2839848836330442
503,0.184,738.8,738.114,-0.165933,6.34255e-07,-0.00529553,-0.0192213,0.168873,0.168873,-0.334913,-3.36001e-11,-3.23875e-06,-1.04529e-05,0.332826,0.18396976521525854,-3.3600122684163125e-11,-3.23874475527397e-06,0.18396976521525854,-1.0452845368602581e-05,-0.28459967652665197
504,0.1842,739.08,738.401,0.115604,3.77785e-07,0.0137382,0.0114677,0.169033,0.169033,-0.335233,-2.94307e-11,-2.96192e-06,-1.00212e-05,0.333146,0.18415921553331427,-2.943068011518335e-11,-2.961915613552968e-06,0.18415921553331427,-1.0021149787986516e-05,-0.28482856800557355
505,0.1844,738.753,738.08,-0.211411,5.86971e-07,-0.0114169,-0.0253794,0.169274,0.169274,-0.335716,-3.4814e-11,-3.32588e-06,-1.0572e-05,0.333629,0.18444463229559638,-3.481404053928827e-11,-3.325874469273238e-06,0.18444463229559638,-1.057194411657747e-05,-0.2851739123998419
506,0.1849,738.651,737.976,-0.319718,5.75825e-07,-0.0162286,-0.0370303,0.169635,0.169635,-0.336438,-3.68805e-11,-3.44186e-06,-1.08454e-05,0.334352,0.18487229399614757,-3.6880498655023075e-11,-3.441854076857709e-06,0.18487229399614757,-1.0845341188892021e-05,-0.28568983056621944
507,0.1855,739.525,738.832,0.538607,1.1995e-06,0.0328375,0.0562261,0.170176,0.170176,-0.337516,-2.40426e-11,-2.62136e-06,-9.31289e-06,0.335431,0.18551348333327655,-2.404254573207254e-11,-2.621356564258548e-06,0.18551348333327655,-9.312846635189942e-06,-0.2864594420337586
508,0.1858,738.696,738.011,-0.289375,1.62456e-06,-0.0183178,-0.0341175,0.170379,0.170379,-0.337926,-3.48789e-11,-3.34636e-06,-1.05961e-05,0.33584,0.18575416699895864,-3.487887756392638e-11,-3.3463544009126878e-06,0.18575416699895864,-1.0596043861554882e-05,-0.2867519336976364
509,0.1861,739.238,738.557,0.250838,9.83545e-07,0.0212075,0.0264541,0.170683,0.170683,-0.338532,-2.62424e-11,-2.75419e-06,-9.70377e-06,0.336446,0.18611469106260747,-2.6242452655367288e-11,-2.7541862072100187e-06,0.18611469106260747,-9.703722918530389e-06,-0.2871840310870831
510,0.1867,738.583,737.894,-0.414033,1.21009e-06,-0.0197585,-0.0467584,0.171139,0.171139,-0.339448,-3.61029e-11,-3.38799e-06,-1.08818e-05,0.337361,0.18665568269845068,-3.6102898448575615e-11,-3.3879842608053323e-06,0.18665568269845068,-1.0881740793444727e-05,-0.28783667155963744
511,0.1869,739.223,738.542,0.227489,6.54154e-07,0.022731,0.0242262,0.17131,0.17131,-0.339786,-2.68613e-11,-2.77822e-06,-9.88311e-06,0.337701,0.1868586181706806,-2.686129096929335e-11,-2.7782161406975092e-06,0.1868586181706806,-9.883061162230256e-06,-0.28807734208903957
512,0.1872,739.236,738.56,0.239917,5.38396e-07,0.021404,0.0253719,0.171567,0.171567,-0.340299,8.15447e-11,-2.74754e-06,-9.80897e-06,0.338214,0.18716368003432082,8.154477093569312e-11,-2.7475362255335867e-06,0.18716368003432082,-9.80892189217375e-06,-0.2884424647505778
513,0.1876,738.912,738.233,-0.0903618,6.43169e-07,-0.00118329,-0.0110785,0.171951,0.171951,-0.34107,-3.08056e-11,-3.05721e-06,-1.03388e-05,0.338984,0.18761963842586238,-3.0805580308879144e-11,-3.057205326784107e-06,0.18761963842586238,-1.033874655476108e-05,-0.288990864175111
514,0.1883,738.458,737.757,-0.562258,2.20466e-06,-0.0247968,-0.0612059,0.172528,0.172528,-0.342226,-3.85418e-11,-3.50297e-06,-1.13273e-05,0.340139,0.18830509269177242,-3.854183638907216e-11,-3.502963864643327e-06,0.18830509269177242,-1.1327235846403383e-05,-0.2898123158455811
515,0.1885,739.215,738.523,0.19756,1.52182e-06,0.0209662,0.020913,0.172672,0.172672,-0.34251,-2.82327e-11,-2.85575e-06,-1.01865e-05,0.340425,0.18847622094605865,-2.8232749471612806e-11,-2.85574592240323e-06,0.18847622094605865,-1.0186448117788238e-05,-0.29001398051014315
516,0.1886,739.084,738.399,0.0681366,1.49096e-06,0.00983155,0.00614142,0.172816,0.172816,-0.342799,-3.01321e-11,-2.99407e-06,-1.03782e-05,0.340713,0.18864737384458796,-3.0132119022141524e-11,-2.9940655177362885e-06,0.18864737384458796,-1.037814614668342e-05,-0.2902191368232606
517,0.1889,739.08,738.402,0.0648362,1.30415e-06,0.00914932,0.00594984,0.173032,0.173032,-0.343231,-2.99804e-11,-2.98558e-06,-1.03684e-05,0.341146,0.18890414940810074,-2.9980351534675265e-11,-2.985575543124064e-06,0.18890414940810074,-1.036834624834615e-05,-0.2905256959346173
518,0.1893,739.033,738.357,0.0154398,1.10664e-06,0.00538376,0.000586689,0.173356,0.173356,-0.343879,-3.04799e-11,-3.02082e-06,-1.04378e-05,0.341794,0.18928941676245015,-3.0479951895756585e-11,-3.0208154373490004e-06,0.18928941676245015,-1.0437745526337139e-05,-0.29098528636027177
519,0.1899,739.238,738.55,0.209194,7.04518e-07,0.0165075,0.0223513,0.173842,0.173842,-0.34485,-2.70934e-11,-2.79837e-06,-1.00438e-05,0.342765,0.18986755189445437,-2.709343860374247e-11,-2.798366084522108e-06,0.18986755189445437,-1.0043749561261528e-05,-0.2916734055113025
520,0.1907,738.991,738.262,-0.0669128,3.06516e-06,0.00269687,-0.00550069,0.17457,0.17457,-0.346308,-2.97839e-11,-2.96818e-06,-1.04534e-05,0.344223,0.19073409085414372,-2.9783953081619075e-11,-2.9681755949750865e-06,0.19073409085414372,-1.0453345363425903e-05,-0.29270539318423994
521,0.191,739.147,738.431,0.0930949,2.60009e-06,0.0115121,0.00936064,0.17478,0.17478,-0.346727,-2.77335e-11,-2.82678e-06,-1.0233e-05,0.344642,0.19098417127074785,-2.7733482177438873e-11,-2.8267760047162582e-06,0.19098417127074785,-1.023294764301852e-05,-0.29300168754649203
522,0.1914,738.915,738.208,-0.137725,2.33087e-06,-0.00510011,-0.0167622,0.175095,0.175095,-0.347358,-3.12038e-11,-3.06634e-06,-1.06332e-05,0.345273,0.19135939037860505,-3.120381730781219e-11,-3.0663352987847503e-06,0.19135939037860505,-1.0633143467719819e-05,-0.29344766276167233
523,0.1919,739.595,738.885,0.535729,1.36578e-06,0.0352246,0.0581463,0.175567,0.175567,-0.348298,-2.12008e-11,-2.37072e-06,-9.36962e-06,0.346214,0.1919218447396509,-2.120081887824199e-11,-2.3707171898923463e-06,0.1919218447396509,-9.369576105200395e-06,-0.29411150990163926
524,0.1921,738.818,738.118,-0.237935,1.77302e-06,-0.0149947,-0.0281209,0.175744,0.175744,-0.348657,-3.10603e-11,-3.07715e-06,-1.05864e-05,0.346571,0.19213283357813116,-3.1060265470728154e-11,-3.077145265595327e-06,0.19213283357813116,-1.0586343964225087e-05,-0.29436487838722025
525,0.1924,738.726,738.033,-0.32908,1.60225e-06,-0.0193366,-0.0382649,0.17601,0.17601,-0.349188,-3.27474e-11,-3.18117e-06,-1.08129e-05,0.347102,0.19244998309087813,-3.274736037894854e-11,-3.181164940135872e-06,0.19244998309087813,-1.0812841540808193e-05,-0.2947394711736101
526,0.1929,739.469,738.777,0.410376,8.00164e-07,0.0296738,0.0445586,0.176407,0.176407,-0.349979,-2.18041e-11,-2.40945e-06,-9.52697e-06,0.347895,0.1929234797170265,-2.18041140698233e-11,-2.409447097284634e-06,0.1929234797170265,-9.52692461853033e-06,-0.2952971116760177
527,0.1931,738.877,738.192,-0.179703,1.1628e-06,-0.0108962,-0.0215382,0.176557,0.176557,-0.350281,9.12604e-11,-2.97592e-06,-1.04545e-05,0.348196,0.19310243166004426,9.126033262418787e-11,-2.9759155719677466e-06,0.19310243166004426,-1.0454445351859576e-05,-0.2955098998156651
528,0.1934,738.872,738.194,-0.183162,1.02753e-06,-0.00967359,-0.021994,0.17678,0.17678,-0.350729,-2.96478e-11,-2.97807e-06,-1.05031e-05,0.348644,0.1933685231704052,-2.964783973880003e-11,-2.9780655655953225e-06,0.1933685231704052,-1.0503044842624654e-05,-0.29582544069411343
529,0.1938,739.224,738.547,0.165991,6.01297e-07,0.0152005,0.0173876,0.177116,0.177116,-0.351398,-2.43257e-11,-2.59377e-06,-9.91333e-06,0.349313,0.1937695623650022,-2.4325652603351955e-11,-2.593766636138639e-06,0.1937695623650022,-9.913280863083074e-06,-0.2962963759288887
530,0.1944,738.666,737.976,-0.40376,8.29368e-07,-0.0176095,-0.0443565,0.177619,0.177619,-0.352407,-3.2217e-11,-3.11876e-06,-1.09504e-05,0.350322,0.19437017949741708,-3.2217006840085105e-11,-3.118755136699569e-06,0.19437017949741708,-1.095034004461315e-05,-0.2970060547923806
531,0.1946,739.305,738.622,0.236655,3.15364e-07,0.0230241,0.0255341,0.177808,0.177808,-0.35278,-2.3701e-11,-2.52658e-06,-9.95453e-06,0.350696,0.19459593679473453,-2.3701041129697842e-11,-2.5265768082149975e-06,0.19459593679473453,-9.954480453822079e-06,-0.29726822263660047
532,0.1949,739.354,738.676,0.285495,2.15883e-07,0.0239913,0.0306243,0.17809,0.17809,-0.353346,-2.26333e-11,-2.45299e-06,-9.80692e-06,0.351262,0.1949328603528997,-2.263333964691583e-11,-2.4529869914191593e-06,0.1949328603528997,-9.806871912321213e-06,-0.2976658562816513
533,0.1954,738.923,738.239,-0.151998,4.48528e-07,-0.00459701,-0.0174645,0.178514,0.178514,-0.354196,-2.82534e-11,-2.85964e-06,-1.05264e-05,0.352112,0.1954396193109964,-2.8253399619870834e-11,-2.8596359111787706e-06,0.1954396193109964,-1.0526344597638904e-05,-0.29826258665747396
534,0.1956,739.18,738.503,0.107268,2.22537e-07,0.0129867,0.0107752,0.178673,0.178673,-0.354513,-2.47003e-11,-2.60138e-06,-1.01253e-05,0.352429,0.19562970932222234,-2.4700352874162945e-11,-2.601376616451212e-06,0.19562970932222234,-1.0125248739334403e-05,-0.2984850021627835
535,0.1959,738.88,738.209,-0.192122,4.33466e-07,-0.0101158,-0.0229563,0.178912,0.178912,-0.354991,-2.92519e-11,-2.93762e-06,-1.06329e-05,0.352907,0.19591549897325322,-2.92519342082187e-11,-2.9376156851501634e-06,0.19591549897325322,-1.0632843470914644e-05,-0.29882024620204106
536,0.1963,738.787,738.114,-0.289833,4.42303e-07,-0.0144793,-0.0334887,0.179269,0.179269,-0.355707,-3.0941e-11,-3.04252e-06,-1.08809e-05,0.353622,0.19634251702457362,-3.094102751788341e-11,-3.0425153715318842e-06,0.19634251702457362,-1.0880840803251246e-05,-0.29932211121664487
537,0.197,738.547,737.856,-0.543502,5.43253e-07,-0.0248938,-0.0594522,0.179805,0.179805,-0.35678,-3.54353e-11,-3.30227e-06,-1.15157e-05,0.354695,0.19698392849661706,-3.543532134386851e-11,-3.30226454747784e-06,0.19698392849661706,-1.151563369461428e-05,-0.300073535380151
538,0.1972,739.35,738.666,0.261658,-5.10176e-08,0.0247445,0.0285744,0.180006,0.180006,-0.357178,-2.46465e-11,-2.58036e-06,-1.02619e-05,0.355094,0.19722454644753884,-2.4646507057468625e-11,-2.5803566708892944e-06,0.19722454644753884,-1.0261847346870745e-05,-0.3003520506848476
539,0.1976,738.878,738.199,-0.210585,3.22186e-07,-0.0102516,-0.0247452,0.180308,0.180308,-0.357783,-3.16956e-11,-3.08548e-06,-1.10551e-05,0.355699,0.19758616286189623,-3.169564610772113e-11,-3.085475239861246e-06,0.19758616286189623,-1.1055038892648916e-05,-0.3007752096756813
540,0.1981,738.716,738.028,-0.380946,3.98653e-07,-0.0179592,-0.0427555,0.180759,0.180759,-0.358688,-3.4682e-11,-3.26214e-06,-1.14704e-05,0.356603,0.19812639603477034,-3.468203502166034e-11,-3.262134679271611e-06,0.19812639603477034,-1.1470334215224476e-05,-0.30140772185599296
541,0.1983,739.251,738.571,0.156075,-2.20488e-08,0.0169459,0.0165657,0.180929,0.180929,-0.359023,-2.71729e-11,-2.75949e-06,-1.06339e-05,0.35694,0.19833009483600383,-2.717293057230563e-11,-2.759486192660532e-06,0.19833009483600383,-1.0633843460339243e-05,-0.3016417110737889
542,0.1986,739.282,738.608,0.188433,-5.47724e-08,0.0177492,0.0200254,0.181183,0.181183,-0.359531,-2.63943e-11,-2.70813e-06,-1.054e-05,0.357448,0.19863450933909732,-2.639433116513601e-11,-2.7081263330730465e-06,0.19863450933909732,-1.053994445443518e-05,-0.30199638698925346
543,0.1991,739.022,738.344,-0.0767604,1.35211e-07,-0.000352832,-0.00916304,0.181564,0.181564,-0.360294,-2.99209e-11,-2.95636e-06,-1.09681e-05,0.358211,0.19909127609569732,-2.992095460285782e-11,-2.9563556299683214e-06,0.19909127609569732,-1.096803985056738e-05,-0.3025287606196131
544,0.1998,738.566,737.867,-0.547447,4.49599e-07,-0.024164,-0.0592664,0.182135,0.182135,-0.361439,-3.74258e-11,-3.40414e-06,-1.19523e-05,0.359355,0.1997761527280184,-3.742584020471895e-11,-3.4041342059643043e-06,0.1997761527280184,-1.195222857153233e-05,-0.30332690816203633
545,0.1999,739.302,738.612,0.191469,-9.73314e-08,0.0204929,0.020659,0.182278,0.182278,-0.361721,-2.7548e-11,-2.76707e-06,-1.08317e-05,0.359637,0.19994773298555457,-2.754796391002401e-11,-2.767066171638355e-06,0.19994773298555457,-1.083164133730552e-05,-0.3035233422754229
546,0.2001,739.173,738.49,0.0650164,1.38105e-08,0.00959708,0.00623464,0.18242,0.18242,-0.362007,-2.93894e-11,-2.90378e-06,-1.10204e-05,0.359923,0.2001181376620842,-2.9389379818667294e-11,-2.9037757840466583e-06,0.2001181376620842,-1.1020339275580326e-05,-0.3037225061177451
547,0.2004,739.17,738.493,0.0634577,7.24916e-09,0.00907051,0.00623415,0.182634,0.182634,-0.362435,-2.9215e-11,-2.89341e-06,-1.10072e-05,0.360351,0.2003749904258092,-2.921496378149868e-11,-2.8934058140528407e-06,0.2003749904258092,-1.1007139421037593e-05,-0.30402044912077586
548,0.2008,739.122,738.447,0.0136813,3.71488e-08,0.00527961,0.000824388,0.182955,0.182955,-0.363077,-2.97173e-11,-2.92976e-06,-1.10771e-05,0.360993,0.20076037264827362,-2.9717339700141565e-11,-2.9297557082585968e-06,0.20076037264827362,-1.1077038649109916e-05,-0.3044671245942713
549,0.2013,739.324,738.637,0.206249,-1.15283e-07,0.0163969,0.0224691,0.183436,0.183436,-0.364038,-2.64027e-11,-2.70654e-06,-1.06814e-05,0.361955,0.20133807731435138,-2.6402657837820698e-11,-2.706536337271359e-06,0.20133807731435138,-1.0681342954010908e-05,-0.3051352106207845
550,0.2022,739.072,738.346,-0.0705978,1.82664e-06,0.0024915,-0.00552053,0.184158,0.184158,-0.365482,-2.90764e-11,-2.88055e-06,-1.10962e-05,0.363399,0.20220575660070228,-2.9076407948025462e-11,-2.8805458511804716e-06,0.20220575660070228,-1.1096138437416414e-05,-0.30613787128142744
551,0.2025,739.232,738.517,0.0930502,1.50389e-06,0.0115393,0.00979192,0.184366,0.184366,-0.365897,-2.70044e-11,-2.73483e-06,-1.08668e-05,0.363814,0.20245584140599338,-2.7004398717167533e-11,-2.7348262603421603e-06,0.20245584140599338,-1.086674095651663e-05,-0.3064257643229077
552,0.2028,738.996,738.29,-0.140336,1.43432e-06,-0.0052985,-0.0166212,0.184678,0.184678,-0.366522,-3.04757e-11,-2.98008e-06,-1.12736e-05,0.364439,0.20283106616052993,-3.047573304826301e-11,-2.9800755595443817e-06,0.20283106616052993,-1.1273536453249022e-05,-0.30685911278470523
553,0.2034,738.719,738.01,-0.422759,1.33081e-06,-0.0199524,-0.0468969,0.185145,0.185145,-0.367459,-3.50882e-11,-3.26366e-06,-1.18823e-05,0.365375,0.20339291945095916,-3.508815460406822e-11,-3.2636546742903505e-06,0.20339291945095916,-1.1882229405735245e-05,-0.3075082816129341
554,0.2036,739.327,738.628,0.189496,7.53298e-07,0.0195791,0.0206005,0.18532,0.18532,-0.367806,-2.65645e-11,-2.69043e-06,-1.09228e-05,0.365724,0.2036035316398921,-2.6564528354811046e-11,-2.690426380791422e-06,0.2036035316398921,-1.0922740346419602e-05,-0.3077485345529186
555,0.2039,739.368,738.676,0.231994,5.96656e-07,0.0207302,0.0251395,0.185583,0.185583,-0.368331,-2.55971e-11,-2.62569e-06,-1.07999e-05,0.366249,0.2039201209983892,-2.5597080011152684e-11,-2.6256865528484497e-06,0.2039201209983892,-1.0799841681286004e-05,-0.30811187118806616
556,0.2044,739.025,738.333,-0.113303,7.14686e-07,-0.00249574,-0.0129131,0.185977,0.185977,-0.369122,-3.02311e-11,-2.95294e-06,-1.13658e-05,0.367039,0.20439455898420822,-3.023115091593809e-11,-2.9529356401214457e-06,0.20439455898420822,-1.136573540949648e-05,-0.30865893830438773
557,0.2046,739.214,738.53,0.0781988,5.03362e-07,0.0107473,0.0079496,0.186125,0.186125,-0.369416,-2.74603e-11,-2.75668e-06,-1.10679e-05,0.367334,0.204572822570118,-2.7460256291078622e-11,-2.756676200310615e-06,0.204572822570118,-1.1067838751044334e-05,-0.30886216270107614
558,0.2048,739.004,738.326,-0.130034,6.19551e-07,-0.00565376,-0.01549,0.186347,0.186347,-0.369861,-3.07229e-11,-2.99287e-06,-1.14193e-05,0.367778,0.20484026742200867,-3.072286869354457e-11,-2.9928655214117583e-06,0.20484026742200867,-1.141923480008078e-05,-0.30916965061753854
559,0.2052,739.447,738.771,0.311666,1.75928e-07,0.0249611,0.0343697,0.186679,0.186679,-0.370523,-2.38256e-11,-2.49773e-06,-1.06302e-05,0.368441,0.20524034079929865,-2.3825608153060784e-11,-2.4977268806569697e-06,0.20524034079929865,-1.0630143499668065e-05,-0.30962682896610005
560,0.2058,738.691,738.001,-0.454455,6.78232e-07,-0.0210144,-0.0499901,0.187177,0.187177,-0.371524,-3.46445e-11,-3.22308e-06,-1.20109e-05,0.36944,0.2058406999660416,-3.464450948342801e-11,-3.223074805935866e-06,0.2058406999660416,-1.2010827869390894e-05,-0.31031754674837997
561,0.2061,739.42,738.738,0.277279,7.69412e-08,0.0263692,0.0306897,0.187364,0.187364,-0.371893,-2.45159e-11,-2.52749e-06,-1.08493e-05,0.369811,0.20606621326177121,-2.4515944829772707e-11,-2.5274868058478006e-06,0.20606621326177121,-1.0849241146582145e-05,-0.3105719926254783
562,0.2064,739.467,738.79,0.325006,9.27099e-09,0.0268928,0.0356372,0.187644,0.187644,-0.372453,-2.34061e-11,-2.45264e-06,-1.06903e-05,0.370371,0.2064039590836928,-2.3406054872054938e-11,-2.4526369922783786e-06,0.2064039590836928,-1.069024285893505e-05,-0.3109579642274728
563,0.2069,738.968,738.285,-0.180021,3.57227e-07,-0.00625663,-0.0200099,0.188064,0.188064,-0.373296,-3.0107e-11,-2.93186e-06,-1.15291e-05,0.371213,0.20691075516623547,-3.0107027981784995e-11,-2.9318557021040803e-06,0.20691075516623547,-1.1529033540180755e-05,-0.31153858189889594
564,0.2071,739.267,738.591,0.121778,9.32163e-08,0.0142727,0.0129684,0.188222,0.188222,-0.373609,-2.5868e-11,-2.62906e-06,-1.1056e-05,0.371527,0.20710146213100522,-2.5867974429161222e-11,-2.629056544023456e-06,0.20710146213100522,-1.1055938882620353e-05,-0.3117540366023416
565,0.2074,738.92,738.249,-0.223938,3.81796e-07,-0.0124564,-0.0259802,0.188458,0.188458,-0.374083,-3.12921e-11,-3.02306e-06,-1.16459e-05,0.372001,0.20738637169407426,-3.129208003826989e-11,-3.0230554305399338e-06,0.20738637169407426,-1.1645832186824023e-05,-0.31208018788503145
566,0.2078,738.824,738.152,-0.32264,4.11055e-07,-0.0165895,-0.0365753,0.188812,0.188812,-0.374792,-3.30798e-11,-3.13196e-06,-1.19056e-05,0.372709,0.20781386213099706,-3.3079761152521314e-11,-3.1319550953812225e-06,0.20781386213099706,-1.190552912866405e-05,-0.3125677501705667
567,0.2085,739.656,738.966,0.496747,-2.05495e-07,0.0308543,0.0526701,0.189343,0.189343,-0.375849,-2.14929e-11,-2.33108e-06,-1.04223e-05,0.373768,0.208455381600134,-2.1492918556020868e-11,-2.3310772829798765e-06,0.208455381600134,-1.0422245688035403e-05,-0.31329398217740567
568,0.2087,738.891,738.209,-0.264925,3.83121e-07,-0.0165353,-0.0305466,0.189542,0.189542,-0.376252,-3.09534e-11,-3.01358e-06,-1.16229e-05,0.374169,0.2086958881506804,-3.095335099345675e-11,-3.013575459176465e-06,0.2086958881506804,-1.1622832454372123e-05,-0.31357066894645946
569,0.2091,739.375,738.697,0.219218,-4.94459e-08,0.0191431,0.0237423,0.18984,0.18984,-0.376846,-2.35591e-11,-2.47023e-06,-1.08092e-05,0.374764,0.20905613319919558,-2.3559154627150747e-11,-2.470226948991794e-06,0.20905613319919558,-1.080914158080315e-05,-0.3139782868945895
570,0.2096,739.614,738.928,0.451987,-2.21678e-07,0.0304415,0.0486819,0.190288,0.190288,-0.37774,-1.98097e-11,-2.19192e-06,-1.02672e-05,0.375659,0.2095979116961908,-1.9809709428386668e-11,-2.1919175977602734e-06,0.2095979116961908,-1.0267147292464252e-05,-0.3145913162411582
571,0.2104,738.717,737.998,-0.465751,3.86136e-07,-0.0167287,-0.0470428,0.190959,0.190959,-0.379087,-3.06395e-11,-2.94311e-06,-1.1869e-05,0.377004,0.2104098242611414,-3.063949094439522e-11,-2.943105669062085e-06,0.2104098242611414,-1.1868929563729758e-05,-0.315513940211436
572,0.2107,739.059,738.352,-0.118671,1.89267e-07,-0.0050118,-0.0140626,0.191165,0.191165,-0.379498,-2.79644e-11,-2.79029e-06,-1.14384e-05,0.377416,0.21065919436917846,-2.7964408566560905e-11,-2.7902861071682494e-06,0.21065919436917846,-1.143833458172594e-05,-0.3157952061778937
573,0.211,739.005,738.305,-0.171395,2.13662e-07,-0.0078665,-0.0202319,0.191475,0.191475,-0.380117,-2.8875e-11,-2.85108e-06,-1.15779e-05,0.378036,0.21103455689761885,-2.887501349135846e-11,-2.8510759356725757e-06,0.21103455689761885,-1.1577832976339408e-05,-0.3162185978920151
574,0.2116,739.52,738.816,0.339508,-1.89687e-07,0.0240882,0.0372049,0.191939,0.191939,-0.381043,-2.14087e-11,-2.30874e-06,-1.06264e-05,0.378962,0.21159660731763297,-2.140865262845182e-11,-2.308737334866251e-06,0.21159660731763297,-1.0626343539987815e-05,-0.31685148639776506
575,0.2118,739.024,738.329,-0.152645,2.04934e-07,-0.00818327,-0.0178303,0.192113,0.192113,-0.381394,-2.75363e-11,-2.76723e-06,-1.14138e-05,0.379313,0.2118074434695194,-2.7536306568265445e-11,-2.767226171207504e-06,0.2118074434695194,-1.1413734862797398e-05,-0.31709122944867263
576,0.2121,738.967,738.279,-0.207585,2.3231e-07,-0.0107748,-0.0239903,0.192375,0.192375,-0.381917,-2.84457e-11,-2.82789e-06,-1.15536e-05,0.379835,0.21212497861499613,-2.844569024773591e-11,-2.827886001477431e-06,0.21212497861499613,-1.1553533257435689e-05,-0.3174482973542746
577,0.2126,739.459,738.771,0.28243,-1.66707e-07,0.0219029,0.0310858,0.192766,0.192766,-0.382697,-2.1331e-11,-2.29866e-06,-1.06803e-05,0.380616,0.21259901214915122,-2.133104803903052e-11,-2.2986573581240677e-06,0.21259901214915122,-1.068024296579928e-05,-0.3179804801040842
578,0.2133,738.644,737.934,-0.546667,4.48706e-07,-0.0237702,-0.058589,0.193353,0.193353,-0.383875,-3.23638e-11,-3.05551e-06,-1.22279e-05,0.381793,0.21331101672218034,-3.236377832394055e-11,-3.055505331972519e-06,0.21331101672218034,-1.2227825239574663e-05,-0.3187834260704945
579,0.2138,738.752,738.043,-0.44027,3.902e-07,-0.0217255,-0.0487777,0.193793,0.193793,-0.384755,-3.3036e-11,-3.11229e-06,-1.22822e-05,0.382673,0.2138449910352722,-3.303601836535108e-11,-3.1122851568143872e-06,0.2138449910352722,-1.228212457404787e-05,-0.3193826329658497
580,0.2144,739.592,738.883,0.397417,-2.42041e-07,0.027903,0.0437272,0.194233,0.194233,-0.385629,-2.1604e-11,-2.31439e-06,-1.08256e-05,0.383549,0.21437920034875813,-2.1604051880785846e-11,-2.314387321789013e-06,0.21437920034875813,-1.0825541403414185e-05,-0.3199772326667182
581,0.2146,738.989,738.289,-0.201466,2.61169e-07,-0.0123192,-0.0231534,0.194398,0.194398,-0.385963,-2.93388e-11,-2.88953e-06,-1.17853e-05,0.383881,0.2145795894484619,-2.9338753648744387e-11,-2.8895258252781275e-06,0.2145795894484619,-1.1785230553673642e-05,-0.32020432234492013
582,0.2149,738.959,738.268,-0.228403,2.61245e-07,-0.0125107,-0.0261697,0.194645,0.194645,-0.386457,-2.98535e-11,-2.9196e-06,-1.18838e-05,0.384376,0.21487962766024937,-2.985345304296061e-11,-2.9195957379490878e-06,0.21487962766024937,-1.1883729387873743e-05,-0.32054005847602973
583,0.2153,739.435,738.745,0.246832,-1.43905e-07,0.0200291,0.0272913,0.195016,0.195016,-0.387196,-2.27876e-11,-2.40142e-06,-1.10495e-05,0.385116,0.21533043162107535,-2.2787549625036263e-11,-2.401417116604243e-06,0.21533043162107535,-1.1049438954469082e-05,-0.3210419938848392
584,0.216,739.718,739.011,0.518225,-3.09444e-07,0.0312955,0.0548015,0.195571,0.195571,-0.388306,-1.8578e-11,-2.08801e-06,-1.039e-05,0.386227,0.21600512722133547,-1.857802800486752e-11,-2.0880078200891106e-06,0.21600512722133547,-1.0389946024091934e-05,-0.3217952191542651
585,0.217,738.766,738.01,-0.461491,2.11135e-06,-0.0133034,-0.0429372,0.196393,0.196393,-0.389956,-2.88506e-11,-2.80523e-06,-1.20607e-05,0.387875,0.21700509436610282,-2.8850588584816705e-11,-2.8052260653277372e-06,0.21700509436610282,-1.2060627270105151e-05,-0.32291333434395675
586,0.2173,739.524,738.784,0.30311,1.37754e-06,0.028037,0.0342295,0.196599,0.196599,-0.390362,-2.02853e-11,-2.17964e-06,-1.09253e-05,0.388283,0.21725582323972947,-2.0285328972136085e-11,-2.1796376246108196e-06,0.21725582323972947,-1.0925240319092921e-05,-0.3231881757336357
587,0.2176,738.996,738.269,-0.219529,1.5755e-06,-0.0107781,-0.0250675,0.196907,0.196907,-0.390981,-2.76194e-11,-2.74818e-06,-1.18166e-05,0.388901,0.21763079577609368,-2.7619351250507407e-11,-2.7481762238101837e-06,0.21763079577609368,-1.181653018422768e-05,-0.32360699261565873
588,0.2182,738.77,738.045,-0.446907,1.41649e-06,-0.021552,-0.0491829,0.197369,0.197369,-0.391906,-3.13102e-11,-2.98696e-06,-1.23539e-05,0.389825,0.21819347117175014,-3.131017667357128e-11,-2.986955539019398e-06,0.21819347117175014,-1.2353823690913757e-05,-0.3242323668673073
589,0.2184,739.4,738.686,0.188018,7.97749e-07,0.0194594,0.0208722,0.197542,0.197542,-0.392249,-2.29599e-11,-2.38678e-06,-1.13471e-05,0.390169,0.2184042368729704,-2.2959856238458087e-11,-2.386777151697217e-06,0.2184042368729704,-1.1347035621889212e-05,-0.3244641154183233
590,0.2187,739.442,738.738,0.234119,6.31076e-07,0.0209078,0.0258328,0.197802,0.197802,-0.392768,-2.2005e-11,-2.31734e-06,-1.12159e-05,0.390688,0.2187210631601899,-2.200495341497799e-11,-2.31733731492767e-06,0.2187210631601899,-1.1215837102063198e-05,-0.32481462757664825
591,0.2192,739.089,738.388,-0.119202,7.59857e-07,-0.00294882,-0.0131479,0.198191,0.198191,-0.393549,-2.65143e-11,-2.65887e-06,-1.18017e-05,0.391469,0.21919523787476192,-2.651434627409799e-11,-2.658866465221621e-06,0.21919523787476192,-1.1801630360186444e-05,-0.3253417414877353
592,0.2194,739.284,738.591,0.0794964,5.33205e-07,0.0108305,0.00853916,0.198337,0.198337,-0.39384,-2.3792e-11,-2.45285e-06,-1.14879e-05,0.39176,0.2193732533743069,-2.3791968395414642e-11,-2.4528469917406426e-06,0.2193732533743069,-1.1487834014278775e-05,-0.32553803847836504
593,0.2196,739.068,738.383,-0.133749,6.58532e-07,-0.00601279,-0.015462,0.198556,0.198556,-0.394279,-2.69735e-11,-2.69867e-06,-1.18509e-05,0.392198,0.2196403253601109,-2.6973534517082953e-11,-2.6986663586026083e-06,0.2196403253601109,-1.185082977839258e-05,-0.32583406229749057
594,0.22,739.515,738.832,0.313453,1.90321e-07,0.0251283,0.0350255,0.198884,0.198884,-0.394933,-2.03683e-11,-2.19063e-06,-1.10425e-05,0.392853,0.22004043300089493,-2.0368262632075584e-11,-2.190627600540118e-06,0.22004043300089493,-1.1042439031827556e-05,-0.32627482267639407
595,0.2206,738.761,738.067,-0.448297,7.06262e-07,-0.0208614,-0.0489415,0.199376,0.199376,-0.395921,-3.05117e-11,-2.92325e-06,-1.24269e-05,0.393841,0.220640840582085,-3.0511704274260865e-11,-2.923245727259882e-06,0.220640840582085,-1.2426822786348879e-05,-0.3269401344334618
596,0.2209,739.477,738.791,0.271004,8.93856e-08,0.0258881,0.030414,0.199561,0.199561,-0.396286,-2.10842e-11,-2.22934e-06,-1.12706e-05,0.394207,0.22086668002709708,-2.1084245460656348e-11,-2.2293375150361783e-06,0.22086668002709708,-1.1270536486973626e-05,-0.3271857564556476
597,0.2212,739.516,738.836,0.312166,2.3682e-08,0.0260429,0.0346499,0.199838,0.199838,-0.396839,-2.01486e-11,-2.16169e-06,-1.1123e-05,0.394761,0.2212049069397295,-2.0148549495502266e-11,-2.161687663537748e-06,0.2212049069397295,-1.1122938139651595e-05,-0.32755771987496307
598,0.2217,739.043,738.359,-0.164423,3.60888e-07,-0.0054274,-0.0178833,0.200252,0.200252,-0.397672,-2.6115e-11,-2.62003e-06,-1.19196e-05,0.395592,0.22171059044046437,-2.611499905214032e-11,-2.620026567701217e-06,0.22171059044046437,-1.1919528961845671e-05,-0.3281176310589228
599,0.2219,739.317,738.64,0.11245,1.06489e-07,0.0134803,0.0123545,0.200408,0.200408,-0.397982,-2.24217e-11,-2.33747e-06,-1.14799e-05,0.395902,0.22190119215912074,-2.2421731138422274e-11,-2.3374672680764874e-06,0.22190119215912074,-1.1479834106209452e-05,-0.32832588231268245
600,0.2222,739.0,738.328,-0.202384,3.76703e-07,-0.0109523,-0.0231111,0.200641,0.200641,-0.39845,-2.70977e-11,-2.70082e-06,-1.20215e-05,0.39637,0.22218592830736683,-2.7097657451236046e-11,-2.7008163527852957e-06,0.22218592830736683,-1.2021427742037183e-05,-0.32864015225485754
601,0.2226,738.915,738.242,-0.289387,3.9799e-07,-0.014587,-0.0324692,0.200991,0.200991,-0.39915,-2.85535e-11,-2.79715e-06,-1.22526e-05,0.39707,0.22261376824989676,-2.8553492903427014e-11,-2.7971460879738785e-06,0.22261376824989676,-1.2252524937195197e-05,-0.3291099397034891
602,0.2233,738.713,738.023,-0.502001,4.98659e-07,-0.0229559,-0.0541591,0.201516,0.201516,-0.4002,-3.21678e-11,-3.02216e-06,-1.28093e-05,0.39812,0.22325580899917785,-3.216782396009421e-11,-3.022155433241025e-06,0.22325580899917785,-1.2809217961318176e-05,-0.32981400456806065
603,0.2235,739.447,738.764,0.234842,-1.04532e-07,0.0227554,0.0265055,0.201712,0.201712,-0.400589,-2.26401e-11,-2.34387e-06,-1.16356e-05,0.398511,0.22349559063557445,-2.2640112007366042e-11,-2.3438672531739257e-06,0.22349559063557445,-1.163553230665304e-05,-0.33007465622025045
604,0.2239,739.556,738.878,0.345018,-1.96832e-07,0.0278715,0.0384409,0.202007,0.202007,-0.401178,-2.07023e-11,-2.19766e-06,-1.13642e-05,0.3991,0.2238565750773993,-2.0702328740185294e-11,-2.1976575851345714e-06,0.2238565750773993,-1.1364135427682776e-05,-0.33046912606496326
605,0.2244,738.954,738.268,-0.261921,2.93833e-07,-0.0107681,-0.0282354,0.202449,0.202449,-0.402066,-2.85248e-11,-2.77991e-06,-1.2406e-05,0.399987,0.22439763924995693,-2.8524849149391684e-11,-2.7799061360633814e-06,0.22439763924995693,-1.2405923045855083e-05,-0.33106340558186076
606,0.2246,739.379,738.701,0.166245,-7.61203e-08,0.017822,0.0186423,0.202615,0.202615,-0.402395,-2.28025e-11,-2.35377e-06,-1.17223e-05,0.400317,0.2246009061287566,-2.2802537635868703e-11,-2.3537672299012158e-06,0.2246009061287566,-1.1722231294086782e-05,-0.33128344952221134
607,0.2249,739.362,738.689,0.151171,-6.31644e-08,0.0151072,0.0167576,0.202864,0.202864,-0.402892,-2.27827e-11,-2.35729e-06,-1.1709e-05,0.400814,0.2249058697207742,-2.2782664643727912e-11,-2.3572872216437446e-06,0.2249058697207742,-1.1708931449971871e-05,-0.3316157190719763
608,0.2254,739.205,738.529,-0.00857577,6.04294e-08,0.00386806,-0.000694563,0.203236,0.203236,-0.403639,-2.46266e-11,-2.50074e-06,-1.19527e-05,0.40156,0.22536161946850752,-2.4626634065327835e-11,-2.500736873134457e-06,0.22536161946850752,-1.1952628566791468e-05,-0.3321148156940328
609,0.226,739.698,739.002,0.472641,-2.95169e-07,0.0298172,0.0520703,0.203795,0.203795,-0.404754,-1.7863e-11,-1.98607e-06,-1.09467e-05,0.402676,0.22604678810058143,-1.786304437700892e-11,-1.98606802781498e-06,0.22604678810058143,-1.0946640085052195e-05,-0.33285909266301505
610,0.2263,739.01,738.323,-0.211772,2.6149e-07,-0.0122957,-0.0239855,0.203999,0.203999,-0.405165,-2.57001e-11,-2.59764e-06,-1.20537e-05,0.403086,0.22629692715867034,-2.57001087078379e-11,-2.5976366261337702e-06,0.22629692715867034,-1.205362735445803e-05,-0.3331332312365948
611,0.2267,739.429,738.746,0.207961,-1.18555e-07,0.0181992,0.0230025,0.204305,0.204305,-0.405775,-1.96879e-11,-2.12017e-06,-1.13304e-05,0.403696,0.22667223143700688,-1.968791796258529e-11,-2.1201677524729234e-06,0.22667223143700688,-1.1330335811243764e-05,-0.33353989592020195
612,0.2272,739.628,738.937,0.401499,-2.54655e-07,0.0271961,0.0435934,0.204763,0.204763,-0.40669,-1.66955e-11,-1.88049e-06,-1.08573e-05,0.404613,0.2272341759944858,-1.6695533844313104e-11,-1.8804882319090055e-06,0.2272341759944858,-1.0857241059758493e-05,-0.33414942801197667
613,0.2281,738.912,738.188,-0.332753,2.48968e-07,-0.0101781,-0.0323552,0.205451,0.205451,-0.408069,-2.43677e-11,-2.46704e-06,-1.21199e-05,0.40599,0.22807880362615873,-2.4367730055985248e-11,-2.46703695683248e-06,0.22807880362615873,-1.2119826554357616e-05,-0.3350670031372911
614,0.2283,739.477,738.765,0.237616,-1.74682e-07,0.0228081,0.026956,0.205654,0.205654,-0.408473,-1.79574e-11,-1.96268e-06,-1.12379e-05,0.406395,0.2283281289289567,-1.7957413334102057e-11,-1.9626780739523397e-06,0.2283281289289567,-1.1237836855082506e-05,-0.3353355818114784
615,0.2287,739.53,738.826,0.294233,-2.07989e-07,0.0240167,0.0326737,0.205959,0.205959,-0.409083,-1.68994e-11,-1.87872e-06,-1.10648e-05,0.407006,0.22870282614670123,-1.6899370791634283e-11,-1.8787182352042464e-06,0.22870282614670123,-1.1064738785315775e-05,-0.3357409034708989
616,0.2293,739.08,738.373,-0.159291,1.50421e-07,-0.0046774,-0.0168675,0.206417,0.206417,-0.410001,-2.20651e-11,-2.30005e-06,-1.1827e-05,0.407923,0.22926570092956244,-2.2065127502912674e-11,-2.3000473549084077e-06,0.22926570092956244,-1.1826930061298313e-05,-0.33635041351359896
617,0.2295,739.356,738.659,0.12171,-8.43966e-08,0.0139844,0.0135916,0.206589,0.206589,-0.410343,-1.85931e-11,-2.01638e-06,-1.13775e-05,0.408265,0.22947715281446301,-1.859312703800242e-11,-2.0163779671511506e-06,0.22947715281446301,-1.1377435276460623e-05,-0.33657734286504637
618,0.2298,739.008,738.318,-0.223905,2.34061e-07,-0.0121221,-0.0253673,0.206846,0.206846,-0.410859,-2.33807e-11,-2.41071e-06,-1.19818e-05,0.408781,0.2297931690490831,-2.3380741787093484e-11,-2.410707094280262e-06,0.2297931690490831,-1.1981728218479759e-05,-0.33691958065118555
619,0.2303,738.848,738.158,-0.385185,3.43637e-07,-0.0198729,-0.0427136,0.207232,0.207232,-0.411632,-2.58793e-11,-2.58882e-06,-1.2373e-05,0.409553,0.23026796084125678,-2.58792987040124e-11,-2.5888166490517506e-06,0.23026796084125678,-1.2372923454795348e-05,-0.33743194376148744
620,0.231,739.779,739.07,0.534799,-3.19724e-07,0.0315609,0.0567087,0.20781,0.20781,-0.412784,-1.46176e-11,-1.69977e-06,-1.06739e-05,0.410707,0.23097926126864365,-1.461764043142466e-11,-1.6997685553521436e-06,0.23097926126864365,-1.067384303410357e-05,-0.33819478268269165
621,0.2315,738.836,738.127,-0.40894,3.91505e-07,-0.0201178,-0.0450033,0.208244,0.208244,-0.413656,-2.47316e-11,-2.50519e-06,-1.2279e-05,0.411578,0.23151362221597238,-2.4731550141154912e-11,-2.5051868620673545e-06,0.23151362221597238,-1.2278924613418063e-05,-0.3387716252922628
622,0.232,738.784,738.076,-0.461751,4.22279e-07,-0.0232527,-0.050721,0.208677,0.208677,-0.414524,-2.66028e-11,-2.64056e-06,-1.25571e-05,0.412445,0.23204698307868532,-2.6602831049160613e-11,-2.640556513777703e-06,0.23204698307868532,-1.2557021159986803e-05,-0.33934532250090077
623,0.2322,739.402,738.703,0.160065,-9.93023e-08,0.0172779,0.0180037,0.20884,0.20884,-0.414845,8.6811e-11,-2.04525e-06,-1.15634e-05,0.412768,0.23224782310494474,8.681100283070009e-11,-2.0452479084775987e-06,0.23224782310494474,-1.1563333144115617e-05,-0.33955735861876035
624,0.2325,739.439,738.748,0.200544,-1.32289e-07,0.0187171,0.022424,0.209084,0.209084,-0.415332,-1.81815e-11,-1.98309e-06,-1.14496e-05,0.413255,0.23254852825831906,-1.8181456340471414e-11,-1.9830880336746404e-06,0.23254852825831906,-1.1449534453533694e-05,-0.33987891587956476
625,0.233,739.143,738.454,-0.095448,1.16173e-07,-0.00175077,-0.0102916,0.209449,0.209449,-0.416065,-2.17293e-11,-2.27639e-06,-1.19417e-05,0.413987,0.23299849058426236,-2.1729285037963564e-11,-2.2763874090170333e-06,0.23299849058426236,-1.1941628698219908e-05,-0.34036260733964807
626,0.2337,739.754,739.049,0.506599,-3.14923e-07,0.030828,0.0541651,0.209997,0.209997,-0.417157,-1.42664e-11,-1.66313e-06,-1.07595e-05,0.415081,0.23367435892811494,-1.4266365866433262e-11,-1.6631286170465387e-06,0.23367435892811494,-1.0759442116814455e-05,-0.3410825382186322
627,0.2344,738.736,738.02,-0.518094,4.52783e-07,-0.0233507,-0.055499,0.210545,0.210545,-0.418258,-2.54359e-11,-2.54288e-06,-1.25796e-05,0.41618,0.23435059774932143,-2.543587562797711e-11,-2.5428767669311014e-06,0.23435059774932143,-1.2579520877187278e-05,-0.34180760712037905
628,0.235,738.746,738.021,-0.514426,4.35791e-07,-0.0231731,-0.0550329,0.211092,0.211092,-0.419353,-2.70519e-11,-2.65551e-06,-1.28448e-05,0.417275,0.2350259722243695,-2.705191626262149e-11,-2.6555064741584644e-06,0.2350259722243695,-1.2844717505955394e-05,-0.34252793334000287
629,0.2355,738.907,738.188,-0.350983,3.24223e-07,-0.0171515,-0.0385263,0.211502,0.211502,-0.420172,-2.65936e-11,-2.6343e-06,-1.27537e-05,0.418095,0.23553243669110224,-2.6593616198056225e-11,-2.6342965302461607e-06,0.23553243669110224,-1.2753618671923483e-05,-0.3430661825194721
630,0.236,739.509,738.794,0.252199,-1.74401e-07,0.0196617,0.0284124,0.211912,0.211912,-0.420989,-1.88641e-11,-2.04089e-06,-1.17e-05,0.418913,0.2360391088508409,-1.8864132478313422e-11,-2.040887917331702e-06,0.2360391088508409,-1.1699931555253507e-05,-0.34360267826000157
631,0.2362,739.128,738.423,-0.124297,1.63324e-07,-0.00621682,-0.0138176,0.212066,0.212066,-0.421299,9.99234e-11,-2.41443e-06,-1.2314e-05,0.419222,0.23622947353130797,9.992340288533796e-11,-2.414427085262183e-06,0.23622947353130797,-1.231392418299393e-05,-0.34380612989310855
632,0.2365,739.555,738.86,0.307006,-2.46916e-07,0.0271933,0.0349378,0.212297,0.212297,-0.421758,-1.71751e-11,-1.88557e-06,-1.15508e-05,0.419682,0.23651507552545414,-1.7175150190951172e-11,-1.8855682223373194e-06,0.23651507552545414,-1.155073328973355e-05,-0.34410725376627194
633,0.2369,739.559,738.867,0.312126,-2.31806e-07,0.024311,0.0348332,0.212642,0.212642,-0.422449,-1.66507e-11,-1.84884e-06,-1.14393e-05,0.420373,0.23694174682307723,-1.6650680834118248e-11,-1.8488382909076506e-06,0.23694174682307723,-1.1439234571475332e-05,-0.3445603191018185
634,0.2376,739.17,738.467,-0.0838646,7.82554e-08,0.000189865,-0.00777533,0.213161,0.213161,-0.423488,-2.07483e-11,-2.18799e-06,-1.20744e-05,0.421412,0.23758388621043536,-2.0748291973404775e-11,-2.187987606316888e-06,0.23758388621043536,-1.207432710470524e-05,-0.3452409672723159
635,0.2378,739.357,738.663,0.107233,-8.42303e-08,0.012606,0.0123384,0.213355,0.213355,-0.423876,-1.83732e-11,-1.98997e-06,-1.1767e-05,0.4218,0.23782400077471988,-1.8373191856824178e-11,-1.9899680200330394e-06,0.23782400077471988,-1.1766930769097073e-05,-0.3454949644983659
636,0.2382,739.081,738.393,-0.166177,1.68216e-07,-0.00739697,-0.0184721,0.213647,0.213647,-0.42446,-2.19997e-11,-2.29201e-06,-1.22496e-05,0.422384,0.2381854981589957,-2.1999735366762252e-11,-2.292007373339011e-06,0.2381854981589957,-1.2249524973917403e-05,-0.3458770838493881
637,0.2387,738.841,738.149,-0.409215,3.52348e-07,-0.0200158,-0.0446468,0.214084,0.214084,-0.425336,-2.55158e-11,-2.5501e-06,-1.27958e-05,0.423259,0.23872670346643798,-2.5515811685750123e-11,-2.550096748543673e-06,0.23872670346643798,-1.2795718134062106e-05,-0.3464498446180925
638,0.2389,739.414,738.729,0.167256,-1.4342e-07,0.0178711,0.0190872,0.214247,0.214247,-0.42566,-1.84271e-11,-1.98761e-06,-1.18651e-05,0.423584,0.23892863237586215,-1.842714869582096e-11,-1.9876080247227534e-06,0.23892863237586215,-1.1865029609925415e-05,-0.3466615605686001
639,0.2392,739.436,738.757,0.191646,-1.57199e-07,0.0180411,0.0216699,0.214493,0.214493,-0.426151,-1.78716e-11,-1.94422e-06,-1.17778e-05,0.424076,0.2392334463100032,-1.7871593094298532e-11,-1.9442181099504907e-06,0.2392334463100032,-1.1777730641981954e-05,-0.3469822710015066
640,0.2397,739.172,738.492,-0.073891,7.52962e-08,-0.000348402,-0.00762652,0.214862,0.214862,-0.42689,-2.09866e-11,-2.2051e-06,-1.22154e-05,0.424814,0.23969080782970242,-2.0986545834489334e-11,-2.2050975687637475e-06,0.23969080782970242,-1.2215325392306298e-05,-0.3474646728338052
641,0.2404,738.733,738.034,-0.523534,4.24707e-07,-0.0234876,-0.0557056,0.215414,0.215414,-0.427997,-2.71462e-11,-2.6513e-06,-1.31756e-05,0.42592,0.2403753060597551,-2.7146174197412165e-11,-2.651296485356447e-06,0.2403753060597551,-1.3175513202123845e-05,-0.34818662976409054
642,0.2406,739.534,738.844,0.281266,-2.38564e-07,0.0262352,0.0322846,0.215616,0.215616,-0.428395,-1.74975e-11,-1.89885e-06,-1.18689e-05,0.42632,0.24062588717942024,-1.7497447934999855e-11,-1.898848197234848e-06,0.24062588717942024,-1.1868829564831707e-05,-0.3484459998673701
643,0.241,739.035,738.35,-0.215105,2.40054e-07,-0.0105856,-0.0237804,0.215918,0.215918,-0.429003,-2.4169e-11,-2.44945e-06,-1.2727e-05,0.426927,0.24100061277806573,-2.4169000134577345e-11,-2.449447000119065e-06,0.24100061277806573,-1.2726919012107096e-05,-0.3488420242958248
644,0.2416,738.855,738.163,-0.399523,3.65644e-07,-0.0190472,-0.0433018,0.216371,0.216371,-0.42991,-2.70041e-11,-2.6481e-06,-1.3181e-05,0.427834,0.2415629134071311,-2.7004065650260145e-11,-2.6480964937514173e-06,0.2415629134071311,-1.3180913130961258e-05,-0.3494323568235175
645,0.2418,739.415,738.731,0.164096,-1.30568e-07,0.0175567,0.0189451,0.216541,0.216541,-0.430247,-1.99338e-11,-2.10187e-06,-1.2268e-05,0.428171,0.24177399704401092,-1.993383236253976e-11,-2.101867791037826e-06,0.24177399704401092,-1.2267924748399217e-05,-0.34965156118125906
646,0.2421,739.448,738.77,0.199309,-1.5656e-07,0.0184857,0.0227175,0.216796,0.216796,-0.430756,-1.92002e-11,-2.04504e-06,-1.21593e-05,0.428681,0.24209068978986625,-1.9200196987867457e-11,-2.0450379089043125e-06,0.24209068978986625,-1.2159226076002838e-05,-0.3499825043044479
647,0.2426,739.164,738.484,-0.0864874,9.59628e-08,-0.000990932,-0.00876747,0.217178,0.217178,-0.431522,-2.26331e-11,-2.32426e-06,-1.26338e-05,0.429446,0.24256525907032755,-2.2633117602310904e-11,-2.3242572989579102e-06,0.24256525907032755,-1.2633720193888642e-05,-0.35048022705400084
648,0.2433,738.729,738.028,-0.532674,4.43428e-07,-0.0234041,-0.0562114,0.21775,0.21775,-0.43267,-2.89094e-11,-2.76516e-06,-1.36001e-05,0.430593,0.24327620971101482,-2.890943040512184e-11,-2.7651561769204136e-06,0.24327620971101482,-1.3600007519043444e-05,-0.35122544791472465
649,0.2435,739.444,738.752,0.186432,-1.61632e-07,0.0200169,0.0215554,0.217893,0.217893,-0.432952,-2.03295e-11,-2.1226e-06,-1.24672e-05,0.430877,0.2434540109214871,-2.0329515848516166e-11,-2.1225977472338897e-06,0.2434540109214871,-1.2467122284753884e-05,-0.3514083765442636
650,0.2436,739.318,738.633,0.0635716,-3.26859e-08,0.00943383,0.00753816,0.218037,0.218037,-0.433239,-2.19586e-11,-2.26015e-06,-1.2655e-05,0.431164,0.2436330811918097,-2.195854609254866e-11,-2.2601474458650017e-06,0.2436330811918097,-1.2654919925858543e-05,-0.351594495630829
651,0.2439,739.313,738.635,0.0621645,-3.47536e-08,0.00892938,0.00755329,0.218251,0.218251,-0.433668,-2.18028e-11,-2.24934e-06,-1.26381e-05,0.431593,0.2438992471499266,-2.180278180219375e-11,-2.2493374702836633e-06,0.2438992471499266,-1.263802013951043e-05,-0.35187260193413605
652,0.2443,739.266,738.589,0.0146161,4.28549e-09,0.00530336,0.00239525,0.218573,0.218573,-0.434312,-2.22234e-11,-2.28464e-06,-1.27017e-05,0.432237,0.24429984720065567,-2.222344530622422e-11,-2.284637390159716e-06,0.24429984720065567,-1.2701619333754799e-05,-0.3522898616064549
653,0.2449,739.462,738.774,0.20424,-1.596e-07,0.0162345,0.0237143,0.219056,0.219056,-0.435276,-1.93106e-11,-2.05638e-06,-1.22891e-05,0.433202,0.24490098919095749,-1.9310553156515198e-11,-2.0563778856397263e-06,0.24490098919095749,-1.228902448935365e-05,-0.3529139533193302
654,0.2458,739.219,738.491,-0.0600442,2.50405e-08,0.00294957,-0.00294263,0.219779,0.219779,-0.436725,-2.14887e-11,-2.22472e-06,-1.26824e-05,0.43465,0.24580137805749636,-2.1488699708527292e-11,-2.224717525312059e-06,0.24580137805749636,-1.2682319578738444e-05,-0.35385090201770364
655,0.2461,739.355,738.64,0.0823452,-8.28617e-08,0.0107178,0.0100196,0.21998,0.21998,-0.437125,-1.98827e-11,-2.09411e-06,-1.24778e-05,0.435051,0.24605180930198278,-1.988265108110454e-11,-2.094107807382173e-06,0.24605180930198278,-1.2477722152626214e-05,-0.3541093099718603
656,0.2464,739.153,738.446,-0.116225,1.09936e-07,-0.00381649,-0.0124867,0.220281,0.220281,-0.437728,-2.25324e-11,-2.31114e-06,-1.28305e-05,0.435653,0.2464269273490165,-2.2532420373977402e-11,-2.311137329291668e-06,0.2464269273490165,-1.2830417689513318e-05,-0.35449866465571234
657,0.247,739.719,739.011,0.448268,-3.55863e-07,0.0306881,0.0505532,0.220732,0.220732,-0.438627,-1.50322e-11,-1.6916e-06,-1.17187e-05,0.436554,0.24698919267455155,-1.5032197708819695e-11,-1.6915985692200763e-06,0.24698919267455155,-1.1718631336310459e-05,-0.3550787095869242
658,0.2472,739.076,738.378,-0.189754,2.25824e-07,-0.0113085,-0.0207935,0.220901,0.220901,-0.438969,-2.23172e-11,-2.30714e-06,-1.2766e-05,0.436895,0.2471999516567458,-2.2317148129502584e-11,-2.3071373385086247e-06,0.2471999516567458,-1.2765918514956454e-05,-0.3552992349562579
659,0.2475,739.013,738.322,-0.249606,2.64359e-07,-0.0139672,-0.0274991,0.221155,0.221155,-0.439477,-2.32548e-11,-2.37741e-06,-1.2924e-05,0.437402,0.24751678068004912,-2.325484249610099e-11,-2.3774071740145786e-06,0.24751678068004912,-1.2923916485441111e-05,-0.3556266597719555
660,0.248,739.566,738.876,0.303059,-2.34545e-07,0.0233607,0.0345868,0.221535,0.221535,-0.440235,-1.58706e-11,-1.76299e-06,-1.19147e-05,0.438161,0.2479909271388292,-1.5870638137016613e-11,-1.7629884458969514e-06,0.2479909271388292,-1.1914629020282064e-05,-0.3561149096937505
661,0.2487,739.784,739.076,0.511656,-3.54226e-07,0.030536,0.0549345,0.222105,0.222105,-0.441374,-1.27989e-11,-1.49901e-06,-1.13299e-05,0.439301,0.2487024847419499,-1.279887307248373e-11,-1.4990088764710308e-06,0.2487024847419499,-1.1329835816975553e-05,-0.35684787730731216
662,0.2494,738.907,738.186,-0.372655,3.08294e-07,-0.0144585,-0.0377516,0.222675,0.222675,-0.442519,-2.14111e-11,-2.217e-06,-1.28485e-05,0.440444,0.24941444804851876,-2.1411095119105994e-11,-2.2169975424368715e-06,0.24941444804851876,-1.2848417458410921e-05,-0.3575838650544019
663,0.2496,739.447,738.736,0.171957,-1.40705e-07,0.0187066,0.019926,0.222818,0.222818,-0.442801,-1.54943e-11,-1.71913e-06,-1.19983e-05,0.440727,0.2495931270898366,-1.5494272531668685e-11,-1.7191285223150388e-06,0.2495931270898366,-1.1998228020670965e-05,-0.35776500086310714
664,0.2499,739.414,738.713,0.14341,-1.0553e-07,0.0149106,0.0165357,0.223032,0.223032,-0.443228,-1.57175e-11,-1.74355e-06,-1.20122e-05,0.441154,0.24986056863425854,-1.5717538381920804e-11,-1.74354848003766e-06,0.24986056863425854,-1.2012127853844312e-05,-0.35803917666703855
665,0.2503,739.259,738.564,-0.00875279,3.13749e-08,0.00361897,-0.000245046,0.223352,0.223352,-0.44387,-1.73835e-11,-1.89365e-06,-1.225e-05,0.441796,0.250260588015909,-1.7383539052673314e-11,-1.89364820701865e-06,0.250260588015909,-1.2249924969065518e-05,-0.3584511832473549
666,0.2509,739.62,738.918,0.348126,-2.57478e-07,0.0243038,0.0394761,0.223832,0.223832,-0.444828,-1.28117e-11,-1.48948e-06,-1.15029e-05,0.442755,0.25086085715122386,-1.2811751659569381e-11,-1.4894788906705259e-06,0.25086085715122386,-1.1502833841881e-05,-0.3590654927125875
667,0.2518,738.765,738.029,-0.52475,3.85106e-07,-0.0183942,-0.0508776,0.224552,0.224552,-0.446273,-2.17521e-11,-2.22252e-06,-1.3131e-05,0.444199,0.25176180126933456,-2.175204460996838e-11,-2.222517530237056e-06,0.25176180126933456,-1.313091378885023e-05,-0.35999097425416826
668,0.252,739.17,738.446,-0.11399,1.45607e-07,-0.0048153,-0.0122536,0.224752,0.224752,-0.446671,-1.91125e-11,-2.03697e-06,-1.25997e-05,0.444597,0.2520121786664935,-1.911248936892207e-11,-2.0369679253340323e-06,0.2520121786664935,-1.2599620624165198e-05,-0.36024564716314444
669,0.2524,739.058,738.345,-0.220979,2.36354e-07,-0.0115917,-0.0246304,0.225051,0.225051,-0.44727,-2.06855e-11,-2.16576e-06,-1.28429e-05,0.445196,0.2523865862790635,-2.0685453350210992e-11,-2.1657576547706725e-06,0.2523865862790635,-1.2842817530334116e-05,-0.36062874527115574
670,0.2529,739.7,738.987,0.420759,-3.11871e-07,0.0290142,0.0474782,0.2255,0.2255,-0.448164,-1.26084e-11,-1.46329e-06,-1.16093e-05,0.446092,0.25294903411639313,-1.2608358801458053e-11,-1.4632889293597628e-06,0.25294903411639313,-1.1609232612341813e-05,-0.36120008774474455
671,0.2532,739.085,738.382,-0.189471,2.42471e-07,-0.0113607,-0.0206779,0.225669,0.225669,-0.448505,-1.92643e-11,-2.05888e-06,-1.26161e-05,0.446431,0.25316080039690547,-1.926425685638833e-11,-2.0588778805175068e-06,0.25316080039690547,-1.2616020417355323e-05,-0.3614178813788985
672,0.2535,739.032,738.338,-0.238665,2.67872e-07,-0.0132626,-0.0261948,0.225921,0.225921,-0.44901,-2.00022e-11,-2.1169e-06,-1.27546e-05,0.446936,0.2534766367123098,-2.000222210085667e-11,-2.116897759418812e-06,0.2534766367123098,-1.275451866045163e-05,-0.361740283935305
673,0.254,739.554,738.861,0.283335,-2.07365e-07,0.0220941,0.0324743,0.2263,0.2263,-0.449764,-1.33694e-11,-1.53237e-06,-1.17969e-05,0.447691,0.2539517943943168,-1.3369416684838598e-11,-1.5323688259405444e-06,0.2539517943943168,-1.1796830416854753e-05,-0.36222135037637826
674,0.2547,739.787,739.077,0.507608,-3.4289e-07,0.0303348,0.0546249,0.226867,0.226867,-0.450898,-1.03454e-11,-1.25364e-06,-1.11862e-05,0.448826,0.254662986665694,-1.0345391210364596e-11,-1.2536392142159514e-06,0.254662986665694,-1.1186137434671117e-05,-0.3629441814423763
675,0.2554,738.902,738.179,-0.384856,3.23925e-07,-0.0152132,-0.0390271,0.227435,0.227435,-0.452037,-1.86178e-11,-1.98708e-06,-1.27325e-05,0.449964,0.25537583767264094,-1.86177739891491e-11,-1.987078025789124e-06,0.25537583767264094,-1.2732418942063006e-05,-0.36366937494361373
676,0.2556,739.457,738.744,0.174873,-1.37386e-07,0.0189116,0.0203404,0.227576,0.227576,-0.452318,-1.28373e-11,-1.47269e-06,-1.18531e-05,0.450245,0.25555285814540274,-1.283728678913576e-11,-1.4726889155936007e-06,0.25555285814540274,-1.1853029752262323e-05,-0.3638481587289564
677,0.2558,739.423,738.721,0.146027,-1.0241e-07,0.0150685,0.0169185,0.227789,0.227789,-0.452743,-1.3059e-11,-1.49778e-06,-1.1867e-05,0.450671,0.2558203193877988,-1.3058998327153404e-11,-1.4977788783676615e-06,0.2558203193877988,-1.1866929587434072e-05,-0.36411846581717155
678,0.2562,739.264,738.568,-0.0103888,3.75901e-08,0.00344998,-0.000343857,0.228108,0.228108,-0.453382,-1.46993e-11,-1.65396e-06,-1.21133e-05,0.451309,0.25622098997324416,-1.4699352846037073e-11,-1.6539586321639987e-06,0.25622098997324416,-1.2113226634302698e-05,-0.36452466432327013
679,0.2568,739.63,738.927,0.351652,-2.55913e-07,0.0244856,0.039957,0.228586,0.228586,-0.454336,-1.03266e-11,-1.2424e-06,-1.13526e-05,0.452264,0.2568216071425189,-1.0326628441248431e-11,-1.2423992282739604e-06,0.2568216071425189,-1.1352535559505661e-05,-0.3651306187073071
680,0.2577,738.755,738.019,-0.540345,3.9994e-07,-0.0192466,-0.0524789,0.229303,0.229303,-0.455774,-1.90118e-11,-1.99942e-06,-1.30283e-05,0.453701,0.2577230713711467,-1.9011792140588568e-11,-1.9994180011639884e-06,0.2577230713711467,-1.3028215132049326e-05,-0.36604290478670953
681,0.258,739.174,738.45,-0.115621,1.50906e-07,-0.00500741,-0.0123445,0.229501,0.229501,-0.456169,-1.64053e-11,-1.80374e-06,-1.24726e-05,0.454096,0.25797212519479307,-1.6405321545676088e-11,-1.8037383732183443e-06,0.25797212519479307,-1.2472522217477078e-05,-0.366293268389252
682,0.2583,739.054,738.341,-0.230424,2.48648e-07,-0.0123336,-0.0256124,0.229799,0.229799,-0.456766,-1.80171e-11,-1.94307e-06,-1.27323e-05,0.454693,0.25834705675012826,-1.801714333282689e-11,-1.9430681121868076e-06,0.25834705675012826,-1.2732218944599971e-05,-0.3666714784011019
683,0.2589,739.719,739.006,0.433904,-3.18092e-07,0.0297771,0.0490269,0.230246,0.230246,-0.457656,-1.00928e-11,-1.2127e-06,-1.14503e-05,0.455584,0.2589096636177626,-1.0092815472262373e-11,-1.2126992646743773e-06,0.2589096636177626,-1.1450234445598007e-05,-0.36723489002996024
684,0.2591,739.085,738.382,-0.195455,2.53389e-07,-0.0119189,-0.0212566,0.230414,0.230414,-0.457995,-1.66178e-11,-1.83128e-06,-1.24938e-05,0.455922,0.25912117820797853,-1.6617818232589343e-11,-1.8312783232055097e-06,0.25912117820797853,-1.2493721952777648e-05,-0.3674493610473487
685,0.2594,739.032,738.338,-0.243611,2.76603e-07,-0.0137004,-0.0266579,0.230665,0.230665,-0.458497,-1.73105e-11,-1.88879e-06,-1.26322e-05,0.456425,0.25943725728997413,-1.7310486377652978e-11,-1.8887882162754721e-06,0.25943725728997413,-1.2632120214073339e-05,-0.3677668217787926
686,0.2599,739.559,738.867,0.283607,-2.04109e-07,0.0220876,0.0325962,0.231042,0.231042,-0.459248,-1.09415e-11,-1.2954e-06,-1.1661e-05,0.457176,0.2599121546484997,-1.0941469952285843e-11,-1.2953991609387927e-06,0.2599121546484997,-1.1660932010770786e-05,-0.3682414506501879
687,0.2606,739.782,739.072,0.497146,-3.32991e-07,0.0298003,0.0536331,0.231607,0.231607,-0.460377,-8.21028e-12,-1.02646e-06,-1.10698e-05,0.458306,0.26062420615148363,-8.210321311707958e-12,-1.0264594731967946e-06,0.26062420615148363,-1.1069738729996281e-05,-0.3689543035712106
688,0.2613,738.925,738.203,-0.366255,3.09019e-07,-0.0143521,-0.0369895,0.232171,0.232171,-0.461511,-1.57527e-11,-1.73881e-06,-1.25688e-05,0.459438,0.26133539874121103,-1.575273245180142e-11,-1.7388084883052102e-06,0.26133539874121103,-1.2568721012962136e-05,-0.36966950379579055
689,0.2615,739.453,738.742,0.167115,-1.3063e-07,0.0182075,0.0195473,0.232312,0.232312,-0.46179,7.83311e-11,-1.2453e-06,-1.17268e-05,0.459718,0.2615132595713274,7.833111936861314e-11,-1.245299224628127e-06,0.2615132595713274,-1.1726731241390453e-05,-0.3698453414737348
690,0.2618,739.419,738.718,0.137821,-9.56191e-08,0.0144025,0.0160837,0.232524,0.232524,-0.462213,-1.07457e-11,-1.27146e-06,-1.17431e-05,0.460142,0.261780728733086,-1.0745737633044428e-11,-1.2714591917095674e-06,0.261780728733086,-1.1743031050115427e-05,-0.3701118405257682
691,0.2622,739.273,738.578,-0.00582092,3.24279e-08,0.00369848,0.000251545,0.232841,0.232841,-0.462849,-1.21683e-11,-1.41463e-06,-1.19683e-05,0.460777,0.2621807766283357,-1.216826639449664e-11,-1.4146289993854921e-06,0.2621807766283357,-1.1968228380232482e-05,-0.37051232202857654
692,0.2628,739.612,738.91,0.329602,-2.40552e-07,0.0232132,0.0376323,0.233317,0.233317,-0.463798,-8.30876e-12,-1.02908e-06,-1.12569e-05,0.461727,0.2627817176906371,-8.308798093992209e-12,-1.0290794705269946e-06,0.2627817176906371,-1.1256836641382328e-05,-0.3711094224660014
693,0.2637,738.829,738.093,-0.471174,3.42573e-07,-0.0162142,-0.0453394,0.23403,0.23403,-0.465229,-1.55691e-11,-1.70706e-06,-1.27551e-05,0.463157,0.26368240211118965,-1.556910156352842e-11,-1.7070585429657115e-06,0.26368240211118965,-1.2755018654053707e-05,-0.3720087212806882
694,0.2639,739.577,738.854,0.282933,-2.38044e-07,0.0264038,0.0330438,0.234228,0.234228,-0.465621,-8.60843e-12,-1.04234e-06,-1.15598e-05,0.46355,0.2639326359991452,-8.608447288338539e-12,-1.0423394567471433e-06,0.2639326359991452,-1.1559733185784182e-05,-0.37225484561842426
695,0.2643,739.095,738.383,-0.193853,2.2756e-07,-0.00941119,-0.0209959,0.234525,0.234525,-0.466217,8.99992e-11,-1.58616e-06,-1.23974e-05,0.464145,0.2643080797426731,8.999911926821369e-11,-1.5861587420173962e-06,0.2643080797426731,-1.2397323152502082e-05,-0.3726288702600209
696,0.2649,738.934,738.222,-0.354912,3.33279e-07,-0.0168279,-0.038084,0.23497,0.23497,-0.467107,-1.60741e-11,-1.76329e-06,-1.28003e-05,0.465035,0.264870822039033,-1.6074142017430404e-11,-1.763288445366662e-06,0.264870822039033,-1.2800218076480796e-05,-0.37318698216885005
697,0.2651,739.428,738.726,0.14418,-1.11844e-07,0.0157843,0.0170982,0.235136,0.235136,-0.467438,-1.07948e-11,-1.26677e-06,-1.1974e-05,0.465367,0.26508080802384604,-1.079480949073286e-11,-1.2667691976497863e-06,0.26508080802384604,-1.1973928311981297e-05,-0.37339442294440983
698,0.2654,739.45,738.756,0.169545,-1.30529e-07,0.0162171,0.0197918,0.235386,0.235386,-0.467938,-1.03278e-11,-1.2222e-06,-1.18864e-05,0.465867,0.26539711776292196,-1.0327849686575519e-11,-1.2221992531369352e-06,0.26539711776292196,-1.1886329357002623e-05,-0.37370764742029317
699,0.2659,739.221,738.529,-0.0589867,7.12278e-08,0.000493796,-0.00533297,0.235761,0.235761,-0.468689,-1.26045e-11,-1.44778e-06,-1.22659e-05,0.466618,0.26587173066644065,-1.2604473020871865e-11,-1.4477789519462547e-06,0.26587173066644065,-1.2265824774204681e-05,-0.37417781640652814
700,0.2666,738.778,738.069,-0.510859,4.26779e-07,-0.0227221,-0.053619,0.236324,0.236324,-0.469816,-1.78558e-11,-1.90388e-06,-1.32452e-05,0.467744,0.2665846171095092,-1.7855827927348855e-11,-1.903878187659025e-06,0.2665846171095092,-1.3245112282733729e-05,-0.3748827207192479
701,0.2668,739.553,738.854,0.268945,-2.3511e-07,0.0252431,0.0314917,0.236521,0.236521,-0.470206,-9.82753e-12,-1.16219e-06,-1.19523e-05,0.468136,0.2668341588581351,-9.827583191679423e-12,-1.162189324666052e-06,0.2668341588581351,-1.195222857153233e-05,-0.3751264689241779
702,0.2672,739.084,738.392,-0.196446,2.29581e-07,-0.00955658,-0.0211012,0.236817,0.236817,-0.470801,-1.5278e-11,-1.69303e-06,-1.27712e-05,0.46873,0.267209197272104,-1.5278001086471704e-11,-1.6930285667848821e-06,0.267209197272104,-1.2771118448551277e-05,-0.3754981580866765
703,0.2678,738.936,738.24,-0.346989,3.29493e-07,-0.0163439,-0.0370414,0.237261,0.237261,-0.47169,-1.72481e-11,-1.85927e-06,-1.31536e-05,0.469618,0.26777196308045714,-1.7248091843669044e-11,-1.8592682715645736e-06,0.26777196308045714,-1.3153513491737101e-05,-0.3760530935187898
704,0.268,739.419,738.731,0.140137,-1.15826e-07,0.0155013,0.0168224,0.237427,0.237427,-0.472019,-1.19459e-11,-1.37307e-06,-1.23447e-05,0.469949,0.2679824306946572,-1.1945888722664222e-11,-1.3730690573421356e-06,0.2679824306946572,-1.2344623804505517e-05,-0.37625833828640654
705,0.2683,739.44,738.759,0.164477,-1.33706e-07,0.0159008,0.0194051,0.237677,0.237677,-0.472518,-1.14765e-11,-1.32968e-06,-1.22594e-05,0.470448,0.26829946593008414,-1.1476486427852706e-11,-1.3296791159245203e-06,0.26829946593008414,-1.2259324853824971e-05,-0.3765695077323681
706,0.2688,739.222,738.539,-0.0549267,6.52791e-08,0.000787425,-0.00470287,0.238051,0.238051,-0.473268,9.14779e-11,-1.54593e-06,-1.26228e-05,0.471197,0.26877389864372936,9.14779363370144e-11,-1.545928805080088e-06,0.26877389864372936,-1.2622720332755577e-05,-0.37703690530556955
707,0.2695,738.794,738.093,-0.49229,4.17674e-07,-0.0217431,-0.0514771,0.238612,0.238612,-0.474392,-1.89164e-11,-1.98776e-06,-1.35705e-05,0.472321,0.2694858804931042,-1.8916423982773267e-11,-1.9877580244020976e-06,0.2694858804931042,-1.35704079211596e-05,-0.37773672245309153
708,0.2697,739.542,738.849,0.259716,-2.37191e-07,0.0245666,0.0306196,0.238809,0.238809,-0.474782,-1.09585e-11,-1.2695e-06,-1.23196e-05,0.472712,0.2697359938469177,-1.0958456364562608e-11,-1.2694991942119316e-06,0.2697359938469177,-1.2319524114068336e-05,-0.377979357814364
709,0.2701,739.092,738.405,-0.188014,2.20778e-07,-0.00894726,-0.0199813,0.239104,0.239104,-0.475375,-1.63402e-11,-1.78126e-06,-1.31084e-05,0.473304,0.27011062121992335,-1.634015145413059e-11,-1.7812584135468157e-06,0.27011062121992335,-1.3108314085297224e-05,-0.3783481067103266
710,0.2707,739.724,739.032,0.441128,-3.26479e-07,0.0298281,0.0494161,0.239547,0.239547,-0.476257,-9.07375e-12,-1.09261e-06,-1.1889e-05,0.474188,0.270673404872499,-9.073741757958942e-12,-1.0926094030638822e-06,0.270673404872499,-1.1888929326131503e-05,-0.37889616195231757
711,0.2709,739.087,738.402,-0.192114,2.63423e-07,-0.0116918,-0.0204888,0.239713,0.239713,-0.476593,-1.54837e-11,-1.71469e-06,-1.29365e-05,0.474522,0.27088435416601464,-1.5483725412934746e-11,-1.7146885299412773e-06,0.27088435416601464,-1.2936416323827693e-05,-0.37910481778575855
712,0.2712,739.036,738.358,-0.239764,2.86454e-07,-0.0134669,-0.0258189,0.239962,0.239962,-0.477091,-1.61516e-11,-1.77188e-06,-1.30726e-05,0.47502,0.27120084377152276,-1.615163558454924e-11,-1.7718784302012125e-06,0.27120084377152276,-1.3072514553957859e-05,-0.379413946607036
713,0.2717,739.554,738.874,0.276834,-2.05926e-07,0.021726,0.032257,0.240335,0.240335,-0.477834,-9.97318e-12,-1.18285e-06,-1.21104e-05,0.475765,0.27167509012769653,-9.973133430207781e-12,-1.1828493003962492e-06,0.27167509012769653,-1.2110326669367844e-05,-0.37987487079016846
714,0.2724,738.801,738.102,-0.486177,4.47314e-07,-0.0214475,-0.0507593,0.240895,0.240895,-0.478958,-1.81629e-11,-1.92493e-06,-1.35845e-05,0.476887,0.2723874276140483,-1.8162915615960173e-11,-1.924928147323257e-06,0.2723874276140483,-1.358440773113756e-05,-0.38057149985652305
715,0.2731,738.796,738.083,-0.498303,4.4462e-07,-0.0220826,-0.0519724,0.241454,0.241454,-0.480077,-1.97095e-11,-2.05026e-06,-1.38724e-05,0.478006,0.2730988910215806,-1.9709456289263017e-11,-2.050257898233987e-06,0.2730988910215806,-1.387230377869475e-05,-0.381264252680692
716,0.2736,738.926,738.215,-0.367319,3.5605e-07,-0.0179807,-0.0390635,0.241873,0.241873,-0.480915,-1.9727e-11,-2.06116e-06,-1.38353e-05,0.478844,0.2736324312257856,-1.9726997813052094e-11,-2.0611578758211735e-06,0.2736324312257856,-1.3835204292655945e-05,-0.3817825360458854
717,0.2742,739.59,738.881,0.29754,-2.40879e-07,0.022239,0.0346258,0.242292,0.242292,-0.481749,-1.20775e-11,-1.38592e-06,-1.26192e-05,0.47968,0.27416619503017725,-1.2077450151082303e-11,-1.3859190396425802e-06,0.27416619503017725,-1.26191203781989e-05,-0.3822979144681481
718,0.2744,739.142,738.443,-0.146176,1.98013e-07,-0.00802756,-0.0150863,0.24245,0.24245,-0.482066,-1.69652e-11,-1.83928e-06,-1.33656e-05,0.479996,0.274367529193972,-1.6965207016994555e-11,-1.8392783085463549e-06,0.274367529193972,-1.336551068076286e-05,-0.3824936949964085
719,0.2747,739.128,738.437,-0.155951,1.89385e-07,-0.00750621,-0.0162157,0.242685,0.242685,-0.482537,-1.70946e-11,-1.84813e-06,-1.34161e-05,0.480468,0.2746670407545626,-1.7094547999363385e-11,-1.8481282921811726e-06,0.2746670407545626,-1.3416010004485557e-05,-0.3827844719827095
720,0.2751,739.453,738.764,0.169287,-1.40798e-07,0.0151903,0.0205079,0.243039,0.243039,-0.483242,-1.29227e-11,-1.46557e-06,-1.2808e-05,0.481173,0.27511835276450247,-1.2922662939729435e-11,-1.4655689261067195e-06,0.27511835276450247,-1.2807917977863958e-05,-0.3832194555802271
721,0.2758,738.917,738.214,-0.373779,3.32265e-07,-0.0153952,-0.0379686,0.243568,0.243568,-0.484305,-1.89252e-11,-1.98933e-06,-1.3849e-05,0.482235,0.27579306881977717,-1.8925194744667806e-11,-1.989328021312353e-06,0.27579306881977717,-1.3848904103053172e-05,-0.38387474495094
722,0.276,739.518,738.824,0.231736,-2.21183e-07,0.0224294,0.0277436,0.243764,0.243764,-0.484693,-1.22905e-11,-1.39502e-06,-1.28358e-05,0.482625,0.27604314876830016,-1.229050194950787e-11,-1.395019026961819e-06,0.27604314876830016,-1.2835717621451082e-05,-0.3841137551789163
723,0.2764,739.572,738.885,0.289025,-2.59288e-07,0.0239316,0.0337202,0.244058,0.244058,-0.485281,-1.13282e-11,-1.30609e-06,-1.26516e-05,0.483212,0.2764183606074757,-1.1328160631762785e-11,-1.306089147057321e-06,0.2764183606074757,-1.2651519968875924e-05,-0.38447578984224917
724,0.277,739.126,738.433,-0.160432,1.59617e-07,-0.00494697,-0.015539,0.244499,0.244499,-0.486164,-1.60754e-11,-1.74874e-06,-1.34333e-05,0.484095,0.27698138524231086,-1.607536326275749e-11,-1.7487384709191645e-06,0.27698138524231086,-1.3433209773650034e-05,-0.38501905783170276
725,0.2772,739.398,738.714,0.116193,-1.09931e-07,0.013609,0.0145356,0.244664,0.244664,-0.486493,-1.29122e-11,-1.45589e-06,-1.29692e-05,0.484425,0.27719210455474097,-1.2912226843297958e-11,-1.4558889401827813e-06,0.27719210455474097,-1.2969115900318684e-05,-0.3852213532822498
726,0.2775,739.067,738.388,-0.212701,2.45072e-07,-0.0115023,-0.0225327,0.244912,0.244912,-0.48699,-1.71418e-11,-1.85013e-06,-1.35624e-05,0.484921,0.2775088874761291,-1.7141843500212417e-11,-1.8501282884608727e-06,0.2775088874761291,-1.3562308031067616e-05,-0.38552682235431635
727,0.278,738.939,738.259,-0.340806,3.4122e-07,-0.0174564,-0.0363224,0.245283,0.245283,-0.487734,-1.89332e-11,-1.99844e-06,-1.38892e-05,0.485665,0.27798293120305684,-1.8933188350445107e-11,-1.9984380030813043e-06,0.27798293120305684,-1.3889103545494663e-05,-0.3859838203741409
728,0.2787,738.785,738.086,-0.505213,4.3989e-07,-0.0224336,-0.0524378,0.24584,0.24584,-0.488849,-2.14533e-11,-2.18938e-06,-1.43981e-05,0.486779,0.278694965979013,-2.145328359404175e-11,-2.1893776033232726e-06,0.278694965979013,-1.4397996347836894e-05,-0.38666806687610955
729,0.2794,739.793,739.08,0.495483,-3.71769e-07,0.0300952,0.0544914,0.246397,0.246397,-0.489956,-1.07249e-11,-1.25982e-06,-1.25371e-05,0.487889,0.27940739746881404,-1.0724865440181475e-11,-1.2598192064006142e-06,0.27940739746881404,-1.2537021410907734e-05,-0.3873466496612088
730,0.2801,739.791,739.068,0.488451,-3.7352e-07,0.0296392,0.0536438,0.246953,0.246953,-0.491069,-9.21215e-12,-1.10909e-06,-1.226e-05,0.489002,0.28011894577390506,-9.212186569129699e-12,-1.1090893849985406e-06,0.28011894577390506,-1.2259924846547143e-05,-0.3880281535128902
731,0.2807,739.1,738.382,-0.200483,2.02342e-07,-0.00756662,-0.0198285,0.24737,0.24737,-0.491907,-1.5285e-11,-1.68484e-06,-1.34136e-05,0.489838,0.28065286668906664,-1.5284995491526843e-11,-1.68483858065116e-06,0.28065286668906664,-1.3413510038029486e-05,-0.3885407711034774
732,0.2812,739.687,738.972,0.388201,-3.13095e-07,0.0273563,0.04417,0.247787,0.247787,-0.492737,-8.82704e-12,-1.06331e-06,-1.22949e-05,0.49067,0.28118701029567794,-8.827050201887232e-12,-1.0633094347234362e-06,0.28118701029567794,-1.2294824418002115e-05,-0.38904807170458877
733,0.2814,739.13,738.426,-0.163542,2.25554e-07,-0.00953115,-0.0169243,0.247943,0.247943,-0.493053,-1.44378e-11,-1.61902e-06,-1.32158e-05,0.490984,0.28138689105957826,-1.4437784301435386e-11,-1.6190186893361158e-06,0.28138689105957826,-1.3215712671654778e-05,-0.3892411020135351
734,0.2817,739.103,738.407,-0.186591,2.28612e-07,-0.00983776,-0.0195297,0.248177,0.248177,-0.493522,-1.47461e-11,-1.64524e-06,-1.32956e-05,0.491453,0.28168677067663306,-1.4746093235373792e-11,-1.6452386465415358e-06,0.28168677067663306,-1.3295511613886646e-05,-0.3895274807756217
735,0.2821,739.487,738.794,0.198767,-1.61692e-07,0.0170705,0.0239144,0.248529,0.248529,-0.494222,-1.00928e-11,-1.19239e-06,-1.25738e-05,0.492155,0.2821380038322874,-1.0092815472262373e-11,-1.1923892890841614e-06,0.2821380038322874,-1.2573720950093126e-05,-0.38995466200820406
736,0.2828,738.815,738.11,-0.47926,4.38704e-07,-0.0212012,-0.049295,0.249056,0.249056,-0.49528,-1.73742e-11,-1.86151e-06,-1.38944e-05,0.493211,0.2828138686350403,-1.7374213179266462e-11,-1.8615082674200423e-06,0.2828138686350403,-1.3894303473316327e-05,-0.3905997486647842
737,0.2831,739.188,738.493,-0.101891,1.43703e-07,-0.00394831,-0.00994342,0.249251,0.249251,-0.495668,-1.44514e-11,-1.61489e-06,-1.33323e-05,0.4936,0.28306404173050814,-1.4451440044638275e-11,-1.6148886960998254e-06,0.28306404173050814,-1.3332211125316462e-05,-0.39083615009745853
738,0.2834,739.087,738.398,-0.200077,2.31283e-07,-0.0100914,-0.021133,0.249543,0.249543,-0.496253,-1.57476e-11,-1.73309e-06,-1.35532e-05,0.494185,0.28343875113560424,-1.5747625425888145e-11,-1.7330884981570094e-06,0.28343875113560424,-1.3553108155761606e-05,-0.39119240673442524
739,0.284,739.669,738.976,0.37985,-3.12829e-07,0.0268421,0.0439916,0.249981,0.249981,-0.497126,-8.9414e-12,-1.07689e-06,-1.24065e-05,0.495059,0.2840010204365895,-8.941403173423623e-12,-1.0768894201929058e-06,0.2840010204365895,-1.2406423039679204e-05,-0.39172366383588075
740,0.2842,739.119,738.433,-0.166556,2.27283e-07,-0.00959153,-0.0171469,0.250145,0.250145,-0.497457,-1.45176e-11,-1.62818e-06,-1.3332e-05,0.49539,0.2842116138721309,-1.4517609336905934e-11,-1.6281786745508953e-06,0.2842116138721309,-1.3331911129288443e-05,-0.3919249699851455
741,0.2845,739.078,738.399,-0.204358,2.45599e-07,-0.0109129,-0.0214085,0.250392,0.250392,-0.49795,-1.5027e-11,-1.67305e-06,-1.34429e-05,0.495882,0.284528853318216,-1.5026979660603956e-11,-1.6730486004368217e-06,0.284528853318216,-1.344280964465927e-05,-0.3922246770910709
742,0.285,739.523,738.843,0.240478,-2.00199e-07,0.0195155,0.0286668,0.250761,0.250761,-0.498686,-9.71442e-12,-1.15558e-06,-1.26005e-05,0.49662,0.2850029319272145,-9.71445146547012e-12,-1.1555793323347885e-06,0.2850029319272145,-1.2600420614017338e-05,-0.3926718351543792
743,0.2857,738.78,738.081,-0.512411,4.77443e-07,-0.0229231,-0.0531631,0.251315,0.251315,-0.499799,-1.78382e-11,-1.90255e-06,-1.40848e-05,0.49773,0.28571502078190236,-1.7838175381257315e-11,-1.9025481901024932e-06,0.28571502078190236,-1.4084700809657846e-05,-0.3933474153717208
744,0.286,739.181,738.49,-0.107686,1.55492e-07,-0.00438931,-0.01048,0.251509,0.251509,-0.500185,-1.4672e-11,-1.63718e-06,-1.3473e-05,0.498118,0.2859644736920839,-1.4672041359631294e-11,-1.6371786598634586e-06,0.2859644736920839,-1.3472909239586883e-05,-0.39358153808079754
745,0.2863,739.068,738.383,-0.217819,2.56149e-07,-0.0113368,-0.0230239,0.251801,0.251801,-0.500769,-1.61427e-11,-1.77097e-06,-1.37196e-05,0.498701,0.28634003014697607,-1.614275380035224e-11,-1.7709684317912533e-06,0.28634003014697607,-1.371950588668902e-05,-0.3939355830713587
746,0.2869,739.694,739.004,0.405216,-3.345e-07,0.0283783,0.0469043,0.252238,0.252238,-0.50164,-8.82699e-12,-1.06582e-06,-1.24871e-05,0.499573,0.2869022835835784,-8.82693917958477e-12,-1.0658194320445347e-06,0.2869022835835784,-1.2487022036489215e-05,-0.39446323535257677
747,0.2871,739.106,738.424,-0.178828,2.50262e-07,-0.0105864,-0.0184106,0.252402,0.252402,-0.501971,-1.48074e-11,-1.65748e-06,-1.34787e-05,0.499904,0.28711335286529405,-1.48073775463331e-11,-1.6574786263490182e-06,0.28711335286529405,-1.3478609162675959e-05,-0.394663634853728
748,0.2874,739.065,738.388,-0.216993,2.67352e-07,-0.0118279,-0.0227105,0.252648,0.252648,-0.502463,-1.5332e-11,-1.70339e-06,-1.35933e-05,0.500395,0.2874300216987684,-1.5331957925468487e-11,-1.7033885492123702e-06,0.2874300216987684,-1.35932076115175e-05,-0.394961387092323
749,0.2879,739.531,738.853,0.248114,-2.05109e-07,0.0200288,0.0296269,0.253016,0.253016,-0.503197,-9.76489e-12,-1.16179e-06,-1.2712e-05,0.501131,0.2879038831319096,-9.764855590788102e-12,-1.161789325077045e-06,0.2879038831319096,-1.2711919202823552e-05,-0.3954053224899753
750,0.2886,739.792,739.095,0.499383,-3.80537e-07,0.0302712,0.0550093,0.253569,0.253569,-0.504301,-6.74862e-12,-8.49609e-07,-1.20398e-05,0.502235,0.2886162909418859,-6.7486016774864765e-12,-8.496086391085456e-07,0.2886162909418859,-1.2039727521950816e-05,-0.39607242670466336
751,0.2896,738.897,738.156,-0.417904,3.12021e-07,-0.0124711,-0.0373993,0.254345,0.254345,-0.505858,-1.41686e-11,-1.57469e-06,-1.36802e-05,0.50379,0.28961664527093745,-1.4168555217963785e-11,-1.5746887601642001e-06,0.28961664527093745,-1.3680106426439131e-05,-0.3970120102806549
752,0.2899,739.571,738.843,0.262377,-2.52747e-07,0.0249959,0.0316838,0.254539,0.254539,-0.506241,-8.06297e-12,-9.73874e-07,-1.25974e-05,0.504175,0.28986685516969546,-8.0629947163402e-12,-9.738735258224551e-07,0.28986685516969546,-1.2597320653062738e-05,-0.3972429104605105
753,0.2902,739.624,738.907,0.320955,-2.88145e-07,0.0261445,0.0375899,0.254829,0.254829,-0.506822,-7.19453e-12,-8.83671e-07,-1.24022e-05,0.504757,0.2902409708018394,-7.194578266478402e-12,-8.836706095749491e-07,0.2902409708018394,-1.2402123093058215e-05,-0.3975930106155895
754,0.2908,739.116,738.401,-0.186607,1.93476e-07,-0.00662031,-0.0181795,0.255265,0.255265,-0.507697,-1.21722e-11,-1.39646e-06,-1.33007e-05,0.50563,0.2908036385177577,-1.2172152175082829e-11,-1.3964590249715414e-06,0.2908036385177577,-1.3300611546029906e-05,-0.39811988618962146
755,0.291,739.427,738.722,0.129335,-1.19155e-07,0.0146449,0.0162913,0.255428,0.255428,-0.508022,-8.84692e-12,-1.0584e-06,-1.2763e-05,0.505956,0.2910140566594488,-8.846923194028022e-12,-1.058399439868296e-06,0.2910140566594488,-1.2762918553232971e-05,-0.3983154654432596
756,0.2913,739.05,738.354,-0.24263,2.89511e-07,-0.0138198,-0.0256297,0.255673,0.255673,-0.508514,-1.3304e-11,-1.51263e-06,-1.34425e-05,0.506448,0.29133039385305426,-1.3304024548688176e-11,-1.5126288559486056e-06,0.29133039385305426,-1.3442409649955245e-05,-0.39861142142312045
757,0.2918,738.92,738.227,-0.371689,3.83642e-07,-0.0195674,-0.0394802,0.256041,0.256041,-0.50925,-1.50096e-11,-1.66666e-06,-1.37841e-05,0.507183,0.2918056908872826,-1.500954915911734e-11,-1.6666586111213633e-06,0.2918056908872826,-1.378400499973953e-05,-0.3990538805720131
758,0.2925,738.807,738.098,-0.49258,4.38842e-07,-0.0219783,-0.0508874,0.256592,0.256592,-0.510353,-1.68553e-11,-1.81837e-06,-1.42183e-05,0.508286,0.29251767195573253,-1.6855294937556664e-11,-1.8183683467842826e-06,0.29251767195573253,-1.4218198920445957e-05,-0.3997163587178799
759,0.2932,739.809,739.09,0.504515,-3.82173e-07,0.0306518,0.0558137,0.257143,0.257143,-0.511448,-7.0149e-12,-8.74334e-07,-1.2333e-05,0.509383,0.29323004543385034,-7.014944181094052e-12,-8.743336177285954e-07,0.29323004543385034,-1.2332923948865648e-05,-0.40037330955885675
760,0.2939,739.828,739.101,0.518944,-4.01115e-07,0.0313256,0.0572639,0.257693,0.257693,-0.512549,-5.43671e-12,-6.97807e-07,-1.20021e-05,0.510484,0.2939415175957485,-5.4367621515893916e-12,-6.978067564888946e-07,0.2939415175957485,-1.2002027975133167e-05,-0.40103313524433915
761,0.2947,739.1,738.367,-0.21232,1.89339e-07,-0.00626739,-0.0193305,0.258243,0.258243,-0.513653,-1.10596e-11,-1.28967e-06,-1.32388e-05,0.511587,0.2946533811749654,-1.105959768210596e-11,-1.2896691683472739e-06,0.2946533811749654,-1.3238712367469319e-05,-0.40169402978211877
762,0.2954,738.79,738.053,-0.524416,4.73387e-07,-0.0237196,-0.0543039,0.258793,0.258793,-0.514754,-1.52012e-11,-1.67473e-06,-1.40426e-05,0.512688,0.2953656363868402,-1.5201173653167643e-11,-1.6747285976892456e-06,0.2953656363868402,-1.4042501403133123e-05,-0.4023524021548309
763,0.2961,739.835,739.094,0.518365,-3.7995e-07,0.0313728,0.0573157,0.259342,0.259342,-0.515847,-5.3585e-12,-6.88182e-07,-1.2072e-05,0.513783,0.2960769873691944,-5.358491428353318e-12,-6.881817632420351e-07,0.2960769873691944,-1.2071927133705529e-05,-0.40300527411975073
764,0.2968,738.827,738.085,-0.490392,4.88028e-07,-0.0219166,-0.0506405,0.259891,0.259891,-0.516951,-1.43458e-11,-1.59833e-06,-1.39452e-05,0.514885,0.2967887289904585,-1.434574681269396e-11,-1.5983287227072651e-06,0.2967887289904585,-1.3945102766199646e-05,-0.403663992617607
765,0.2973,738.954,738.221,-0.358826,3.88602e-07,-0.0177262,-0.0376379,0.260303,0.260303,-0.517774,-1.43417e-11,-1.60593e-06,-1.38972e-05,0.515708,0.2973231160229721,-1.434175000980531e-11,-1.6059287104575048e-06,0.2973231160229721,-1.3897103434357128e-05,-0.40415457524923926
766,0.2979,739.591,738.865,0.281713,-2.20479e-07,0.0213475,0.0334785,0.260714,0.260714,-0.518593,-7.64451e-12,-9.38206e-07,-1.26996e-05,0.516529,0.2978564254112297,-7.644551658358978e-12,-9.382055599083117e-07,0.2978564254112297,-1.2699519360448441e-05,-0.40464237287171745
767,0.2981,739.167,738.452,-0.137034,2.10492e-07,-0.0073707,-0.0134666,0.260869,0.260869,-0.518904,-1.18503e-11,-1.3773e-06,-1.34183e-05,0.516839,0.2980576087484743,-1.1850298520243996e-11,-1.3772990514748784e-06,0.2980576087484743,-1.3418209975024631e-05,-0.4048275003049464
768,0.2984,739.157,738.452,-0.142301,1.95205e-07,-0.00660874,-0.014098,0.2611,0.2611,-0.519367,-1.19015e-11,-1.38051e-06,-1.3457e-05,0.517302,0.2983574946915881,-1.1901479801679216e-11,-1.3805090470775383e-06,0.2983574946915881,-1.3456909454978572e-05,-0.40510300138888267
769,0.2988,739.448,738.749,0.151828,-1.21698e-07,0.0140681,0.0191465,0.261447,0.261447,-0.520059,-8.45064e-12,-1.02446e-06,-1.28931e-05,0.517994,0.2988081029182519,-8.450684596539304e-12,-1.02445947525176e-06,0.2988081029182519,-1.289301688434108e-05,-0.40551452770739327
770,0.2995,738.982,738.273,-0.319334,3.0066e-07,-0.012706,-0.031629,0.261967,0.261967,-0.521102,-1.31172e-11,-1.48798e-06,-1.38062e-05,0.519037,0.2994836587610661,-1.3117174013643762e-11,-1.487978892988906e-06,0.2994836587610661,-1.380610469481347e-05,-0.40613425281217164
771,0.2997,739.495,738.795,0.198287,-1.96155e-07,0.019795,0.0245141,0.262159,0.262159,-0.521484,-7.96132e-12,-9.65735e-07,-1.29204e-05,0.519419,0.29973318357716394,-7.961298287284535e-12,-9.65734533675544e-07,0.29973318357716394,-1.2920316531994658e-05,-0.40636106620348156
772,0.3001,739.53,738.838,0.23696,-2.21032e-07,0.0203907,0.0284735,0.262448,0.262448,-0.52206,-7.32672e-12,-8.99604e-07,-1.27787e-05,0.519996,0.30010886074995446,-7.326694806408796e-12,-8.99603595394538e-07,0.30010886074995446,-1.2778618352804472e-05,-0.40670290377067786
773,0.3007,739.192,738.496,-0.103016,1.07088e-07,-0.00170209,-0.00870875,0.26288,0.26288,-0.522927,-1.05183e-11,-1.23669e-06,-1.33669e-05,0.520863,0.3006706291110277,-1.0518252935298733e-11,-1.2366892353510295e-06,0.3006706291110277,-1.3366810663439921e-05,-0.4072170694300876
774,0.3009,739.375,738.687,0.0839423,-8.47259e-08,0.0109293,0.0114652,0.263043,0.263043,-0.523251,-8.54926e-12,-1.03056e-06,-1.30457e-05,0.521187,0.30088265570327066,-8.549272401126018e-12,-1.0305594689841158e-06,0.30088265570327066,-1.3045614905227154e-05,-0.4074090999889619
775,0.3012,739.15,738.469,-0.137446,1.62395e-07,-0.00610287,-0.0134799,0.263286,0.263286,-0.523738,-1.11025e-11,-1.29949e-06,-1.34483e-05,0.521674,0.3011988085996278,-1.110245229085649e-11,-1.2994891556150634e-06,0.3011988085996278,-1.3448209572053393e-05,-0.40769762149657773
776,0.3017,739.656,738.975,0.368028,-3.4013e-07,0.0277152,0.0434458,0.263651,0.263651,-0.524465,-5.4873e-12,-6.95321e-07,-1.24392e-05,0.522401,0.301673832851419,-5.487277299209836e-12,-6.953207583038079e-07,0.301673832851419,-1.2439122633489674e-05,-0.40812806883918207
777,0.3024,739.808,739.11,0.511478,-4.11808e-07,0.0309922,0.0566937,0.264197,0.264197,-0.525558,-3.6375e-12,-4.8143e-07,-1.19342e-05,0.523494,0.3023847408243714,-3.637534717881863e-12,-4.814298840694065e-07,0.3023847408243714,-1.1934128787749465e-05,-0.40877463144910653
778,0.3031,738.98,738.268,-0.323663,2.89002e-07,-0.0124661,-0.0313806,0.264744,0.264744,-0.526655,-1.01608e-11,-1.19874e-06,-1.34163e-05,0.524591,0.3030973401557513,-1.0160761121369433e-11,-1.1987392815049347e-06,0.3030973401557513,-1.341621000183757e-05,-0.40942285006548973
779,0.3038,739.835,739.114,0.527189,-3.93925e-07,0.0318482,0.0583979,0.26529,0.26529,-0.527743,-2.70659e-12,-3.65196e-07,-1.17549e-05,0.52568,0.3038090255759156,-2.706612711733669e-12,-3.65195933271778e-07,0.3038090255759156,-1.1754830911425707e-05,-0.4100650485852738
780,0.3043,738.968,738.252,-0.3376,3.70454e-07,-0.0165584,-0.0353097,0.265699,0.265699,-0.528567,-9.68862e-12,-1.15735e-06,-1.32982e-05,0.526502,0.30434239253348383,-9.688583268996354e-12,-1.157349330260793e-06,0.30434239253348383,-1.329811157935179e-05,-0.4105509547644006
781,0.3049,738.97,738.257,-0.334069,3.5355e-07,-0.0163618,-0.0348783,0.266109,0.266109,-0.529385,-1.02897e-11,-1.21926e-06,-1.34268e-05,0.527321,0.30487728255938507,-1.0289658014528413e-11,-1.2192592566684368e-06,0.30487728255938507,-1.3426709860930863e-05,-0.41103292692991267
782,0.3051,739.407,738.704,0.107624,-8.83448e-08,0.0129031,0.0140807,0.266262,0.266262,-0.529689,-6.05488e-12,-7.60779e-07,-1.26696e-05,0.527626,0.30507694405733177,-6.054934331700679e-12,-7.607787105845532e-07,0.30507694405733177,-1.2669519740993174e-05,-0.4112119457078931
783,0.3054,738.995,738.301,-0.299924,3.73263e-07,-0.0185383,-0.0318054,0.266492,0.266492,-0.530152,-1.07398e-11,-1.27433e-06,-1.34279e-05,0.528088,0.3053771462763968,-1.0739853451013914e-11,-1.2743291880612517e-06,0.3053771462763968,-1.3427809846144889e-05,-0.41148449147781574
784,0.3058,738.926,738.236,-0.367096,3.99658e-07,-0.0199081,-0.0387945,0.266837,0.266837,-0.530842,-1.16582e-11,-1.36156e-06,-1.36601e-05,0.528778,0.30582757908705416,-1.1658229936983844e-11,-1.3615590730431393e-06,0.30582757908705416,-1.3660006701221583e-05,-0.41189042711479584
785,0.3065,739.753,739.05,0.453305,-3.43368e-07,0.0286176,0.0509053,0.267355,0.267355,-0.531873,-3.67709e-12,-4.87771e-07,-1.205e-05,0.52981,0.30650417299571475,-3.6770586575585185e-12,-4.87770881019145e-07,0.30650417299571475,-1.20499273990049e-05,-0.4124964556230625
786,0.3068,739.054,738.361,-0.240645,3.31729e-07,-0.0150507,-0.0250496,0.267546,0.267546,-0.532259,-9.70132e-12,-1.17234e-06,-1.3237e-05,0.530195,0.3067537391255637,-9.701350833779543e-12,-1.1723393128493242e-06,0.3067537391255637,-1.3236912391301203e-05,-0.4127231882289838
787,0.3071,738.941,738.254,-0.350838,4.14976e-07,-0.0204267,-0.0372081,0.267833,0.267833,-0.532834,-1.10629e-11,-1.31017e-06,-1.35214e-05,0.53077,0.307128831271841,-1.1062928351179835e-11,-1.3101691417327643e-06,0.307128831271841,-1.3521308586228464e-05,-0.4130607753301594
788,0.3077,738.931,738.24,-0.362611,3.73505e-07,-0.0175564,-0.0376996,0.268263,0.268263,-0.533694,1.03226e-10,-1.34032e-06,-1.3683e-05,0.53163,0.3076910175306711,1.0322609433899288e-10,-1.340319101816867e-06,0.3076910175306711,-1.3682906388146066e-05,-0.4135653260754577
789,0.3079,739.414,738.731,0.124265,-1.15253e-07,0.0142443,0.0161275,0.268424,0.268424,-0.534014,-6.71863e-12,-8.39362e-07,-1.28462e-05,0.531951,0.30790157273373264,-6.718625655821597e-12,-8.393616477420096e-07,0.30790157273373264,-1.2846117487974595e-05,-0.4137529551488608
790,0.3082,739.44,738.763,0.152865,-1.40679e-07,0.0151429,0.0192215,0.268666,0.268666,-0.534498,-6.27056e-12,-7.899e-07,-1.27517e-05,0.532435,0.30821812321539754,-6.270539643082884e-12,-7.89899687991813e-07,0.30821812321539754,-1.2751618697404155e-05,-0.4140366300637016
791,0.3087,739.233,738.555,-0.0545162,6.73738e-08,0.000726585,-0.00359288,0.269029,0.269029,-0.535224,-8.18118e-12,-1.0042e-06,-1.31045e-05,0.533161,0.30869309259585176,-8.181233468462779e-12,-1.0041994957799005e-06,0.30869309259585176,-1.3104414136377862e-05,-0.4144618850840245
792,0.3094,739.852,739.156,0.55541,-4.5179e-07,0.0343459,0.0633535,0.269573,0.269573,-0.536308,-2.29603e-12,-3.14862e-07,-1.17533e-05,0.534247,0.30940521531804244,-2.2960522372272862e-12,-3.148619504012018e-07,0.30940521531804244,-1.1753230930278136e-05,-0.41509626450482806
793,0.3097,739.048,738.361,-0.244164,3.26126e-07,-0.0153346,-0.0253682,0.269764,0.269764,-0.536695,-8.89741e-12,-1.09244e-06,-1.31365e-05,0.534632,0.3096553355998948,-8.897438341648467e-12,-1.092439403271861e-06,0.3096553355998948,-1.3136413716585693e-05,-0.4153225784558906
794,0.31,739.49,738.807,0.199751,-1.60468e-07,0.0177756,0.024386,0.27005,0.27005,-0.537265,-4.14412e-12,-5.43329e-07,-1.23152e-05,0.535203,0.3100299505932669,-4.144129484018322e-12,-5.433288523537527e-07,0.3100299505932669,-1.231512416821623e-05,-0.4156557496233674
795,0.3106,739.676,738.988,0.383432,-3.13218e-07,0.0266364,0.0441203,0.270479,0.270479,-0.538122,-2.17665e-12,-2.97611e-07,-1.18278e-05,0.536061,0.31059207400892297,-2.176703262080082e-12,-2.9761095576841257e-07,0.31059207400892297,-1.1827730051816587e-05,-0.41615631812170184
796,0.3114,738.976,738.261,-0.330473,2.80998e-07,-0.0110297,-0.0306324,0.271123,0.271123,-0.539414,-7.58896e-12,-9.35916e-07,-1.31446e-05,0.537351,0.3114363671377922,-7.588929484825258e-12,-9.359155620503046e-07,0.3114363671377922,-1.3144513610119368e-05,-0.4169101570738625
797,0.3117,739.519,738.813,0.21701,-2.10295e-07,0.0212679,0.0268086,0.271314,0.271314,-0.539792,-3.07906e-12,-4.08565e-07,-1.22254e-05,0.53773,0.3116868754066937,-3.079092536495409e-12,-4.085649165652683e-07,0.3116868754066937,-1.222532527012099e-05,-0.41713052338263235
798,0.3121,739.547,738.85,0.249454,-2.26287e-07,0.0211881,0.0299698,0.271599,0.271599,-0.540363,-2.60817e-12,-3.50304e-07,-1.20908e-05,0.538301,0.31206075944212897,-2.6081359294494177e-12,-3.503039386343332e-07,0.31206075944212897,-1.2090726906555105e-05,-0.41746324685219016
799,0.3126,739.192,738.493,-0.106562,1.13991e-07,-0.00207125,-0.00903436,0.272028,0.272028,-0.541223,-5.55388e-12,-7.10481e-07,-1.27145e-05,0.53916,0.3126237542616839,-5.5538906806873456e-12,-7.104807475677433e-07,0.3126237542616839,-1.271441917105598e-05,-0.417964013099547
800,0.3128,739.38,738.69,0.0858435,-8.19005e-08,0.0109763,0.0117633,0.272189,0.272189,-0.541543,-3.77224e-12,-4.95896e-07,-1.238e-05,0.539481,0.3128351036992931,-3.772204770768894e-12,-4.958958770284738e-07,0.3128351036992931,-1.2379923368111001e-05,-0.41815023481829106
801,0.3132,739.15,738.466,-0.141041,1.68722e-07,-0.00651956,-0.0137999,0.27243,0.27243,-0.542026,-6.09488e-12,-7.75811e-07,-1.2797e-05,0.539964,0.3131515350877354,-6.094902360587184e-12,-7.758106990163327e-07,0.3131515350877354,-1.2796918118729295e-05,-0.4184312003962245
802,0.3136,739.662,738.979,0.371212,-3.3569e-07,0.0278767,0.0438994,0.272791,0.272791,-0.542746,-1.12936e-12,-1.56574e-07,-1.17648e-05,0.540685,0.31362566836781003,-1.1293188606487092e-12,-1.5657398777513265e-07,0.31362566836781003,-1.1764730795005285e-05,-0.41884977922547806
803,0.3143,739.796,739.096,0.496862,-3.92929e-07,0.030218,0.0552766,0.273333,0.273333,-0.543829,2.74393e-13,3.97105e-08,-1.12929e-05,0.541768,0.31433784646289475,2.744471316873387e-13,3.971050088757977e-08,0.31433784646289475,-1.1292836235465842e-05,-0.4194788242252262
804,0.315,739.009,738.297,-0.296722,2.6256e-07,-0.0112431,-0.0284643,0.273874,0.273874,-0.544916,-5.03287e-12,-6.48489e-07,-1.27091e-05,0.542854,0.3150490956133791,-5.03286301523076e-12,-6.48488789778412e-07,0.3150490956133791,-1.2709019239776076e-05,-0.420109507904614
805,0.3158,738.805,738.084,-0.505007,4.52132e-07,-0.0230625,-0.0520517,0.274416,0.274416,-0.546,-7.72549e-12,-9.50295e-07,-1.33392e-05,0.543937,0.3157620454151444,-7.725486916854152e-12,-9.502945484962666e-07,0.3157620454151444,-1.333911103329477e-05,-0.42073776861921797
806,0.3165,739.808,739.081,0.494993,-3.685e-07,0.0301936,0.0551991,0.274956,0.274956,-0.547076,1.26627e-13,1.82407e-08,-1.14131e-05,0.545016,0.31647274879231047,1.2656542480726785e-13,1.824070006151146e-08,0.31647274879231047,-1.1413034870844108e-05,-0.4213607195724677
807,0.3172,738.827,738.095,-0.488876,4.81695e-07,-0.02219,-0.0502918,0.275497,0.275497,-0.548163,-7.21937e-12,-8.95595e-07,-1.3279e-05,0.546101,0.3171851532374339,-7.219336239927543e-12,-8.95594598926408e-07,0.3171851532374339,-1.3278911834446738e-05,-0.4219893587430048
808,0.3179,738.803,738.067,-0.51472,4.90187e-07,-0.0235773,-0.0529829,0.276037,0.276037,-0.549244,-8.58293e-12,-1.04189e-06,-1.3597e-05,0.547182,0.31789662530035034,-8.58291215877216e-12,-1.0418894572650217e-06,0.31789662530035034,-1.3596907561197469e-05,-0.4226138506475162
809,0.3184,738.962,738.235,-0.351302,3.6495e-07,-0.0175013,-0.0364288,0.276442,0.276442,-0.550053,-8.31486e-12,-1.0191e-06,-1.34868e-05,0.547991,0.3184304815321868,-8.314904320627647e-12,-1.0190994806924536e-06,0.3184304815321868,-1.3486709053545098e-05,-0.42308076714915177
810,0.319,739.557,738.836,0.246546,-2.11924e-07,0.0191773,0.029961,0.276847,0.276847,-0.550859,-2.87046e-12,-3.84653e-07,-1.23535e-05,0.548799,0.318964554019586,-2.8704816301683422e-12,-3.846529260664866e-07,0.318964554019586,-1.2353423695876664e-05,-0.42354557670741444
811,0.3192,739.184,738.474,-0.120966,1.74421e-07,-0.0061804,-0.0112736,0.276999,0.276999,-0.551165,-6.11625e-12,-7.7951e-07,-1.2996e-05,0.549104,0.3191650518692475,-6.116218642659987e-12,-7.795096962359693e-07,0.3191650518692475,-1.2995915552371784e-05,-0.4237219447752515
812,0.3195,739.596,738.896,0.295982,-2.96323e-07,0.026233,0.035852,0.277227,0.277227,-0.551618,-1.67425e-12,-2.27558e-07,-1.21964e-05,0.549558,0.3194658557914176,-1.674216321134736e-12,-2.2755797413065437e-07,0.3194658557914176,-1.2196325624214133e-05,-0.423982939614474
813,0.3199,739.592,738.896,0.29421,-2.69145e-07,0.023032,0.0350243,0.277568,0.277568,-0.552301,-1.44594e-12,-1.98545e-07,-1.20874e-05,0.55024,0.3199158703713678,-1.4459544672718039e-12,-1.9854498034543866e-07,0.3199158703713678,-1.2087326947685106e-05,-0.42437622494448846
814,0.3206,739.24,738.534,-0.0634791,5.93829e-08,0.00104488,-0.00345622,0.27808,0.27808,-0.553326,-4.0285e-12,-5.28032e-07,-1.26861e-05,0.551266,0.32059184033054056,-4.028555267154843e-12,-5.280318605693779e-07,0.32059184033054056,-1.2686019531749082e-05,-0.42496593703484353
815,0.3208,739.389,738.693,0.0909379,-9.54269e-08,0.0111491,0.0126464,0.278269,0.278269,-0.553704,-2.6355e-12,-3.53222e-07,-1.24152e-05,0.551644,0.32084145577627976,-2.6354474158551966e-12,-3.5322193758791087e-07,0.32084145577627976,-1.2415122931708211e-05,-0.4251832588342366
816,0.3212,739.167,738.477,-0.128292,1.42727e-07,-0.00506248,-0.0120643,0.278553,0.278553,-0.554273,8.70405e-11,-6.14394e-07,-1.28229e-05,0.552212,0.3212166280216573,8.704059695219257e-11,-6.143938112712632e-07,0.3212166280216573,-1.2822817786917184e-05,-0.42551023652598474
817,0.3218,739.74,739.047,0.443148,-3.94552e-07,0.0307439,0.051884,0.278979,0.278979,-0.555121,4.24155e-13,6.08652e-08,-1.16253e-05,0.553061,0.32177958620677427,4.241051954068098e-13,6.086520176751264e-08,0.32177958620677427,-1.1625232426482057e-05,-0.4259971973448422
818,0.322,739.112,738.427,-0.180732,2.44897e-07,-0.0110386,-0.0180008,0.279138,0.279138,-0.555444,-4.5242e-12,-5.93773e-07,-1.2718e-05,0.553383,0.32198976586982164,-4.524158825347513e-12,-5.937728236871109e-07,0.32198976586982164,-1.2717919126603583e-05,-0.42618257031075424
819,0.3223,739.072,738.393,-0.21777,2.62608e-07,-0.0122214,-0.0221875,0.279378,0.279378,-0.555923,-4.92109e-12,-6.4067e-07,-1.28321e-05,0.553862,0.3223070814899818,-4.921063556651006e-12,-6.40669794771398e-07,0.3223070814899818,-1.2832017668995555e-05,-0.4264573630414623
820,0.3228,739.528,738.849,0.237943,-2.10731e-07,0.0193169,0.0291117,0.279737,0.279737,-0.556638,-6.47705e-13,-9.07239e-08,-1.19423e-05,0.554578,0.32278187495256394,-6.477041125663163e-13,-9.07238958403056e-08,0.32278187495256394,-1.1942228691053103e-05,-0.42686729945715485
821,0.3235,738.804,738.108,-0.494463,4.71066e-07,-0.0225571,-0.0507234,0.280275,0.280275,-0.557718,-6.81634e-12,-8.50764e-07,-1.3428e-05,0.555657,0.32349372307126223,-6.816325281988611e-12,-8.507636380938877e-07,0.32349372307126223,-1.3427909844820896e-05,-0.4274859486430481
822,0.3237,739.579,738.891,0.284947,-2.76255e-07,0.0266158,0.0347147,0.280464,0.280464,-0.558091,-3.60801e-13,-5.01886e-08,-1.20566e-05,0.556032,0.3237438870246716,-3.608224830031759e-13,-5.018859872141235e-08,0.3237438870246716,-1.2056527319503907e-05,-0.42769945656250186
823,0.3241,739.643,738.96,0.351052,-3.21448e-07,0.028297,0.0416808,0.280747,0.280747,-0.558657,3.87338e-13,5.49669e-08,-1.18302e-05,0.556598,0.32411855955836266,3.872457909892546e-13,5.4966901474884367e-08,0.32411855955836266,-1.1830130023482432e-05,-0.42802328701742365
824,0.3247,739.076,738.389,-0.218296,2.40933e-07,-0.00881065,-0.0210676,0.281172,0.281172,-0.55951,-4.20826e-12,-5.49579e-07,-1.28746e-05,0.55745,0.32468142954757506,-4.208300374841656e-12,-5.495788489850995e-07,0.32468142954757506,-1.2874517122729578e-05,-0.4285109751250493
825,0.3249,739.432,738.752,0.141886,-1.29131e-07,0.0155861,0.018371,0.281331,0.281331,-0.559827,-1.10585e-12,-1.5198e-07,-1.2241e-05,0.557767,0.3248920706403964,-1.1058931548291184e-12,-1.5197998848304195e-07,0.3248920706403964,-1.2240925079232134e-05,-0.4286921084347882
826,0.3252,739.016,738.342,-0.271686,3.44022e-07,-0.0162683,-0.0282275,0.28157,0.28157,-0.560306,-5.24099e-12,-6.77839e-07,-1.30186e-05,0.558246,0.32520875768787416,-5.2410298323479765e-12,-6.77838770224426e-07,0.32520875768787416,-1.301851525836728e-05,-0.4289656993845844
827,0.3257,738.9,738.225,-0.388032,4.23081e-07,-0.0210088,-0.0406639,0.281928,0.281928,-0.561023,-6.53253e-12,-8.2495e-07,-1.33502e-05,0.558963,0.32568326735528896,-6.532552276894421e-12,-8.24949659694596e-07,0.32568326735528896,-1.335011088643423e-05,-0.42937498423197384
828,0.3264,738.776,738.083,-0.521341,4.87335e-07,-0.0240047,-0.0534539,0.282464,0.282464,-0.562098,-8.17398e-12,-9.98606e-07,-1.38261e-05,0.560037,0.3263940240523697,-8.174017018802715e-12,-9.98605501401073e-07,0.3263940240523697,-1.3826004419903448e-05,-0.4299880765277734
829,0.3266,739.513,738.828,0.220143,-2.28945e-07,0.0215065,0.0275202,0.282653,0.282653,-0.56247,-1.93876e-12,-2.61475e-07,-1.25327e-05,0.560411,0.32664473621446866,-1.938782467902911e-12,-2.6147496579032037e-07,0.32664473621446866,-1.2532621466054827e-05,-0.4302000815279302
830,0.327,739.609,738.929,0.318741,-3.13755e-07,0.0261071,0.038229,0.282936,0.282936,-0.563035,-8.52001e-13,-1.17597e-07,-1.22582e-05,0.560976,0.3270202298046543,-8.519851490973451e-13,-1.1759699303226512e-07,0.3270202298046543,-1.2258124868602671e-05,-0.4305219275518034
831,0.3276,739.063,738.378,-0.23007,2.43119e-07,-0.00948336,-0.0222146,0.283359,0.283359,-0.563886,-5.50928e-12,-7.03249e-07,-1.32747e-05,0.561826,0.32758167809980443,-5.509259715097414e-12,-7.032487526759112e-07,0.32758167809980443,-1.3274611891600507e-05,-0.431006347241644
832,0.3278,739.433,738.754,0.142738,-1.47064e-07,0.0157148,0.0186522,0.283518,0.283518,-0.564202,-2.17376e-12,-2.92103e-07,-1.26171e-05,0.562142,0.3277927803688079,-2.173705659913594e-12,-2.9210295737769343e-07,0.3277927803688079,-1.261702040478152e-05,-0.4311861208301927
833,0.3281,739.007,738.335,-0.27963,3.49719e-07,-0.0168196,-0.0289355,0.283756,0.283756,-0.564681,-6.56921e-12,-8.31041e-07,-1.34134e-05,0.562621,0.3281088326592665,-6.569189636707051e-12,-8.310406547362703e-07,0.3281088326592665,-1.3413310040788495e-05,-0.4314585174341202
834,0.3286,738.893,738.219,-0.394491,4.3042e-07,-0.0213902,-0.0411953,0.284114,0.284114,-0.565396,-7.90448e-12,-9.77099e-07,-1.37446e-05,0.563336,0.3285843807393858,-7.904454868423727e-12,-9.770985226476014e-07,0.3285843807393858,-1.3744505543367147e-05,-0.43186487930247497
835,0.3293,738.778,738.085,-0.51928,4.89628e-07,-0.0238719,-0.0530602,0.284649,0.284649,-0.566468,-9.53208e-12,-1.14228e-06,-1.42048e-05,0.564408,0.3292953635540259,-9.532041822524207e-12,-1.14227934755462e-06,0.3292953635540259,-1.4204699112285724e-05,-0.4324735938225862
836,0.3295,739.511,738.827,0.217848,-2.39132e-07,0.0213854,0.0274457,0.284838,0.284838,-0.56684,-3.08826e-12,-4.07304e-07,-1.29152e-05,0.564781,0.32954662412111313,-3.088307387599798e-12,-4.0730391703824864e-07,0.32954662412111313,-1.291511659917699e-05,-0.432684674382266
837,0.3299,739.606,738.927,0.315333,-3.24209e-07,0.0259388,0.0380355,0.28512,0.28512,-0.567403,-1.96012e-12,-2.64356e-07,-1.26424e-05,0.565345,0.32992160913951785,-1.960098749975714e-12,-2.643559650072902e-07,0.32992160913951785,-1.2642320085243242e-05,-0.4330039830167739
838,0.3305,739.067,738.382,-0.226415,2.39609e-07,-0.00922686,-0.0216329,0.285542,0.285542,-0.568252,-6.74415e-12,-8.43866e-07,-1.3647e-05,0.566193,0.33048295449411413,-6.744160785387976e-12,-8.438656439180292e-07,0.33048295449411413,-1.3646906880104837e-05,-0.4334851583473621
839,0.3307,739.43,738.753,0.140523,-1.53379e-07,0.0155899,0.0185883,0.285701,0.285701,-0.568567,-3.32964e-12,-4.37682e-07,-1.29976e-05,0.566508,0.33069451810273987,-3.329669873153307e-12,-4.376819041640445e-07,0.33069451810273987,-1.2997515531520953e-05,-0.4336635824192161
840,0.331,739.013,738.34,-0.274481,3.46344e-07,-0.0163982,-0.0281693,0.285939,0.285939,-0.569045,-7.80621e-12,-9.68584e-07,-1.37813e-05,0.566986,0.3310112610889684,-7.8062001307444e-12,-9.685835309358737e-07,0.3310112610889684,-1.3781205038365663e-05,-0.4339342265377222
841,0.3315,738.901,738.228,-0.386529,4.2728e-07,-0.0208491,-0.0401322,0.286295,0.286295,-0.569759,-9.15314e-12,-1.11107e-06,-1.41046e-05,0.567699,0.33148518545144734,-9.15312270421964e-12,-1.1110693827198759e-06,0.33148518545144734,-1.4104500530631725e-05,-0.4343382532452754
842,0.3322,738.79,738.098,-0.506824,4.85249e-07,-0.0231838,-0.0515561,0.28683,0.28683,-0.570828,-1.07765e-11,-1.27042e-06,-1.45504e-05,0.568769,0.33219772061182384,-1.0776490810826544e-11,-1.2704191930668074e-06,0.33219772061182384,-1.4550294143433895e-05,-0.4349426225596036
843,0.3324,739.505,738.822,0.212471,-2.42705e-07,0.0210156,0.0270176,0.287017,0.287017,-0.571199,-4.26139e-12,-5.50457e-07,-1.32878e-05,0.569141,0.3324468648798413,-4.261369035418738e-12,-5.504568485470429e-07,0.3324468648798413,-1.3287711717602235e-05,-0.4351522199639114
844,0.3328,739.597,738.918,0.306144,-3.25865e-07,0.0253638,0.0371882,0.287299,0.287299,-0.571762,-3.12309e-12,-4.12018e-07,-1.30233e-05,0.569704,0.3328226678814703,-3.1230573682705653e-12,-4.1201791511902286e-07,0.3328226678814703,-1.3023215197249804e-05,-0.43547013976125115
845,0.3334,739.078,738.393,-0.215677,2.29612e-07,-0.00854797,-0.020275,0.287721,0.287721,-0.572609,-7.89341e-12,-9.70786e-07,-1.39906e-05,0.57055,0.3333852377412079,-7.893463660479938e-12,-9.707855287421907e-07,0.3333852377412079,-1.399050213202191e-05,-0.4359480941106324
846,0.3336,739.425,738.747,0.134795,-1.54385e-07,0.0151716,0.0181235,0.287879,0.287879,-0.572923,-4.51212e-12,-5.81086e-07,-1.33682e-05,0.570865,0.333595929252962,-4.512168416681561e-12,-5.810858311194878e-07,0.333595929252962,-1.336811064600596e-05,-0.43612517860536093
847,0.3339,739.026,738.354,-0.261128,3.32577e-07,-0.0153696,-0.0264843,0.288116,0.288116,-0.5734,-8.91861e-12,-1.08857e-06,-1.41167e-05,0.571341,0.333912028944529,-8.918643601418808e-12,-1.0885694075035701e-06,0.333912028944529,-1.4116600359881382e-05,-0.43639408275642755
848,0.3344,738.919,738.246,-0.368742,4.12596e-07,-0.0196798,-0.0379865,0.288472,0.288472,-0.574112,-1.02426e-11,-1.22491e-06,-1.44257e-05,0.572053,0.33438698616420215,-1.0242584558284307e-11,-1.224909249808448e-06,0.33438698616420215,-1.4425595950107173e-05,-0.4367952273450849
849,0.3351,738.81,738.119,-0.486826,4.725e-07,-0.0220932,-0.0492496,0.289005,0.289005,-0.575179,-1.18605e-11,-1.37977e-06,-1.48571e-05,0.57312,0.33509840400383983,-1.1860512572070547e-11,-1.3797690481265334e-06,0.33509840400383983,-1.4856989633882378e-05,-0.4373958463502853
850,0.3353,739.498,738.814,0.204801,-2.43292e-07,0.0204583,0.0263223,0.289192,0.289192,-0.57555,-5.39686e-12,-6.84357e-07,-1.36388e-05,0.573492,0.33534809075037164,-5.3969051450053485e-12,-6.84356765812133e-07,0.33534809075037164,-1.363870699200298e-05,-0.43760453377737796
851,0.3357,739.583,738.905,0.292794,-3.22456e-07,0.0244929,0.035866,0.289473,0.289473,-0.576111,-4.27596e-12,-5.5295e-07,-1.33871e-05,0.574053,0.33572337628902127,-4.275912957041328e-12,-5.52949847132389e-07,0.33572337628902127,-1.3387010393217658e-05,-0.437919949151644
852,0.3363,739.093,738.409,-0.19996,2.13035e-07,-0.00757306,-0.0183752,0.289894,0.289894,-0.576956,-8.91127e-12,-1.08047e-06,-1.42988e-05,0.574898,0.3362858342195256,-8.911316129456281e-12,-1.0804694162702688e-06,0.3362858342195256,-1.4298697772696656e-05,-0.43839470618151677
853,0.3365,739.416,738.74,0.126611,-1.52528e-07,0.0145457,0.0173742,0.290052,0.290052,-0.577269,-5.65756e-12,-7.15459e-07,-1.37169e-05,0.575212,0.3364969840617307,-5.657585511187335e-12,-7.154587440272309e-07,0.3364969840617307,-1.3716805923769115e-05,-0.4385704611313974
854,0.3368,739.045,738.374,-0.242064,3.09761e-07,-0.0139191,-0.0241636,0.290289,0.290289,-0.577745,-9.86924e-12,-1.18867e-06,-1.44142e-05,0.575687,0.3368137713847683,-9.869216555102867e-12,-1.1886692935503262e-06,0.3368137713847683,-1.4414096115911157e-05,-0.43883763799875974
855,0.3373,738.944,738.271,-0.344227,3.8828e-07,-0.0180808,-0.0351031,0.290644,0.290644,-0.578456,-1.11431e-11,-1.3172e-06,-1.47046e-05,0.576397,0.33728842451955643,-1.1143086453557771e-11,-1.3171991325444665e-06,0.33728842451955643,-1.4704491887895799e-05,-0.4392364826320734
856,0.338,739.816,739.126,0.519508,-4.54549e-07,0.0319311,0.0589679,0.291176,0.291176,-0.579515,-2.76198e-12,-3.7207e-07,-1.29267e-05,0.577459,0.3380000512373238,-2.7620128406624644e-12,-3.720699307541153e-07,0.3380000512373238,-1.2926616450581463e-05,-0.4398300168651199
857,0.3383,739.035,738.352,-0.258086,3.76747e-07,-0.0164669,-0.0259157,0.291363,0.291363,-0.579893,-9.45116e-12,-1.15261e-06,-1.42883e-05,0.577835,0.3382502806426255,-9.451106564029033e-12,-1.1526093357527856e-06,0.3382502806426255,-1.4288197922707191e-05,-0.440041721104123
858,0.3386,739.476,738.798,0.185499,-1.66909e-07,0.0169857,0.0238477,0.291643,0.291643,-0.580451,-4.52113e-12,-5.86429e-07,-1.3447e-05,0.578394,0.3386250431855129,-4.521161223181025e-12,-5.864288280532648e-07,0.3386250431855129,-1.3446909589487355e-05,-0.44035409066453446
859,0.3392,739.658,738.974,0.364502,-3.34945e-07,0.0258262,0.0431595,0.292063,0.292063,-0.58129,-2.52382e-12,-3.40143e-07,-1.29604e-05,0.579234,0.3391873837869108,-2.5238700018803684e-12,-3.401429421456825e-07,0.3391873837869108,-1.296031601438763e-05,-0.44082343666428814
860,0.34,738.995,738.284,-0.312427,2.90398e-07,-0.0102854,-0.0279221,0.292693,0.292693,-0.582554,-7.85139e-12,-9.65553e-07,-1.42341e-05,0.580496,0.3400313376562516,-7.851386207846645e-12,-9.655525338159165e-07,0.3400313376562516,-1.4233998695711847e-05,-0.44152978933141407
861,0.3403,739.504,738.803,0.201668,-2.23452e-07,0.0202292,0.0260953,0.29288,0.29288,-0.582924,-3.46024e-12,-4.54176e-07,-1.3345e-05,0.580867,0.3402819469476317,-3.4602321008492254e-12,-4.5417589689122906e-07,0.3402819469476317,-1.3344910955837008e-05,-0.4417363850867898
862,0.3407,739.523,738.829,0.224397,-2.31684e-07,0.0196688,0.028221,0.293159,0.293159,-0.583483,-3.07355e-12,-4.0734e-07,-1.32293e-05,0.581427,0.34065593778012526,-3.0735414213722834e-12,-4.0733991701902283e-07,0.34065593778012526,-1.322921249324871e-05,-0.4420483672403903
863,0.3412,739.219,738.523,-0.0806824,9.21597e-08,-0.000490902,-0.00518951,0.293579,0.293579,-0.584324,-5.66332e-12,-7.22362e-07,-1.37655e-05,0.582267,0.3412191315364028,-5.663358670915386e-12,-7.223617390916814e-07,0.3412191315364028,-1.3765405255994345e-05,-0.4425174073045489
864,0.3414,739.366,738.678,0.070367,-7.94985e-08,0.00983116,0.0110586,0.293736,0.293736,-0.584638,9.49738e-11,-5.46391e-07,-1.34938e-05,0.582581,0.3414297194707743,9.497380659695409e-11,-5.463908506753157e-07,0.3414297194707743,-1.349370895908919e-05,-0.44269242935875475
865,0.3417,739.186,738.505,-0.106337,1.3624e-07,-0.0038989,-0.00884261,0.293972,0.293972,-0.58511,-6.04449e-12,-7.68891e-07,-1.38215e-05,0.583053,0.3417463342436431,-6.044498235269202e-12,-7.688907044389737e-07,0.3417463342436431,-1.3821404483471689e-05,-0.44295541646225856
866,0.3422,739.585,738.905,0.29326,-3.06914e-07,0.0231329,0.0362376,0.294326,0.294326,-0.585815,-1.96335e-12,-2.66108e-07,-1.29874e-05,0.583759,0.34222139652702843,-1.963318396747127e-12,-2.661079645527309e-07,0.34222139652702843,-1.298731566412581e-05,-0.4433479944936365
867,0.3429,739.818,739.122,0.518753,-4.68952e-07,0.0318329,0.0588812,0.294856,0.294856,-0.586875,2.76508e-13,3.95985e-08,-1.23139e-05,0.584819,0.34293296241549154,2.76445533131664e-13,3.9598500700677164e-08,0.34293296241549154,-1.23138241842069e-05,-0.4439377330028442
868,0.3439,738.888,738.151,-0.432259,3.49059e-07,-0.0137789,-0.038054,0.2956,0.2956,-0.588369,-6.17918e-12,-7.74603e-07,-1.41032e-05,0.586312,0.3439324763125928,-6.179168288156234e-12,-7.746026999821964e-07,0.3439324763125928,-1.410310055038888e-05,-0.44476786976317007
869,0.3442,739.572,738.848,0.257971,-2.95047e-07,0.0247697,0.0325939,0.295786,0.295786,-0.588737,-9.35841e-13,-1.27941e-07,-1.29399e-05,0.586681,0.3441824710019723,-9.358069874565444e-13,-1.2794099180091223e-07,0.3441824710019723,-1.2939816279811112e-05,-0.44497215759583053
870,0.3446,739.61,738.897,0.301694,-3.17464e-07,0.0250442,0.036921,0.296065,0.296065,-0.589294,-3.82159e-13,-5.3011e-08,-1.27652e-05,0.587239,0.34455755023250156,-3.821387650759789e-13,-5.301099859078562e-08,0.34455755023250156,-1.2765118525215335e-05,-0.44528122202161646
871,0.3451,739.148,738.438,-0.159064,1.75938e-07,-0.005273,-0.0138254,0.296483,0.296483,-0.590134,-4.20573e-12,-5.47941e-07,-1.36105e-05,0.588077,0.3451196927681037,-4.205746861885018e-12,-5.479408499153848e-07,0.3451196927681037,-1.3610407377573353e-05,-0.4457469901451193
872,0.3453,739.412,738.712,0.110168,-1.2431e-07,0.0130767,0.0155599,0.29664,0.29664,-0.590446,-1.78393e-12,-2.41125e-07,-1.31259e-05,0.58839,0.3453308931386636,-1.7839063559677015e-12,-2.4112497087891427e-07,0.3453308931386636,-1.3125813855707769e-05,-0.4459198901103969
873,0.3456,739.1,738.408,-0.197751,2.54839e-07,-0.0107719,-0.0191319,0.296875,0.296875,-0.590918,-4.93166e-12,-6.38696e-07,-1.37101e-05,0.588861,0.3456470830494105,-4.931610675384945e-12,-6.386957960291539e-07,0.3456470830494105,-1.3710006017020326e-05,-0.44618135421188265
874,0.3461,739.008,738.319,-0.288487,3.23671e-07,-0.0146721,-0.0289028,0.297228,0.297228,-0.591624,-5.90447e-12,-7.51787e-07,-1.39619e-05,0.589567,0.3461221803194616,-5.90449911186397e-12,-7.517867174344772e-07,0.3461221803194616,-1.3961802533102308e-05,-0.44657221218670917
875,0.3468,739.886,739.183,0.582937,-5.11159e-07,0.0361017,0.0672617,0.297757,0.297757,-0.592676,1.59001e-12,2.34126e-07,-1.20943e-05,0.590621,0.3468344673361561,1.5900614158681492e-12,2.3412602745409572e-07,0.3468344673361561,-1.2094226864212132e-05,-0.4471541120864755
876,0.3471,739.395,738.702,0.0966436,-8.56429e-08,0.0114597,0.0138853,0.297942,0.297942,-0.59305,-9.34113e-13,-1.29041e-07,-1.28996e-05,0.590994,0.3470836547617393,-9.341416529196067e-13,-1.2904099166988203e-07,0.3470836547617393,-1.2899516800501942e-05,-0.44736083778843927
877,0.3475,739.64,738.953,0.344584,-3.63834e-07,0.0286305,0.0424123,0.298221,0.298221,-0.593605,1.52029e-12,2.19902e-07,-1.23312e-05,0.59155,0.3474595435354635,1.5203394099216894e-12,2.1990202414556848e-07,0.3474595435354635,-1.2331123971032198e-05,-0.4476674674258715
878,0.348,738.889,738.198,-0.408602,4.55022e-07,-0.0202739,-0.0413472,0.298638,0.298638,-0.594444,-4.87756e-12,-6.30759e-07,-1.38121e-05,0.592388,0.3480215513356002,-4.8775428140857e-12,-6.3075880107899e-07,0.3480215513356002,-1.381200461336718e-05,-0.44813068007582246
879,0.3482,739.508,738.826,0.215148,-2.23199e-07,0.0217765,0.0274264,0.298795,0.298795,-0.594754,4.33222e-13,6.10003e-08,-1.26919e-05,0.592698,0.3482332073337209,4.332090242087361e-13,6.100030192079942e-08,0.3482332073337209,-1.26918194581771e-05,-0.448301733050418
880,0.3485,739.489,738.812,0.198355,-1.90191e-07,0.0185217,0.0253693,0.299029,0.299029,-0.595223,3.83799e-13,5.42157e-08,-1.2661e-05,0.593168,0.34854873081904514,3.836930773104541e-13,5.4215701483784073e-08,0.34854873081904514,-1.2660919849860619e-05,-0.4485604188710507
881,0.349,739.247,738.57,-0.0433004,7.28994e-08,0.00129762,-0.00134062,0.299381,0.299381,-0.595928,-1.5387e-12,-2.10644e-07,-1.30799e-05,0.593873,0.34902350352738787,-1.5386580898280044e-12,-2.106439778160052e-07,0.34902350352738787,-1.3079814458527572e-05,-0.4489490467683164
882,0.3497,739.862,739.169,0.563081,-4.8535e-07,0.0350676,0.0653475,0.299909,0.299909,-0.59698,3.29316e-12,5.05765e-07,-1.16797e-05,0.594926,0.3497359760134344,3.2931435356431393e-12,5.057651280004904e-07,0.3497359760134344,-1.1679631792604894e-05,-0.4495284475528679
883,0.35,739.054,738.368,-0.241018,3.52908e-07,-0.0153292,-0.023992,0.300094,0.300094,-0.597355,-2.28531e-12,-3.12585e-07,-1.31225e-05,0.595299,0.3499857002677784,-2.2852830738884222e-12,-3.125849511453893e-07,0.3499857002677784,-1.3122413900390484e-05,-0.4497348356848423
884,0.3504,739.476,738.796,0.183888,-1.5314e-07,0.0167057,0.0236352,0.300372,0.300372,-0.597908,1.61914e-12,2.36367e-07,-1.23066e-05,0.595853,0.3503610484634345,1.6191492591133283e-12,2.3636702795037934e-07,0.3503610484634345,-1.2306524274086073e-05,-0.45003904819819607
885,0.3509,739.639,738.955,0.34502,-3.00245e-07,0.0245318,0.0410031,0.300788,0.300788,-0.59874,3.04999e-12,4.62808e-07,-1.18561e-05,0.596686,0.35092291551984034,3.05000469325023e-12,4.6280810717114207e-07,0.35092291551984034,-1.1856029716761363e-05,-0.4504964254147892
886,0.3518,739.039,738.328,-0.268418,2.44301e-07,-0.00841018,-0.0234038,0.301412,0.301412,-0.599992,-7.78079e-13,-1.07822e-07,-1.30096e-05,0.597937,0.3517661544823194,-7.780442956573097e-13,-1.0782199422187944e-07,0.3517661544823194,-1.3009515375528302e-05,-0.4511839733953228
887,0.352,739.481,738.78,0.178222,-1.88938e-07,0.0181698,0.0233824,0.301597,0.301597,-0.60036,2.32732e-12,3.43289e-07,-1.22296e-05,0.598305,0.35201625435442363,2.327249504219253e-12,3.4328905895719686e-07,0.35201625435442363,-1.2229525218732107e-05,-0.4513859005362406
888,0.3524,739.49,738.796,0.190827,-1.8837e-07,0.0171496,0.0244145,0.301875,0.301875,-0.600914,2.526e-12,3.75647e-07,-1.21414e-05,0.59886,0.3523921671225878,2.525979425627156e-12,3.756470705607029e-07,0.3523921671225878,-1.2141326293457766e-05,-0.45168974857366573
889,0.353,739.253,738.558,-0.0470739,5.43014e-08,0.00130153,-0.00154494,0.302291,0.302291,-0.601747,9.17252e-13,1.32134e-07,-1.25514e-05,0.599692,0.3529548793001287,9.172662629453043e-13,1.321340086235523e-07,0.3529548793001287,-1.2551321231457635e-05,-0.45214630083268836
890,0.3532,739.348,738.661,0.0524627,-5.65895e-08,0.00814761,0.00899598,0.302446,0.302446,-0.602058,1.72713e-12,2.52581e-07,-1.23698e-05,0.600004,0.35316460355963053,1.7270629371068935e-12,2.5258103186764913e-07,0.35316460355963053,-1.2369723494387586e-05,-0.4523166568413969
891,0.3535,739.226,738.546,-0.0658055,8.20196e-08,-0.00110195,-0.00431382,0.30268,0.30268,-0.602527,7.27019e-13,1.0457e-07,-1.25868e-05,0.600472,0.35348128112669386,7.269740365245525e-13,1.0457000554353613e-07,0.35348128112669386,-1.2586720786522676e-05,-0.452573460104266
892,0.354,739.503,738.824,0.211307,-2.19257e-07,0.0176714,0.0270222,0.303031,0.303031,-0.603226,3.06222e-12,4.62768e-07,-1.19937e-05,0.601172,0.35395643644124863,3.0622171465211068e-12,4.6276810716783245e-07,0.35395643644124863,-1.1993628075912532e-05,-0.45295597755023087
893,0.3547,738.952,738.256,-0.348305,3.21572e-07,-0.0143796,-0.0334672,0.303556,0.303556,-0.604281,-8.59837e-13,-1.18991e-07,-1.31202e-05,0.602226,0.35466745019515966,-8.598677325721837e-13,-1.1899099294776505e-07,0.35466745019515966,-1.312011393050927e-05,-0.45353280466411083
894,0.3549,739.503,738.816,0.207227,-2.38541e-07,0.02044,0.0266712,0.303741,0.303741,-0.604647,3.11696e-12,4.67155e-07,-1.21219e-05,0.602593,0.35491808685662196,3.1170621639375895e-12,4.671551090407178e-07,0.35491808685662196,-1.212182653009819e-05,-0.453732775060789
895,0.3553,739.53,738.848,0.236943,-2.51458e-07,0.020388,0.0296551,0.304018,0.304018,-0.6052,3.45355e-12,5.23858e-07,-1.19881e-05,0.603146,0.3552934511522363,3.453459740399012e-12,5.238581373134821e-07,0.3552934511522363,-1.1988028143061769e-05,-0.4540347773248581
896,0.3559,739.197,738.511,-0.0985531,9.87879e-08,-0.00182242,-0.00716803,0.304433,0.304433,-0.606032,1.14905e-12,1.66134e-07,-1.25943e-05,0.603977,0.35585601465831807,1.149080830487037e-12,1.6613401387921556e-07,0.35585601465831807,-1.2594220692108138e-05,-0.45448883147740404
897,0.3561,739.369,738.691,0.0778937,-9.44291e-08,0.0102465,0.01192,0.304588,0.304588,-0.606342,2.50911e-12,3.72465e-07,-1.2273e-05,0.604288,0.356066188628652,2.5091040356528538e-12,3.7246506945365354e-07,0.356066188628652,-1.2272924687084519e-05,-0.45465791373054276
898,0.3564,739.164,738.491,-0.124836,1.4872e-07,-0.00552923,-0.0109135,0.304822,0.304822,-0.60681,7.67851e-13,1.10616e-07,-1.26564e-05,0.604755,0.3563835452460671,7.678302438307583e-13,1.1061600613260225e-07,0.3563835452460671,-1.2656319908099789e-05,-0.4549130741147297
899,0.3569,739.613,738.94,0.324263,-3.31661e-07,0.0249977,0.0397347,0.305171,0.305171,-0.607507,4.36985e-12,6.81053e-07,-1.17121e-05,0.605453,0.35685700571740453,4.369837824924616e-12,6.810532318102247e-07,0.35685700571740453,-1.1712031413591006e-05,-0.4552928673287612
900,0.3576,738.775,738.084,-0.522508,5.20188e-07,-0.0244787,-0.0530271,0.305696,0.305696,-0.608561,-1.70463e-12,-2.31634e-07,-1.34563e-05,0.606506,0.3575695426699903,-1.7046364320094654e-12,-2.3163397322445434e-07,0.3575695426699903,-1.345620946435755e-05,-0.4558666861909342
901,0.3578,739.192,738.509,-0.101514,1.51803e-07,-0.00428952,-0.00819955,0.30588,0.30588,-0.608927,5.50165e-13,7.88717e-08,-1.27623e-05,0.606873,0.35781935844818835,5.502265310042276e-13,7.887170316855929e-08,0.35781935844818835,-1.276221856216786e-05,-0.4560658025432731
902,0.3582,739.065,738.387,-0.225874,2.81529e-07,-0.0124505,-0.0223705,0.306156,0.306156,-0.60948,-6.07074e-13,-8.52125e-08,-1.30464e-05,0.607425,0.35819416831250184,-6.070699498650356e-13,-8.521249639237283e-08,0.35819416831250184,-1.3046314896070221e-05,-0.45636651499980907
903,0.3588,739.689,739.006,0.395109,-3.69255e-07,0.0280188,0.0474656,0.30657,0.30657,-0.610304,4.30463e-12,6.72506e-07,-1.17376e-05,0.608251,0.3587565771087713,4.304556711076657e-12,6.725062260404258e-07,0.3587565771087713,-1.1737531114608402e-05,-0.4568142844850859
904,0.359,739.122,738.446,-0.168361,2.51957e-07,-0.0101676,-0.0156396,0.306726,0.306726,-0.610618,3.68481e-13,5.29907e-08,-1.27578e-05,0.608564,0.35896855966901,3.6837199957062694e-13,5.299070138242712e-08,0.35896855966901,-1.2757718619638148e-05,-0.4569848180245907
905,0.3593,739.099,738.429,-0.188289,2.50905e-07,-0.0102326,-0.0179244,0.306958,0.306958,-0.611084,1.92324e-13,2.75141e-08,-1.28342e-05,0.60903,0.35928387695024355,1.9229062786507711e-13,2.7514100331416103e-08,0.35928387695024355,-1.2834117641968845e-05,-0.45723780414904613
906,0.3598,739.483,738.812,0.194941,-1.83929e-07,0.0166097,0.0252776,0.307307,0.307307,-0.61178,3.35292e-12,5.11179e-07,-1.20569e-05,0.609726,0.359758349813998,3.3528735343679728e-12,5.11179130580075e-07,0.359758349813998,-1.2056827315864993e-05,-0.45761543520650616
907,0.3605,738.824,738.135,-0.472943,4.68997e-07,-0.0211985,-0.0468801,0.307831,0.307831,-0.61283,-1.47034e-12,-2.01352e-07,-1.3446e-05,0.610776,0.36047104990041556,-1.4703793738135573e-12,-2.0135197975612584e-07,0.36047104990041556,-1.3445909602949335e-05,-0.45818464011466686
908,0.3607,739.555,738.873,0.261424,-2.81011e-07,0.0248214,0.033,0.308015,0.308015,-0.613194,3.77042e-12,5.73247e-07,-1.21181e-05,0.611141,0.3607213996050638,3.770317391627032e-12,5.732471644037673e-07,0.3607213996050638,-1.2118026576080076e-05,-0.4583818250158359
909,0.3611,739.603,738.927,0.31272,-3.1507e-07,0.0257601,0.0383568,0.30829,0.30829,-0.613744,4.27243e-12,6.60866e-07,-1.19217e-05,0.611692,0.36109564944694994,4.272360243362527e-12,6.608662184159897e-07,0.36109564944694994,-1.1921628936817363e-05,-0.45867963310734483
910,0.3617,739.118,738.436,-0.175747,2.03753e-07,-0.00649042,-0.0155116,0.308703,0.308703,-0.614574,8.49863e-13,1.22253e-07,-1.28367e-05,0.61252,0.3616578980465155,8.497647030480948e-13,1.2225300749513224e-07,0.3616578980465155,-1.2836617609868206e-05,-0.4591287426056413
911,0.3619,739.406,738.731,0.116472,-1.20739e-07,0.0134707,0.0164483,0.308858,0.308858,-0.614882,3.06163e-12,4.59765e-07,-1.23026e-05,0.612829,0.3618689713784733,3.0615510127063317e-12,4.597651057647312e-07,0.3618689713784733,-1.230252432338208e-05,-0.459295305300947
912,0.3622,739.074,738.405,-0.213002,2.82895e-07,-0.0121186,-0.0206666,0.309091,0.309091,-0.615348,1.76391e-13,2.52073e-08,-1.29377e-05,0.613295,0.362186323818928,1.7630341631047486e-13,2.5207300247132025e-08,0.362186323818928,-1.2937616308272837e-05,-0.45954721498916073
913,0.3627,738.989,738.318,-0.298863,3.4213e-07,-0.0155837,-0.0298857,0.309439,0.309439,-0.616045,-6.09953e-13,-8.56131e-08,-1.31873e-05,0.613992,0.3626604471522923,-6.09956529729061e-13,-8.561309638999148e-08,0.3626604471522923,-1.3187213047993751e-05,-0.4599237793323948
914,0.3634,739.871,739.183,0.574359,-4.93006e-07,0.035653,0.0665609,0.309961,0.309961,-0.617085,5.59364e-12,9.18294e-07,-1.12939e-05,0.615033,0.36337194158959796,5.593747687271389e-12,9.182944216146183e-07,0.36337194158959796,-1.1293836224113285e-05,-0.4604851666298947
915,0.3636,739.387,738.706,0.0937623,-7.58152e-08,0.0111051,0.0137475,0.310145,0.310145,-0.617454,3.58683e-12,5.49766e-07,-1.21038e-05,0.615402,0.3636228251074263,3.5869085479589558e-12,5.49766151047848e-07,0.3636228251074263,-1.2103726749312926e-05,-0.460684210877486
916,0.364,739.628,738.952,0.337298,-3.4905e-07,0.028047,0.0417664,0.310419,0.310419,-0.618003,5.57895e-12,8.97845e-07,-1.15379e-05,0.615951,0.3639965089538548,5.578870698741412e-12,8.978454031360883e-07,0.3639965089538548,-1.153783343865733e-05,-0.46098021398542655
917,0.3646,738.896,738.215,-0.396795,4.43703e-07,-0.0198553,-0.0399202,0.310832,0.310832,-0.618832,3.64399e-13,5.2112e-08,-1.30015e-05,0.616778,0.364559955855829,3.643751966819764e-13,5.211200138077743e-08,0.364559955855829,-1.3001415480884404e-05,-0.4614268762209557
918,0.3648,739.497,738.822,0.20693,-2.10324e-07,0.0209844,0.0266733,0.310986,0.310986,-0.619137,4.69492e-12,7.33935e-07,-1.18998e-05,0.617085,0.3647701142708135,4.694911126534862e-12,7.339352692259382e-07,0.3647701142708135,-1.1899729197684117e-05,-0.46159111597587243
919,0.3651,739.475,738.805,0.187466,-1.75221e-07,0.0176152,0.0243309,0.311218,0.311218,-0.619601,4.60843e-12,7.2238e-07,-1.18764e-05,0.617549,0.3650867776688582,4.608535775219025e-12,7.223802609424013e-07,0.3650867776688582,-1.1876329475857261e-05,-0.4618408797483833
920,0.3656,739.253,738.582,-0.0352872,6.53432e-08,0.00164604,-0.000277516,0.311566,0.311566,-0.620298,3.12079e-12,4.74223e-07,-1.22649e-05,0.618245,0.3655619105358108,3.120836922221315e-12,4.742231123344709e-07,0.3655619105358108,-1.2264824786445416e-05,-0.4622158459642923
921,0.3663,739.817,739.129,0.520257,-4.46451e-07,0.0327436,0.0609234,0.312087,0.312087,-0.621337,6.71797e-12,1.1445e-06,-1.0958e-05,0.619286,0.36627355365813585,6.717959522006822e-12,1.1445006549148928e-06,0.36627355365813585,-1.0957939961309116e-05,-0.46277431352619725
922,0.3665,739.074,738.394,-0.218557,3.18472e-07,-0.0137419,-0.0212751,0.31227,0.31227,-0.621707,2.4938e-12,3.78584e-07,-1.23045e-05,0.619654,0.3665236045974183,2.4937829579130266e-12,3.7858407164748087e-07,0.3665236045974183,-1.2304424300002559e-05,-0.46297305026162916
923,0.3669,738.957,738.282,-0.333128,4.16297e-07,-0.0198072,-0.0340168,0.312544,0.312544,-0.622257,1.52162e-12,2.25762e-07,-1.2601e-05,0.620204,0.36689808336632646,1.5216716775512396e-12,2.2576202551860547e-07,0.36689808336632646,-1.2600920607730437e-05,-0.4632683338735484
924,0.3675,739.75,739.069,0.456991,-3.97965e-07,0.031758,0.0543653,0.312956,0.312956,-0.623075,6.91547e-12,1.18141e-06,-1.09582e-05,0.621024,0.36746136140398145,6.9155792203901e-12,1.1814106979368688e-06,0.36746136140398145,-1.0958139959105218e-05,-0.463707200855373
925,0.3677,739.086,738.412,-0.203236,3.23459e-07,-0.0131779,-0.0195038,0.31311,0.31311,-0.623387,2.8861e-12,4.44374e-07,-1.21646e-05,0.621335,0.36767196666982693,2.886135774815557e-12,4.4437409862929655e-07,0.36767196666982693,-1.2164526011604337e-05,-0.4638744981089774
926,0.368,739.069,738.401,-0.217732,3.08709e-07,-0.0125453,-0.0211826,0.313341,0.313341,-0.62385,2.77092e-12,4.2434e-07,-1.22396e-05,0.621797,0.3679879353871094,2.7708946248594657e-12,4.2434008995506645e-07,0.3679879353871094,-1.2239525096435777e-05,-0.46412266676087666
927,0.3685,739.494,738.824,0.205981,-1.70489e-07,0.0172523,0.026537,0.313688,0.313688,-0.624541,5.82787e-12,9.60958e-07,-1.13801e-05,0.62249,0.36846270956924543,5.827782700862372e-12,9.609584616931954e-07,0.36846270956924543,-1.1380035246921771e-05,-0.46449283009198516
928,0.3692,739.765,739.077,0.468268,-3.8202e-07,0.0290552,0.0537142,0.314208,0.314208,-0.62558,7.39601e-12,1.30507e-06,-1.06518e-05,0.623529,0.3691744952264535,7.396083745447868e-12,1.3050708516093579e-06,0.3691744952264535,-1.0651743269751712e-05,-0.46504893309598194
929,0.3702,738.87,738.141,-0.447243,3.71772e-07,-0.0150734,-0.0398224,0.314938,0.314938,-0.627045,3.20438e-12,4.85238e-07,-1.24412e-05,0.624993,0.3701743575133012,3.204325693673127e-12,4.852381176867482e-07,0.3701743575133012,-1.2441122608564115e-05,-0.46583206262655086
930,0.3704,739.565,738.849,0.254403,-2.65247e-07,0.0242702,0.0323317,0.315121,0.315121,-0.627406,6.90233e-12,1.15901e-06,-1.12262e-05,0.625355,0.37042512236501035,6.902256544094598e-12,1.159010671658578e-06,0.37042512236501035,-1.1226136986453028e-05,-0.4660248624494808
931,0.3708,739.601,738.894,0.29503,-2.86381e-07,0.0244129,0.0363539,0.315394,0.315394,-0.627953,7.20921e-12,1.23026e-06,-1.10559e-05,0.625902,0.37079929949627055,7.2091221881009915e-12,1.2302607568237534e-06,0.37079929949627055,-1.1055838883722302e-05,-0.46631686697920116
932,0.3714,739.153,738.448,-0.15226,1.7714e-07,-0.00525748,-0.0129641,0.315805,0.315805,-0.628776,4.61612e-12,7.33095e-07,-1.18956e-05,0.626724,0.3713628138026208,4.616085291786476e-12,7.330952687123471e-07,0.3713628138026208,-1.189552924762971e-05,-0.46675590750771856
933,0.3716,739.405,738.709,0.10432,-1.02925e-07,0.0123254,0.0150577,0.315959,0.315959,-0.629082,6.24677e-12,1.0337e-06,-1.1422e-05,0.627031,0.37157401993840145,6.246780870355906e-12,1.033700534280868e-06,0.37157401993840145,-1.1421934769217934e-05,-0.4669190552371456
934,0.3719,739.112,738.424,-0.184734,2.42666e-07,-0.0101818,-0.017502,0.316189,0.316189,-0.629545,4.11208e-12,6.49107e-07,-1.19824e-05,0.627494,0.3718895182439017,4.112044038606655e-12,6.491072106484808e-07,0.3718895182439017,-1.1982328211312954e-05,-0.46716581458537354
935,0.3724,739.73,739.044,0.43442,-4.11825e-07,0.0321363,0.052267,0.316535,0.316535,-0.630234,8.124e-12,1.44104e-06,-1.0675e-05,0.628183,0.37236427414524864,8.12394596039212e-12,1.441041038274804e-06,0.37236427414524864,-1.067494302242622e-05,-0.46753281089437737
936,0.3731,739.802,739.104,0.500213,-4.16557e-07,0.0307312,0.0571547,0.317054,0.317054,-0.63127,8.58509e-12,1.58343e-06,-1.02833e-05,0.62922,0.3730767160662165,8.58513260482141e-12,1.5834312536711082e-06,0.3730767160662165,-1.0283247127040873e-05,-0.4680841612534913
937,0.3738,739.049,738.34,-0.257926,2.49935e-07,-0.00979543,-0.0233407,0.317572,0.317572,-0.632311,5.41951e-12,8.80381e-07,-1.16947e-05,0.63026,0.3737881540516692,5.419442672405239e-12,8.803813875690736e-07,0.3737881540516692,-1.1694631617209517e-05,-0.46863759752806644
938,0.3745,739.793,739.077,0.48265,-3.85421e-07,0.0297928,0.0552623,0.31809,0.31809,-0.633343,8.91751e-12,1.67488e-06,-1.01314e-05,0.631293,0.3744999606574626,8.917533378394182e-12,1.6748814026801284e-06,0.3744999606574626,-1.0131348677555607e-05,-0.4691856806678738
939,0.3752,738.838,738.117,-0.475361,4.87691e-07,-0.0223102,-0.0479877,0.318608,0.318608,-0.634384,4.53299e-12,7.17385e-07,-1.20435e-05,0.632333,0.3752121360745917,4.533040609544514e-12,7.173852574204886e-07,0.3752121360745917,-1.2043427477292923e-05,-0.46973797085737945
940,0.3759,739.793,739.067,0.477115,-3.50222e-07,0.0295067,0.0546984,0.319125,0.319125,-0.635414,9.02915e-12,1.70756e-06,-1.00947e-05,0.633364,0.37592330457015777,9.029221814671473e-12,1.7075614577866105e-06,0.37592330457015777,-1.0094649048664195e-05,-0.47028385956645
941,0.3766,739.819,739.09,0.501903,-3.87065e-07,0.0307743,0.0572894,0.319643,0.319643,-0.636449,9.6416e-12,1.89309e-06,-9.73886e-06,0.634399,0.3766362174704252,9.64162083505471e-12,1.8930917919934842e-06,0.3766362174704252,-9.738812577486655e-06,-0.47083183214707147
942,0.3773,739.093,738.362,-0.225647,2.29958e-07,-0.00797859,-0.0197865,0.32016,0.32016,-0.637487,7.09277e-12,1.22597e-06,-1.10808e-05,0.635436,0.37734812240642635,7.092770815120275e-12,1.2259707515838159e-06,0.37734812240642635,-1.1080738608115759e-05,-0.4713808237293793
943,0.3781,738.8,738.068,-0.518977,5.03964e-07,-0.0247761,-0.0527049,0.320677,0.320677,-0.638522,5.09064e-12,8.21319e-07,-1.18905e-05,0.636471,0.378060395492438,5.090594612511268e-12,8.213193372075267e-07,0.378060395492438,-1.189042930827e-05,-0.4719276615394372
944,0.3788,739.848,739.114,0.52803,-4.00426e-07,0.0322805,0.0602208,0.321193,0.321193,-0.639549,9.69978e-12,1.91305e-06,-9.74256e-06,0.6375,0.37877165814649527,9.699796521545068e-12,1.9130518298382526e-06,0.37877165814649527,-9.74251254137748e-06,-0.4724697134397422
945,0.3795,738.835,738.1,-0.485327,5.14466e-07,-0.022934,-0.0490591,0.321709,0.321709,-0.640587,5.49148e-12,8.98338e-07,-1.17649e-05,0.638536,0.37948328790678754,5.491385124400949e-12,8.983384034433328e-07,0.37948328790678754,-1.1764830793792314e-05,-0.47301700578332573
946,0.3802,739.803,739.068,0.48252,-3.36507e-07,0.0297958,0.0553218,0.322225,0.322225,-0.641613,9.6801e-12,1.90828e-06,-9.7785e-06,0.639564,0.3801952849627901,9.68003455170674e-12,1.9082818207838415e-06,0.3801952849627901,-9.778452190634113e-06,-0.4735574130590534
947,0.3809,739.824,739.088,0.503153,-3.7362e-07,0.0308373,0.0574635,0.322741,0.322741,-0.642645,1.02093e-11,2.09065e-06,-9.42859e-06,0.640596,0.38090764950407663,1.0209388889848015e-11,2.090652185371411e-06,0.38090764950407663,-9.428545550971279e-06,-0.47410042156819265
948,0.3816,739.097,738.361,-0.22397,2.36627e-07,-0.00795548,-0.0196037,0.323256,0.323256,-0.64368,7.91336e-12,1.42031e-06,-1.07747e-05,0.64163,0.38161900010062744,7.91344767492319e-12,1.420311008581976e-06,0.38161900010062744,-1.0774641953092967e-05,-0.4746444460506355
949,0.3823,738.812,738.076,-0.508819,4.98593e-07,-0.0243127,-0.0516158,0.323771,0.323771,-0.644711,6.11434e-12,1.02393e-06,-1.15664e-05,0.642661,0.38233071713708555,6.114442285820587e-12,1.0239305241466212e-06,0.38233071713708555,-1.1566333109502835e-05,-0.4751858085064574
950,0.383,739.832,739.096,0.511003,-3.80581e-07,0.031345,0.058416,0.324286,0.324286,-0.645735,1.02083e-11,2.09189e-06,-9.46732e-06,0.643687,0.38304280080221664,1.020827866682339e-11,2.0918921879164998e-06,0.38304280080221664,-9.467275185026658e-06,-0.47572294317865904
951,0.3838,738.861,738.124,-0.460363,4.88231e-07,-0.0216639,-0.046377,0.324801,0.324801,-0.64677,6.55248e-12,1.11589e-06,-1.14101e-05,0.64472,0.3837552512848823,6.552536291337674e-12,1.1158906225716692e-06,0.3837552512848823,-1.14100349050128e-05,-0.47626528921997824
952,0.3845,738.798,738.062,-0.523108,5.28689e-07,-0.0250953,-0.0530564,0.325315,0.325315,-0.647799,5.60337e-12,9.24174e-07,-1.18002e-05,0.645749,0.3844666843066662,5.603295605283165e-12,9.24174426986113e-07,0.3844666843066662,-1.1800130377936924e-05,-0.4768039350565596
953,0.3852,738.849,738.113,-0.471598,4.66091e-07,-0.02226,-0.0474264,0.325829,0.325829,-0.648827,5.21149e-12,8.49384e-07,-1.19602e-05,0.646777,0.38517848309901814,5.211386877590485e-12,8.493843606238727e-07,0.38517848309901814,-1.1960128477039866e-05,-0.47734150425341304
954,0.3859,738.811,738.075,-0.509826,4.93813e-07,-0.0242675,-0.0513822,0.326343,0.326343,-0.649855,4.31596e-12,6.85243e-07,-1.22971e-05,0.647805,0.38589064784999283,4.3158809859278335e-12,6.852432348214421e-07,0.38589064784999283,-1.229702439098368e-05,-0.47787852111308204
955,0.3861,739.509,738.786,0.194678,-2.15021e-07,0.0192879,0.0256445,0.326523,0.326523,-0.650212,8.03733e-12,1.42762e-06,-1.09978e-05,0.648163,0.38614013061938146,8.037348564471358e-12,1.4276210189567706e-06,0.38614013061938146,-1.0997739524398753e-05,-0.47806488521307355
956,0.3865,739.586,738.873,0.276669,-2.88595e-07,0.0231303,0.034592,0.326794,0.326794,-0.650752,8.55348e-12,1.55542e-06,-1.07514e-05,0.648704,0.3865158254991363,8.553380226317131e-12,1.5554212096091646e-06,0.3865158254991363,-1.0751342203851877e-05,-0.4783466540906146
957,0.3871,739.124,738.415,-0.183255,1.98836e-07,-0.00726053,-0.0161433,0.3272,0.3272,-0.651566,6.12787e-12,1.03054e-06,-1.164e-05,0.649517,0.3870788652136168,6.127764962116089e-12,1.030540530910784e-06,0.3870788652136168,-1.163993225550275e-05,-0.4787711071383577
958,0.3873,739.416,738.716,0.113125,-1.27089e-07,0.0130196,0.0163423,0.327352,0.327352,-0.651868,7.81285e-12,1.38034e-06,-1.1085e-05,0.64982,0.38728971722547634,7.812861468892152e-12,1.380340952650272e-06,0.38728971722547634,-1.1084938561611857e-05,-0.47892849449731445
959,0.3876,739.087,738.396,-0.211255,2.70629e-07,-0.0122827,-0.0201934,0.32758,0.32758,-0.652326,5.62138e-12,9.39638e-07,-1.17246e-05,0.650277,0.38760605534217873,5.6212812182820926e-12,9.396384414994685e-07,0.38760605534217873,-1.1724531267187643e-05,-0.4791670906041555
960,0.3881,739.013,738.324,-0.284372,3.17146e-07,-0.0149843,-0.0280266,0.327922,0.327922,-0.653011,5.12484e-12,8.41402e-07,-1.19494e-05,0.650962,0.3880806977723348,5.1247894816697226e-12,8.414023540126436e-07,0.3880806977723348,-1.1949328606153387e-05,-0.4795237389810769
961,0.3888,739.832,739.132,0.528775,-4.59281e-07,0.0331951,0.0619643,0.328434,0.328434,-0.654032,9.31103e-12,1.80321e-06,-1.01461e-05,0.651984,0.38879157705916234,9.310996418321338e-12,1.8032116257948871e-06,0.38879157705916234,-1.0146048528447693e-05,-0.4800548740529832
962,0.389,739.05,738.359,-0.248413,3.60189e-07,-0.0163369,-0.0242904,0.328614,0.328614,-0.654396,5.69825e-12,9.6632e-07,-1.15934e-05,0.652347,0.3890415820428066,5.6983306961910785e-12,9.663204669774217e-07,0.3890415820428066,-1.1593332796766553e-05,-0.4802440996376822
963,0.3894,738.952,738.267,-0.343285,4.32725e-07,-0.0207816,-0.0348198,0.328884,0.328884,-0.654936,5.03058e-12,8.34517e-07,-1.18612e-05,0.652888,0.38941667390508083,5.030642569181509e-12,8.345173481139057e-07,0.38941667390508083,-1.1861129656232094e-05,-0.48052469205710624
964,0.39,739.73,739.043,0.433648,-3.81054e-07,0.0303762,0.0521345,0.329289,0.329289,-0.655742,9.31698e-12,1.79613e-06,-1.02192e-05,0.653694,0.38997950162293216,9.316991622654314e-12,1.796131612996632e-06,0.38997950162293216,-1.0219147784207294e-05,-0.4809432204657019
965,0.3902,739.1,738.42,-0.192603,3.10489e-07,-0.0124813,-0.0179681,0.329441,0.329441,-0.656049,6.22936e-12,1.07816e-06,-1.13878e-05,0.654,0.3901907945650356,6.229461391171753e-12,1.078160581258203e-06,0.3901907945650356,-1.1387735159296142e-05,-0.48110254643923067
966,0.3905,739.089,738.415,-0.200566,2.89146e-07,-0.0114709,-0.0189231,0.329668,0.329668,-0.656504,6.19116e-12,1.06679e-06,-1.14466e-05,0.654455,0.3905064036956829,6.191269719124648e-12,1.06679056899317e-06,0.3905064036956829,-1.1446534487924431e-05,-0.48133859107637356
967,0.391,739.475,738.801,0.184922,-1.54107e-07,0.015819,0.0245234,0.33001,0.33001,-0.657184,8.45504e-12,1.56794e-06,-1.06468e-05,0.655137,0.39098203821461364,8.455014466335342e-12,1.5679412292968209e-06,0.39098203821461364,-1.0646743323072805e-05,-0.48169116094709996
968,0.3917,738.831,738.142,-0.466364,4.76665e-07,-0.0213957,-0.0460004,0.330521,0.330521,-0.658211,5.14206e-12,8.44432e-07,-1.20415e-05,0.656163,0.3916930116743893,5.142108960853875e-12,8.44432356483793e-07,0.3916930116743893,-1.2041427501441326e-05,-0.4822231908806741
969,0.3919,739.545,738.863,0.250968,-2.57096e-07,0.0238532,0.0321644,0.330701,0.330701,-0.658566,8.80252e-12,1.627e-06,-1.07044e-05,0.656519,0.3919435389632704,8.802514273043016e-12,1.627001323667443e-06,0.3919435389632704,-1.0704342708112158e-05,-0.48240696902536073
970,0.3923,739.584,738.907,0.292387,-2.83062e-07,0.0242524,0.036457,0.33097,0.33097,-0.659105,9.05013e-12,1.70225e-06,-1.05276e-05,0.657058,0.39231802214098055,9.050094007534426e-12,1.7022514489095641e-06,0.39231802214098055,-1.0527544584970627e-05,-0.4826858764967402
971,0.3929,739.141,738.46,-0.152178,1.86421e-07,-0.00540796,-0.0126047,0.331374,0.331374,-0.659915,6.85481e-12,1.19438e-06,-1.13784e-05,0.657867,0.3928806322615177,6.8547389986406415e-12,1.1943807132208661e-06,0.3928806322615177,-1.1378335266210016e-05,-0.4831047312776906
972,0.3931,739.392,738.718,0.102146,-9.76572e-08,0.0120848,0.0151912,0.331526,0.331526,-0.660217,8.23695e-12,1.49905e-06,-1.08988e-05,0.658169,0.3930923662089938,8.236966664298961e-12,1.4990511236767645e-06,0.3930923662089938,-1.0898740608333846e-05,-0.4832608100797594
973,0.3934,739.107,738.438,-0.180406,2.46751e-07,-0.0100061,-0.0166296,0.331753,0.331753,-0.660672,6.42933e-12,1.11391e-06,-1.14563e-05,0.658625,0.39340863407116755,6.4293015356042815e-12,1.1139106204094418e-06,0.39340863407116755,-1.1456234376816532e-05,-0.48349587293031926
974,0.3939,739.706,739.036,0.418132,-4.02648e-07,0.0311429,0.0508412,0.332093,0.332093,-0.66135,9.71131e-12,1.89779e-06,-1.01672e-05,0.659303,0.39388247355489936,9.71134284100117e-12,1.897791800820059e-06,0.39388247355489936,-1.0167148314144114e-05,-0.4838459440409558
975,0.3946,738.782,738.095,-0.514597,5.48551e-07,-0.0246425,-0.0518072,0.332604,0.332604,-0.662377,5.18415e-12,8.50997e-07,-1.21226e-05,0.660328,0.3945949295158808,5.184075391184706e-12,8.509973621340094e-07,0.3945949295158808,-1.212252652160739e-05,-0.48437576214825984
976,0.3953,738.804,738.106,-0.497788,5.163e-07,-0.0237386,-0.0499297,0.333114,0.333114,-0.663397,4.56811e-12,7.36771e-07,-1.23571e-05,0.661349,0.3953063543278408,4.568123657122669e-12,7.367712713257646e-07,0.3953063543278408,-1.235702365132152e-05,-0.48490143073431424
977,0.396,739.775,739.067,0.467862,-3.78886e-07,0.0292199,0.0543631,0.333624,0.333624,-0.664412,9.13144e-12,1.76107e-06,-1.035e-05,0.662366,0.39601814205899144,9.131362332936988e-12,1.7610715505878005e-06,0.39601814205899144,-1.034994643889231e-05,-0.48542399053815555
978,0.3967,739.779,739.065,0.468795,-3.9355e-07,0.0291867,0.0543767,0.334134,0.334134,-0.665432,9.64099e-12,1.91785e-06,-1.00496e-05,0.663386,0.3967302928944687,9.640954701239934e-12,1.9178518391171906e-06,0.3967302928944687,-1.0049549502899602e-05,-0.4859485904763554
979,0.3974,739.132,738.413,-0.180605,1.86552e-07,-0.00558148,-0.0144167,0.334644,0.334644,-0.666454,7.39882e-12,1.31668e-06,-1.12509e-05,0.664407,0.3974428070195031,7.398748280706968e-12,1.3166808667808283e-06,0.3974428070195031,-1.1250836708831535e-05,-0.4864736826490841
980,0.3982,739.816,739.093,0.501556,-4.17764e-07,0.0309979,0.0579167,0.335153,0.335153,-0.667469,1.01265e-11,2.08368e-06,-9.74533e-06,0.665423,0.39815428646443385,1.0126566252210978e-11,2.0836821708059006e-06,0.39815428646443385,-9.745282514406206e-06,-0.4869946474268446
981,0.3989,739.814,739.088,0.497919,-4.23189e-07,0.0307249,0.0574386,0.335662,0.335662,-0.668487,1.05477e-11,2.2448e-06,-9.43648e-06,0.666442,0.3988661281445831,1.0547784867753762e-11,2.244802519646427e-06,0.3988661281445831,-9.436435476573024e-06,-0.4875166211460632
982,0.3996,739.115,738.387,-0.202121,1.9597e-07,-0.00684408,-0.0168424,0.336171,0.336171,-0.669509,8.48992e-12,1.5894e-06,-1.07438e-05,0.667462,0.39957833224437556,8.489875469308572e-12,1.5894012630468524e-06,0.39957833224437556,-1.0743742285601598e-05,-0.4880401116100601
983,0.3998,739.479,738.763,0.167653,-1.83406e-07,0.0170376,0.0227109,0.33635,0.33635,-0.669864,1.00559e-11,2.01378e-06,-1.00491e-05,0.667818,0.3998288791891298,1.0055956067844818e-11,2.013782027576738e-06,0.3998288791891298,-1.0049049507965258e-05,-0.48822182511438306
984,0.4002,738.991,738.285,-0.314854,3.88139e-07,-0.0190282,-0.0317429,0.336617,0.336617,-0.670402,7.48275e-12,1.36599e-06,-1.10327e-05,0.668356,0.4002026834005148,7.48268114136863e-12,1.3659909330332454e-06,0.4002026834005148,-1.1032639140040601e-05,-0.4884970877201912
985,0.4008,739.693,738.989,0.38838,-3.38742e-07,0.027162,0.0465339,0.337019,0.337019,-0.671202,1.06051e-11,2.24106e-06,-9.54217e-06,0.669156,0.4007656780335813,1.060507237582442e-11,2.241062511121328e-06,0.4007656780335813,-9.542124473682634e-06,-0.4889061264127226
986,0.401,739.13,738.435,-0.170973,2.65572e-07,-0.0108323,-0.0155054,0.33717,0.33717,-0.671506,8.38749e-12,1.59835e-06,-1.05862e-05,0.66946,0.40097720962119743,8.387512906438133e-12,1.5983512773320996e-06,0.40097720962119743,-1.0586143966428985e-05,-0.48906147533606037
987,0.4013,739.12,738.432,-0.177021,2.45947e-07,-0.00985995,-0.0162347,0.337395,0.337395,-0.671958,8.37781e-12,1.59022e-06,-1.06352e-05,0.669911,0.40129246495825743,8.377742943821431e-12,1.590221264446967e-06,0.40129246495825743,-1.0635143446457995e-05,-0.4892923673636793
988,0.4018,739.462,738.778,0.167057,-1.45261e-07,0.0145621,0.0225844,0.337734,0.337734,-0.672633,1.00266e-11,2.04426e-06,-9.91118e-06,0.670587,0.4017675836319434,1.0026646179994714e-11,2.044262089606619e-06,0.4017675836319434,-9.911130884443509e-06,-0.4896369786962995
989,0.4025,738.904,738.206,-0.398094,3.92872e-07,-0.0178669,-0.0386019,0.338242,0.338242,-0.673652,7.76132e-12,1.41194e-06,-1.11246e-05,0.671605,0.4024798624679351,7.761347120549544e-12,1.4119409967872087e-06,0.4024798624679351,-1.1124538121909389e-05,-0.4901567737344582
990,0.4027,739.514,738.825,0.216358,-2.28574e-07,0.0209648,0.0282747,0.33842,0.33842,-0.674005,1.02936e-11,2.0911e-06,-9.96744e-06,0.671959,0.4027295261028587,1.0293543795114601e-11,2.0911021862968227e-06,0.4027295261028587,-9.967390325216208e-06,-0.49033671663154
991,0.4031,739.54,738.857,0.245558,-2.42725e-07,0.0208516,0.0312392,0.338687,0.338687,-0.674539,4.17407e-11,2.14832e-06,-9.8266e-06,0.672494,0.40310410489037096,4.174061096762216e-11,2.1483223076046443e-06,0.40310410489037096,-9.826551719105403e-06,-0.49060880417102015
992,0.4037,739.188,738.503,-0.107589,1.25072e-07,-0.00283791,-0.0076539,0.339088,0.339088,-0.675343,9.02674e-12,1.74466e-06,-1.04972e-05,0.673297,0.40366686246178407,9.026779324017298e-12,1.7446615219185446e-06,0.40366686246178407,-1.0497144904642042e-05,-0.49101819009727143
993,0.4039,739.371,738.693,0.0790194,-8.14421e-08,0.0100407,0.0126272,0.339238,0.339238,-0.675642,9.85691e-12,1.97292e-06,-1.01409e-05,0.673597,0.4038774282831952,9.85700410183199e-12,1.9729219462583103e-06,0.4038774282831952,-1.0140848581197126e-05,-0.4911703529089584
994,0.4042,739.16,738.488,-0.128823,1.67915e-07,-0.00626998,-0.0107743,0.339464,0.339464,-0.676094,8.76984e-12,1.68826e-06,-1.05509e-05,0.674048,0.40419474043690995,8.769873716119037e-12,1.6882614251034767e-06,0.40419474043690995,-1.0550844339429766e-05,-0.4914002919393079
995,0.4047,739.606,738.934,0.317172,-3.14472e-07,0.0244507,0.0395557,0.339802,0.339802,-0.676768,1.07505e-11,2.28306e-06,-9.57369e-06,0.674723,0.40466943847862735,1.0750511592050316e-11,2.2830626060788006e-06,0.40466943847862735,-9.573644172422568e-06,-0.49174297264616995
996,0.4054,738.819,738.131,-0.478251,4.83347e-07,-0.022876,-0.0478907,0.340308,0.340308,-0.677785,7.61709e-12,1.37561e-06,-1.12749e-05,0.675739,0.4053803810678036,7.617018127348274e-12,1.375610946041661e-06,0.4053803810678036,-1.1274836438590619e-05,-0.4922596072897434
997,0.4056,739.562,738.882,0.269167,-2.83325e-07,0.0252288,0.0343252,0.340486,0.340486,-0.678137,1.07227e-11,2.21779e-06,-9.84976e-06,0.676092,0.4056305610409907,1.0722756016434687e-11,2.2177924592359233e-06,0.4056305610409907,-9.849711491316526e-06,-0.4924383004561351
998,0.406,739.593,738.917,0.301954,-2.9632e-07,0.0248719,0.0376561,0.340753,0.340753,-0.67867,3.94491e-11,2.28249e-06,-9.68429e-06,0.676625,0.40600591450824663,3.944911064479584e-11,2.2824926049214156e-06,0.40600591450824663,-9.684243107432877e-06,-0.49270875875845155
999,0.4066,739.143,738.463,-0.150376,1.79844e-07,-0.00547253,-0.0123108,0.341153,0.341153,-0.679473,9.08575e-12,1.75629e-06,-1.05599e-05,0.677427,0.406568429369522,9.085843188927356e-12,1.7562915421986958e-06,0.406568429369522,-1.0559844244473204e-05,-0.49311595011595843
