,Time,S11,S22,S33,S12,S13,S23,LE11,LE22,LE33,LE12,LE13,LE23,SDV_EPBAR,E11,E12,E13,E22,E23,E33
0,1e-05,2.97724,2.97724,-3.9968e-15,0.0,0.0,-2.2373e-38,9.99995e-06,9.99995e-06,-8.57139e-06,0.0,0.0,0.0,0.0,9.999999999621423e-06,0.0,0.0,9.999999999621423e-06,0.0,-8.571353265707238e-06
1,2e-05,5.95444,5.95444,-3.10862e-15,0.0,0.0,-4.47459e-38,1.99998e-05,1.99998e-05,-1.71427e-05,0.0,0.0,0.0,0.0,1.9999999997244444e-05,0.0,0.0,1.9999999997244444e-05,0.0,-1.714255306473067e-05
2,3.5e-05,10.4202,10.4202,-1.73195e-14,0.0,0.0,-8.38973e-38,3.49994e-05,3.49994e-05,-2.99995e-05,0.0,0.0,0.0,0.0,3.5000012486241516e-05,0.0,0.0,3.5000012486241516e-05,0.0,-2.9999050019546836e-05
3,5.75e-05,17.1187,17.1187,-7.9492e-14,0.0,0.0,-1.88766e-37,5.74983e-05,5.74983e-05,-4.92843e-05,0.0,0.0,0.0,0.0,5.749995305892597e-05,0.0,0.0,5.749995305892597e-05,0.0,-4.928308554885685e-05
4,9.125e-05,27.1662,27.1662,-4.11671e-13,0.0,0.0,-4.24714e-37,9.12458e-05,9.12458e-05,-7.82107e-05,0.0,0.0,0.0,0.0,9.124996302456445e-05,0.0,0.0,9.124996302456445e-05,0.0,-7.820764162291827e-05
5,0.00014188,42.2368,42.2368,-2.06724e-12,0.0,0.0,-9.55574e-37,0.000141865,0.000141865,-0.000121599,0.0,0.0,0.0,0.0,0.00014187506331508892,0.0,0.0,0.00014187506331508892,0.0,-0.00012159160714120265
6,0.00021781,64.8412,64.8412,-1.04623e-11,0.0,0.0,-2.14993e-36,0.000217789,0.000217789,-0.000186676,0.0,0.0,0.0,0.0,0.0002178127177461242,0.0,0.0,0.0002178127177461242,0.0,-0.00018665857711963607
7,0.00033172,98.7446,98.7446,-5.30096e-11,0.0,0.0,-4.83696e-36,0.000331664,0.000331664,-0.000284283,0.0,0.0,0.0,0.0,0.0003317190065854625,0.0,0.0,0.0003317190065854625,0.0,-0.00028424259541681707
8,0.00050258,149.593,149.593,-2.68283e-10,0.0,0.0,-1.08819e-35,0.000502452,0.000502452,-0.000430673,0.0,0.0,0.0,0.0,0.0005025782501502096,0.0,0.0,0.0005025782501502096,0.0,-0.00043058027369557994
9,0.00075887,225.848,225.848,-1.35751e-09,0.0,0.0,-2.44799e-35,0.000758579,0.000758579,-0.000650211,0.0,0.0,0.0,0.0,0.0007588667938165372,0.0,0.0,0.0007588667938165372,0.0,-0.0006499996586357693
10,0.0011433,340.195,340.195,-6.86638e-09,0.0,0.0,-5.50653e-35,0.00114265,0.00114265,-0.000979412,0.0,0.0,0.0,0.0,0.0011433030732321825,0.0,0.0,0.0011433030732321825,0.0,-0.0009789325326119425
11,0.0014316,363.709,363.731,0.202736,0.00309521,0.0260755,-0.00692149,0.0014306,0.0014306,-0.0014648,-1.50709e-13,-1.13243e-07,6.01985e-07,0.000416917,0.0014316237963361012,-1.5065726444163374e-13,-1.132429935379875e-07,0.0014316237963361012,6.019851812588684e-07,-0.0014637277041102958
12,0.00172,372.668,372.706,0.26161,0.00672449,0.0319797,-0.00781479,0.00171847,0.00171847,-0.00200626,1.49703e-10,-6.87926e-07,1.62112e-06,0.000930743,0.001719947415747436,1.4970291672966596e-10,-6.879257633540803e-07,0.001719947415747436,1.6211213140771008e-06,-0.002004248805623998
13,0.0020083,380.191,380.246,-0.392709,0.00869082,-0.0108608,-0.118726,0.00200626,0.00200626,-0.00255439,1.32788e-10,-1.90659e-06,6.3527e-07,0.00145186,0.00200827388616176,1.3278800281568692e-10,-1.9065881824431585e-06,0.00200827388616176,6.3527020177645e-07,-0.0025511303219509784
14,0.0022966,387.867,387.94,-0.215672,0.00956837,0.00616046,-0.0883962,0.00229397,0.00229397,-0.00310013,2.7927e-10,-2.1903e-06,1.37553e-06,0.0019741,0.0022966031622606575,2.792699405063104e-10,-2.19029760128997e-06,0.0022966031622606575,1.3755309460350418e-06,-0.0030953295589366547
15,0.0027291,397.989,398.058,-0.404446,0.013728,0.00357072,-0.132234,0.00272537,0.00272537,-0.00392489,-1.39807e-10,-3.64303e-06,2.07457e-06,0.00276552,0.002729087196963631,-1.398070548219721e-10,-3.6430233641970844e-06,0.002729087196963631,2.074572151844478e-06,-0.003917197686363005
16,0.0033778,412.008,412.015,-0.106837,0.0237218,0.0383556,-0.120619,0.00337213,0.00337213,-0.00516513,1.06315e-10,-6.58156e-06,6.50785e-06,0.00396189,0.0033778220266547088,1.0631495683810499e-10,-6.581538341543514e-06,0.0033778220266547088,6.5078711761756836e-06,-0.005151813652794712
17,0.0036211,416.722,416.764,-0.066922,0.0199062,0.0389366,-0.0902216,0.00361456,0.00361456,-0.0056318,2.41116e-11,-6.60325e-06,6.80732e-06,0.00441309,0.0036211003998452007,2.4111601604204225e-11,-6.60322819856507e-06,0.0036211003998452007,6.807343169823454e-06,-0.005615971143305587
18,0.003986,423.343,423.419,-0.0921227,0.0170059,0.0404303,-0.0964233,0.00397808,0.00397808,-0.00633356,5.04133e-10,-6.84977e-06,6.90552e-06,0.00509261,0.003986003062952159,5.041329576016551e-10,-6.849746540416035e-06,0.003986003062952159,6.905543843194195e-06,-0.0063135452859531815
19,0.0045334,432.589,432.681,-0.098655,0.0170396,0.045015,-0.106737,0.00452313,0.00452313,-0.00738852,-1.3449e-10,-7.77543e-06,7.8713e-06,0.00611641,0.004533374792851319,-1.344899747124373e-10,-7.775399771370317e-06,0.004533374792851319,7.871330978792557e-06,-0.007361291985615859
20,0.0053544,444.943,445.0,-0.298354,0.0226573,0.0495509,-0.155435,0.00534014,0.00534014,-0.00897646,7.03299e-11,-1.06924e-05,1.07602e-05,0.00766094,0.005354423962410593,7.032996407474457e-11,-1.0692342836460256e-05,0.005354423962410593,1.0760257891151426e-05,-0.0089362918620145
21,0.0063544,459.242,459.261,0.474407,0.0276925,0.0918513,-0.0695179,0.00633432,0.00633432,-0.0109097,-8.27573e-11,-1.37677e-05,1.79523e-05,0.00954799,0.0063544242313930965,-8.275724550088626e-11,-1.376760522564524e-05,0.0063544242313930965,1.795246114344451e-05,-0.01085040504889323
22,0.0066044,461.618,461.675,-0.284371,0.022748,0.0467746,-0.160077,0.00658271,0.00658271,-0.0113987,-6.07782e-11,-1.42482e-05,1.64188e-05,0.0100243,0.00660442365422087,-6.077816028238203e-11,-1.4248098494928918e-05,0.00660442365422087,1.641893478931955e-05,-0.011333980956878764
23,0.0069794,466.776,466.876,0.366899,0.0178776,0.101928,-0.0633808,0.00695518,0.00695518,-0.0121226,-1.04818e-11,-1.32864e-05,1.7594e-05,0.0107332,0.006979423437648569,-1.0481837620091028e-11,-1.3286311736138146e-05,0.006979423437648569,1.7594154775313342e-05,-0.01204941730463538
24,0.0075419,472.35,472.491,-0.54693,0.0144337,0.04045,-0.192764,0.00751363,0.00751363,-0.0132199,-2.03834e-11,-1.43461e-05,1.54957e-05,0.0118052,0.007541928147426047,-2.0383361665210487e-11,-1.4345997095155383e-05,0.007541928147426047,1.5495820058886167e-05,-0.013132900917027457
25,0.0081044,479.584,479.756,0.590644,0.0118658,0.111397,-0.0352446,0.00807176,0.00807176,-0.0143063,-5.0825e-11,-1.32127e-05,1.7908e-05,0.0128713,0.008104424482220596,-5.0825010866617504e-11,-1.321261271269858e-05,0.008104424482220596,1.7908160349078273e-05,-0.014204451161985432
26,0.0086669,484.233,484.428,-0.596145,0.00993341,0.0363332,-0.198948,0.00862958,0.00862958,-0.0154065,7.61835e-11,-1.43457e-05,1.5185e-05,0.0139474,0.00866692216392817,7.618350394977824e-11,-1.4345597100895446e-05,0.00866692216392817,1.5185115292748463e-05,-0.015288427020356599
27,0.0092294,489.795,490.007,-0.567881,0.00843468,0.0380483,-0.193176,0.00918709,0.00918709,-0.0165002,-1.76788e-10,-1.44582e-05,1.45567e-05,0.0150203,0.009229420844453884,-1.7678802866072374e-10,-1.4458095480729405e-05,0.009229420844453884,1.4556805949306195e-05,-0.01636481733638384
28,0.0097919,496.226,496.453,0.600029,0.00726665,0.114387,-0.0295834,0.00974429,0.00974429,-0.0175877,-1.70506e-12,-1.31147e-05,1.68818e-05,0.0160901,0.009791920175508562,-1.7050805212193154e-12,-1.3114614002662783e-05,0.009791920175508562,1.6881942498381264e-05,-0.017433939157173506
29,0.010354,501.246,501.484,0.56139,0.00634832,0.110355,-0.0374364,0.0103012,0.0103012,-0.0186824,-3.37893e-10,-1.27738e-05,1.6975e-05,0.0171651,0.010354440015696964,-3.378930468755925e-10,-1.277371841534869e-05,0.010354440015696964,1.6975144076170068e-05,-0.01850896570084304
30,0.010917,505.239,505.486,-0.311505,0.00560497,0.0534356,-0.155232,0.0108578,0.0108578,-0.0197819,-2.77448e-10,-1.34264e-05,1.49253e-05,0.0182441,0.010916959831752004,-2.7744795350059803e-10,-1.342630986633786e-05,0.010916959831752004,1.4925411382815668e-05,-0.01958752204804748
31,0.011479,509.655,509.91,-0.561408,0.0049889,0.0352951,-0.190368,0.011414,0.011414,-0.0208781,-2.09434e-10,-1.3683e-05,1.36633e-05,0.0193213,0.011479388241651733,-2.09434025677524e-10,-1.3682906388146066e-05,0.011479388241651733,1.366339334341049e-05,-0.020661661363057804
32,0.012042,514.163,514.424,-0.541276,0.00447654,0.0364155,-0.185805,0.01197,0.01197,-0.0219727,5.94231e-11,-1.36714e-05,1.29034e-05,0.0203981,0.012041927152839804,5.942313308082703e-11,-1.3671306546836348e-05,0.012041927152839804,1.2903483249226966e-05,-0.021733058625833412
33,0.012604,519.629,519.895,0.61292,0.00404701,0.115698,-0.0233458,0.0125257,0.0125257,-0.0230609,5.34129e-10,-1.21839e-05,1.50776e-05,0.0214711,0.012604475141240856,5.341289632809776e-10,-1.21838257766127e-05,0.012604475141240856,1.5077713667599468e-05,-0.022797029699781035
34,0.012815,520.732,520.994,0.121712,0.00349643,0.0844483,-0.0920257,0.0127339,0.0127339,-0.0234742,1.45968e-09,-1.23902e-05,1.40232e-05,0.021877,0.012815321341292929,1.4596799324806398e-09,-1.2390123241834416e-05,0.012815321341292929,1.4023298325449574e-05,-0.023200824237517015
35,0.013132,523.279,523.539,0.330816,0.00295641,0.102955,-0.0587443,0.0130463,0.0130463,-0.0240887,9.8562e-11,-1.18411e-05,1.4284e-05,0.0224824,0.01313177427505452,9.85620474125426e-11,-1.1841029894488209e-05,0.01313177427505452,1.4284102016759448e-05,-0.023800882944103097
36,0.013606,526.005,526.269,-0.379344,0.00267508,0.0432656,-0.16223,0.0135146,0.0135146,-0.0250163,-2.47527e-10,-1.24731e-05,1.23178e-05,0.0233946,0.013606334994667346,-2.475269988977402e-10,-1.2473022211190177e-05,0.013606334994667346,1.2317875864420458e-05,-0.024705985393669083
37,0.013784,527.841,528.102,0.201707,0.00236359,0.0935451,-0.0768499,0.0136902,0.0136902,-0.0253593,1.97977e-09,-1.16732e-05,1.32455e-05,0.0237335,0.013784339895465347,1.9797699035706273e-09,-1.1673131868450426e-05,0.013784339895465347,1.3245587721977259e-05,-0.025040453876055135
38,0.014051,529.698,529.957,0.189329,0.00203968,0.0886213,-0.0797532,0.0139535,0.0139535,-0.0258788,1.87748e-09,-1.14997e-05,1.30064e-05,0.0242453,0.014051304456501823,1.8774799492859984e-09,-1.149963387869768e-05,0.014051304456501823,1.300648458357756e-05,-0.025546813821882508
39,0.014452,532.211,532.473,-0.0497826,0.00184439,0.0663038,-0.114139,0.0143483,0.0143483,-0.0266593,2.65157e-10,-1.1553e-05,1.21716e-05,0.0250138,0.014451730950490127,2.651570074618803e-10,-1.155293326438045e-05,0.014451730950490127,1.217167407419062e-05,-0.026307077802081524
40,0.015052,536.804,537.077,0.540418,0.00209618,0.107795,-0.0302153,0.0149403,0.0149403,-0.0278245,-2.31896e-10,-1.05343e-05,1.32798e-05,0.0261632,0.015052464174702518,-2.318959468894377e-10,-1.0534244514470714e-05,0.015052464174702518,1.327988817689807e-05,-0.02744096406460106
41,0.015278,537.5,537.769,-0.248696,0.00182356,0.0426972,-0.145215,0.0151622,0.0151622,-0.0282671,3.03968e-10,-1.12544e-05,1.1511e-05,0.0265981,0.015277729308745158,3.039679619121216e-10,-1.1254336669486165e-05,0.015277729308745158,1.1511066251745916e-05,-0.027871323448348972
42,0.015616,539.519,539.787,-0.409914,0.00159648,0.0319483,-0.166792,0.0154949,0.0154949,-0.0289252,1.3607e-09,-1.13044e-05,1.06936e-05,0.0272465,0.015615568405703772,1.3606999971216283e-09,-1.1304336105522061e-05,0.015615568405703772,1.0693657176652493e-05,-0.02851087086422832
43,0.016122,542.669,542.944,-0.454872,0.00161053,0.0344165,-0.168911,0.0159938,0.0159938,-0.029911,1.20761e-09,-1.11851e-05,9.91235e-06,0.0282186,0.01612238542777522,1.2076100119884359e-09,-1.11850374470146e-05,0.01612238542777522,9.91239912750963e-06,-0.029468092955442393
44,0.016312,544.455,544.726,0.158367,0.00142564,0.0861374,-0.0794897,0.0161809,0.0161809,-0.030277,3.72305e-10,-1.03746e-05,1.08796e-05,0.0285807,0.016312519712596396,3.72305075657664e-10,-1.0374546184022115e-05,0.016312519712596396,1.0879659183116175e-05,-0.029823242637064484
45,0.016598,546.247,546.515,0.20159,0.0012514,0.0872182,-0.0738368,0.0164613,0.0164613,-0.030831,-7.34569e-10,-1.01191e-05,1.07539e-05,0.0291272,0.016597533700217548,-7.345689612137107e-10,-1.0119048802104125e-05,0.016597533700217548,1.0753957823350646e-05,-0.03036057170674833
46,0.017025,548.525,548.798,-0.0985151,0.0012046,0.0600333,-0.116788,0.0168819,0.0168819,-0.0316639,1.03125e-09,-1.02441e-05,9.77397e-06,0.0299484,0.017025204555767948,1.0312499743037051e-09,-1.0244047529361922e-05,0.017025204555767948,9.774017765362686e-06,-0.03116784814963036
47,0.017667,551.723,552.009,-0.671248,0.00155127,0.0226795,-0.192257,0.0175124,0.0175124,-0.0329138,8.29713e-10,-1.07216e-05,7.80465e-06,0.0311806,0.017666641138874173,8.297129650003399e-10,-1.0721542523906002e-05,0.017666641138874173,7.80468045635807e-06,-0.03237803499240954
48,0.017907,553.641,553.922,-0.135308,0.00135081,0.0534412,-0.121586,0.0177487,0.0177487,-0.0333781,8.39263e-10,-1.02144e-05,8.40164e-06,0.0316398,0.017907144180490553,8.392631034581655e-10,-1.0214347833215065e-05,0.017907144180490553,8.401675293923105e-06,-0.032827197589596624
49,0.018268,555.525,555.805,-0.304888,0.00119892,0.0385368,-0.146834,0.0181031,0.0181031,-0.03408,-5.08696e-10,-1.02849e-05,7.58524e-06,0.0323323,0.018267954404183273,-5.086959742328645e-10,-1.0284847110630935e-05,0.018267954404183273,7.585268767984488e-06,-0.03350581798991803
50,0.018809,559.416,559.703,0.58206,0.00126516,0.110951,-0.0164324,0.0186345,0.0186345,-0.0351261,-4.22866e-10,-8.85919e-06,9.24044e-06,0.0333667,0.018809205792910788,-4.228659644667232e-10,-8.859150757545287e-06,0.018809205792910788,9.240482693018137e-06,-0.034516338908599065
51,0.019012,559.69,559.972,-0.268637,0.00111689,0.0365984,-0.141154,0.0188337,0.0188337,-0.0355251,-1.7713e-10,-9.71652e-06,7.39757e-06,0.0337589,0.019012172801547544,-1.771299773523083e-10,-9.71647279479626e-06,0.019012172801547544,7.397597362013286e-06,-0.034901490046612804
52,0.019317,561.273,561.553,-0.340465,0.000984013,0.0335838,-0.149885,0.0191324,0.0191324,-0.0361166,5.99146e-10,-9.66498e-06,6.84993e-06,0.0343428,0.01931659720108403,5.991460660936809e-10,-9.664933294240008e-06,0.01931659720108403,6.849953460896785e-06,-0.03547217701793948
53,0.019773,564.431,564.714,0.387072,0.000968798,0.0978815,-0.041699,0.0195803,0.0195803,-0.0369989,6.03685e-10,-8.46052e-06,8.07421e-06,0.0352155,0.01977325136503616,6.036851019075584e-10,-8.460484209882324e-06,0.01977325136503616,8.074242596523007e-06,-0.036322804606614634
54,0.020458,566.955,567.254,-0.668132,0.00131044,0.0212008,-0.186749,0.0202518,0.0202518,-0.0383342,4.1834e-10,-9.42035e-06,5.20339e-06,0.0365323,0.0204582590689244,4.183400292845363e-10,-9.420305628671244e-06,0.0204582590689244,5.203403537601403e-06,-0.03760874401710401
55,0.020972,569.758,570.059,-0.482079,0.00123739,0.0279519,-0.164077,0.0207551,0.0207551,-0.0393297,3.64746e-10,-9.25101e-06,4.738e-06,0.0375161,0.020971984978994884,3.647460111722012e-10,-9.250967209495364e-06,0.020971984978994884,4.7380112242478845e-06,-0.03856632779602698
56,0.021486,573.173,573.476,0.374024,0.00117272,0.0945355,-0.0413113,0.0212581,0.0212581,-0.0403211,3.98669e-10,-7.99649e-06,6.14013e-06,0.0384972,0.021485663066647787,3.9866909773422776e-10,-7.996458028181053e-06,0.021485663066647787,6.140148850697358e-06,-0.03951902081069125
57,0.021678,573.571,573.868,-0.187142,0.00103878,0.0433964,-0.124228,0.0214467,0.0214467,-0.0406978,-2.34569e-10,-8.55532e-06,4.87149e-06,0.0388684,0.021678333430946495,-2.345690308658277e-10,-8.555283403377523e-06,0.021678333430946495,4.87150186567753e-06,-0.039880765856594724
58,0.021967,574.972,575.265,-0.200842,0.000905972,0.0445831,-0.124933,0.0217295,0.0217295,-0.0412581,3.02346e-10,-8.42297e-06,4.52192e-06,0.039422,0.021967304922283715,3.0234592607314426e-10,-8.422934526852721e-06,0.021967304922283715,4.521930223821968e-06,-0.04041856998358939
59,0.022401,577.476,577.769,0.21535,0.000846854,0.0828886,-0.0620839,0.0221536,0.0221536,-0.0420958,3.01809e-10,-7.62354e-06,5.08715e-06,0.0402507,0.022400813175228684,3.0180902221843553e-10,-7.6235109408573365e-06,0.022400813175228684,5.087162939565459e-06,-0.04122207475255402
60,0.023051,579.85,580.155,-0.488163,0.00103617,0.0315932,-0.15757,0.0227893,0.0227893,-0.0433595,1.87635e-10,-8.16279e-06,3.04109e-06,0.0414984,0.023050959999437737,1.8763501863361398e-10,-8.162756684471084e-06,0.023050959999437737,3.041094624123275e-06,-0.04243291718476172
61,0.023295,581.772,582.072,0.303035,0.000905274,0.0964807,-0.0453457,0.0230276,0.0230276,-0.0438272,2.31607e-10,-7.12937e-06,4.34374e-06,0.0419622,0.02329478209345437,2.3160695583612778e-10,-7.129344586132014e-06,0.02329478209345437,4.343749434143618e-06,-0.04288066659503298
62,0.023661,583.541,583.839,0.385535,0.000803124,0.0979959,-0.0359014,0.023385,0.023385,-0.044535,2.17463e-10,-6.77982e-06,4.35707e-06,0.042662,0.023660573011517805,2.174629365470082e-10,-6.77979701702025e-06,0.023660573011517805,4.357079492089966e-06,-0.04355787596654803
63,0.024209,585.417,585.721,-0.230738,0.000840646,0.0463084,-0.122474,0.0239208,0.0239208,-0.0456005,-1.42101e-10,-7.23402e-06,2.70394e-06,0.0437144,0.02420919730986193,-1.4210099763545259e-10,-7.233993834510066e-06,0.02420919730986193,2.7039436556464125e-06,-0.04457642232277226
64,0.024415,586.729,587.028,0.160677,0.000745185,0.0808074,-0.0663522,0.0241216,0.0241216,-0.0459965,-1.34595e-10,-6.6458e-06,3.27842e-06,0.0441065,0.024414879166449133,-1.3459500181056683e-10,-6.645777916758355e-06,0.024414879166449133,3.278425374064753e-06,-0.044954695156568025
65,0.024723,587.643,587.939,-0.301835,0.000658505,0.0326007,-0.136675,0.0244228,0.0244228,-0.0465962,1.01177e-10,-7.16038e-06,2.00702e-06,0.0446987,0.02472347940091635,1.0117706672474469e-10,-7.160354364543764e-06,0.02472347940091635,2.007022014138826e-06,-0.04552726412391794
66,0.025186,589.5,589.798,-0.476115,0.000647449,0.0226913,-0.158451,0.0248744,0.0248744,-0.0474927,5.36883e-11,-7.21266e-06,1.07735e-06,0.0455849,0.025186349032309874,5.3688387069428245e-11,-7.212633988840089e-06,0.025186349032309874,1.0773505803030048e-06,-0.046382565485510785
67,0.025881,592.287,592.601,-0.672417,0.000869953,0.0163348,-0.17904,0.0255515,0.0255515,-0.0488364,-1.0712e-11,-7.27812e-06,-2.1897e-07,0.0469135,0.025880737768016804,-1.0711986853095823e-11,-7.278093514528905e-06,0.025880737768016804,-2.189699760402064e-07,-0.04766308072543668
68,0.026575,595.222,595.547,-0.657157,0.000995735,0.0171541,-0.175564,0.026228,0.026228,-0.0501783,-5.65096e-11,-7.24398e-06,-1.19208e-06,0.0482408,0.02657498088837551,-5.650957479730323e-11,-7.243953762392508e-06,0.02657498088837551,-1.1920792895026011e-06,-0.04894016458635808
69,0.027269,599.41,599.742,0.681339,0.00105893,0.108149,0.00458733,0.0269042,0.0269042,-0.0515119,4.229e-11,-5.48734e-06,1.20868e-06,0.0495627,0.02726938564224013,4.228994932020669e-11,-5.48732494454196e-06,0.02726938564224013,1.208680730391265e-06,-0.05020765263398441
70,0.027964,602.196,602.534,0.66465,0.00108643,0.106221,0.00217375,0.0275798,0.0275798,-0.0528526,-4.57483e-11,-4.90352e-06,1.30482e-06,0.0508891,0.027963643333020816,-4.574829404191405e-11,-4.903507977771504e-06,0.027963643333020816,1.3048208513666282e-06,-0.05148018600074322
71,0.028658,604.06,604.402,-0.224901,0.00108868,0.047685,-0.111758,0.028255,0.028255,-0.0541976,-2.39641e-11,-5.40452e-06,-7.31206e-07,0.0522183,0.028657958759509494,-2.396405296423154e-11,-5.4045053956564004e-06,0.028657958759509494,-7.312057326291921e-07,-0.05275508758706138
72,0.029352,606.295,606.639,-0.68774,0.00107299,0.0123683,-0.177832,0.0289298,0.0289298,-0.0555394,-8.95752e-11,-5.83954e-06,-2.59142e-06,0.0535453,0.029352331405062104,-8.95752361174118e-11,-5.83952294996859e-06,0.029352331405062104,-2.5914166422724705e-06,-0.054025248469032006
73,0.030047,608.941,609.289,-0.683331,0.00104716,0.0124624,-0.175896,0.0296041,0.0296041,-0.0568779,-1.20836e-10,-5.8275e-06,-3.58648e-06,0.05487,0.030046657747947014,-1.2083600786638726e-10,-5.8274830201376915e-06,0.030046657747947014,-3.586473568573112e-06,-0.055290588656122575
74,0.030741,611.507,611.857,-0.710429,0.00101657,0.0104168,-0.178167,0.0302779,0.0302779,-0.0582158,1.64364e-10,-5.85246e-06,-4.64802e-06,0.0561943,0.030740937062371243,1.6436407790365593e-10,-5.8524428744322066e-06,0.030740937062371243,-4.648009197971703e-06,-0.05655367025071967
75,0.031435,615.415,615.766,0.661537,0.000982796,0.105717,0.00713359,0.0309513,0.0309513,-0.0595449,-4.91901e-11,-4.05496e-06,-2.1956e-06,0.0575126,0.03143527176564542,-4.91900964405545e-11,-4.054951778686977e-06,0.03143527176564542,-2.195597589627063e-06,-0.057806771834464254
76,0.03213,617.911,618.264,0.657794,0.000950934,0.104707,0.0064927,0.0316243,0.0316243,-0.0608813,-3.89596e-11,-3.46812e-06,-2.07835e-06,0.0588356,0.032129661339426185,-3.8959613313238606e-11,-3.468113986104804e-06,0.032129661339426185,-2.0783478402730537e-06,-0.05906507787721271
77,0.032824,619.495,619.849,-0.221131,0.00091898,0.0457026,-0.106576,0.0322968,0.0322968,-0.0622219,-8.58319e-11,-3.97761e-06,-4.07919e-06,0.0601613,0.032824001982549866,-8.583189714528316e-11,-3.977602089366705e-06,0.032824001982549866,-4.07918168010557e-06,-0.06032565008346813
78,0.033518,622.767,623.123,0.642856,0.000885152,0.102915,0.00533017,0.0329688,0.0329688,-0.0635517,-3.5569e-11,-2.67441e-06,-2.5674e-06,0.0614798,0.03351829296752573,-3.556899219603338e-11,-2.67440642376382e-06,0.03351829296752573,-2.567396704233893e-06,-0.06157439855710645
79,0.034213,625.159,625.516,0.661571,0.000853983,0.103551,0.0077745,0.0336404,0.0336404,-0.0648857,3.08808e-11,-2.07521e-06,-2.41434e-06,0.0628008,0.03421263698770605,3.088085342994873e-11,-2.0752078467856094e-06,0.03421263698770605,-2.414337085476781e-06,-0.0628254236901451
80,0.034907,626.597,626.955,-0.240389,0.000824218,0.0423442,-0.108719,0.0343115,0.0343115,-0.0662242,-5.85152e-11,-2.63014e-06,-4.47342e-06,0.0641247,0.034906930032362116,-5.851519269128858e-11,-2.6301365412262356e-06,0.034906930032362116,-4.473409994321109e-06,-0.064078992722305
81,0.035157,627.897,628.245,0.226544,0.000716392,0.0817466,-0.0450245,0.0345531,0.0345531,-0.0667014,-3.6451e-11,-1.95659e-06,-3.77272e-06,0.0645982,0.035156993753138854,-3.64509533667956e-11,-1.9565880858829487e-06,0.035156993753138854,-3.772712883320928e-06,-0.06452550768003562
82,0.035532,628.507,628.847,-0.409431,0.000613165,0.017282,-0.141191,0.0349153,0.0349153,-0.0674247,-7.21032e-11,-2.71359e-06,-5.43858e-06,0.0653134,0.03553199552499753,-7.210321228967587e-11,-2.713586318203731e-06,0.03553199552499753,-5.438565210957869e-06,-0.06520189173654845
83,0.036094,631.348,631.688,0.601599,0.000572894,0.103293,0.00445318,0.0354583,0.0354583,-0.0684979,2.50395e-11,-1.14671e-06,-3.55717e-06,0.0663784,0.03609444208898993,2.503952600818593e-11,-1.146709342481067e-06,0.03609444208898993,-3.5571636732845135e-06,-0.06620457892815201
84,0.036305,631.175,631.507,-0.264211,0.000507999,0.0251781,-0.120685,0.0356619,0.0356619,-0.0689074,-5.31764e-11,-2.07868e-06,-5.35014e-06,0.0667823,0.036305412393447645,-5.317635221047112e-11,-2.078677839523202e-06,0.036305412393447645,-5.350125688030616e-06,-0.06658688986957317
85,0.036622,632.162,632.488,-0.298225,0.000442809,0.0254957,-0.124108,0.0359671,0.0359671,-0.0695143,6.51948e-11,-2.00731e-06,-5.73415e-06,0.0673834,0.03662174107461125,6.519473849664337e-11,-2.007307985385509e-06,0.03662174107461125,-5.734133559753829e-06,-0.06715320641997158
86,0.037096,634.283,634.61,0.313662,0.000412168,0.0829211,-0.0326486,0.0364249,0.0364249,-0.0704204,-2.10218e-11,-9.54864e-07,-4.70451e-06,0.0682822,0.03709641515228146,-2.1021850926672414e-11,-9.548635441225528e-07,0.03709641515228146,-4.704498933860712e-06,-0.0679980760736335
87,0.037808,636.881,637.221,0.68046,0.00050202,0.10258,0.0127089,0.0371111,0.0371111,-0.0717822,-2.09742e-12,-1.14436e-07,-3.99166e-06,0.0696319,0.037808314937240795,-2.0974333381218457e-12,-1.1443599345906108e-07,0.037808314937240795,-3.991652033352722e-06,-0.06926641248736154
88,0.038808,638.734,639.104,-0.548798,0.000811691,0.0270725,-0.138395,0.0380742,0.0380742,-0.0737036,3.73243e-11,-9.50322e-07,-6.90657e-06,0.0715333,0.03880830959548809,3.732436582026821e-11,-9.503215484540917e-07,0.03880830959548809,-6.906546149654247e-06,-0.07105300707134898
89,0.039058,640.374,640.732,0.328971,0.000705414,0.0913987,-0.0257698,0.0383148,0.0383148,-0.0741769,3.50892e-12,5.29339e-08,-5.5484e-06,0.0720039,0.03905827694464303,3.5089708916302698e-12,5.2933901484308876e-08,0.03905827694464303,-5.548384607645396e-06,-0.07149257365146522
90,0.039433,641.555,641.904,0.370199,0.000598574,0.088427,-0.0233326,0.0386757,0.0386757,-0.074894,7.35646e-12,2.99162e-07,-5.58541e-06,0.0727145,0.03943334075298566,7.356559805771212e-12,2.991620446923804e-07,0.03943334075298566,-5.585394401652621e-06,-0.07215816764964922
91,0.039996,642.727,643.075,-0.147846,0.00054159,0.0425901,-0.0962743,0.0392167,0.0392167,-0.0759725,-2.63397e-12,-8.74272e-08,-6.94074e-06,0.0737822,0.03999582632896215,-2.634004125923184e-12,-8.742719614929229e-08,0.03999582632896215,-6.940715913117401e-06,-0.07315830564448178
92,0.040207,643.622,643.962,0.117326,0.000480504,0.0668083,-0.0587348,0.0394195,0.0394195,-0.0763742,9.58753e-12,3.37647e-07,-6.57595e-06,0.0741808,0.0402067588703785,9.587441951453002e-12,3.3764705698047237e-07,0.0402067588703785,-6.575928378493856e-06,-0.07353054318418906
93,0.040523,644.261,644.595,-0.184211,0.000417072,0.0341712,-0.104584,0.0397236,0.0397236,-0.0769806,6.08904e-13,1.91212e-08,-7.43277e-06,0.0747811,0.04052313384812822,6.088463067044358e-13,1.912120017877328e-08,0.04052313384812822,-7.4327423770226275e-06,-0.07409218395610961
94,0.040998,646.315,646.65,0.481348,0.000380275,0.0955068,-0.00529868,0.0401796,0.0401796,-0.0778835,-2.85471e-11,1.16817e-06,-6.19323e-06,0.0756771,0.040997720594717624,-2.8547053609884188e-11,1.168170682408487e-06,0.040997720594717624,-6.193210821958672e-06,-0.0749278088236004
95,0.04171,648.536,648.883,0.644931,0.0004428,0.0980636,0.0105125,0.0408633,0.0408633,-0.0792419,4.31227e-11,1.76247e-06,-5.87727e-06,0.0770237,0.04170969409669567,4.3122616588675555e-11,1.7624715531461277e-06,0.04170969409669567,-5.877252728936355e-06,-0.07618357377943641
96,0.04271,650.566,650.941,-0.166256,0.000690148,0.0470022,-0.0877388,0.0418228,0.0418228,-0.0811547,-3.97209e-11,1.42077e-06,-7.70863e-06,0.0789178,0.04270969422152149,-3.9720893241224076e-11,1.4207710092861703e-06,0.04270969422152149,-7.70860028853626e-06,-0.07794896088501624
97,0.04296,651.603,651.967,0.162838,0.000601035,0.070189,-0.049674,0.0420625,0.0420625,-0.0816295,5.51631e-11,1.86047e-06,-7.33496e-06,0.0793891,0.04295966169263088,5.51632073353403e-11,1.8604717306747176e-06,0.04295966169263088,-7.3349330992344974e-06,-0.07838664680352847
98,0.043335,652.233,652.588,-0.263569,0.000510937,0.0253895,-0.115017,0.042422,0.042422,-0.0823469,4.69256e-11,1.37499e-06,-8.51623e-06,0.0800994,0.04333467309527017,4.6925574537226566e-11,1.3749909453242282e-06,0.04333467309527017,-8.516193736984867e-06,-0.07904757511977833
99,0.043897,653.511,653.865,-0.54831,0.000461369,0.00653237,-0.151889,0.042961,0.042961,-0.0834206,4.41521e-11,1.1528e-06,-9.68079e-06,0.081163,0.04389718206661786,4.4152015377108e-11,1.1528006644834221e-06,0.04389718206661786,-9.680743141338155e-06,-0.08003587107674281
100,0.044108,654.843,655.19,0.203543,0.000410206,0.0747818,-0.0426917,0.043163,0.043163,-0.0838181,7.07304e-11,2.14211e-06,-8.3856e-06,0.0815585,0.044108070596419635,7.07303104974244e-11,2.1421122942122395e-06,0.044108070596419635,-8.385564840951432e-06,-0.08040148414757786
101,0.044425,655.722,656.062,0.212287,0.000356713,0.072104,-0.0426579,0.043466,0.043466,-0.0844207,7.63988e-11,2.30011e-06,-8.4956e-06,0.0821559,0.04442448327591064,7.639888721655552e-11,2.300112645237107e-06,0.04442448327591064,-8.495563912469528e-06,-0.0809554672813485
102,0.044899,656.763,657.102,-0.0401015,0.000325345,0.0477436,-0.0785099,0.0439204,0.0439204,-0.0853259,7.7891e-11,2.17729e-06,-9.24738e-06,0.0830526,0.0448991776034946,7.789102696165173e-11,2.1772923703977654e-06,0.0448991776034946,-9.247337243167841e-06,-0.08178700997936073
103,0.045611,659.369,659.72,0.660827,0.000376194,0.101058,0.0210536,0.0446015,0.0446015,-0.0866767,1.01997e-10,3.42158e-06,-7.82674e-06,0.0843931,0.04561110085130071,1.0199707745073283e-10,3.4215858535358024e-06,0.04561110085130071,-7.826709371161478e-06,-0.08302649474979673
104,0.045861,659.122,659.466,-0.261909,0.000331388,0.0206291,-0.113662,0.0448405,0.0448405,-0.0871575,9.07232e-11,2.45463e-06,-9.75729e-06,0.084868,0.04586103176995926,9.072320672487422e-11,2.454633012627383e-06,0.04586103176995926,-9.757242397823163e-06,-0.08346726964034623
105,0.046236,659.984,660.323,-0.39722,0.000292056,0.0113484,-0.131964,0.045199,0.045199,-0.0878715,9.25714e-11,2.36956e-06,-1.03973e-05,0.0855756,0.04623604016608729,9.257150601627018e-11,2.3695628073028274e-06,0.04623604016608729,-1.0397245948312595e-05,-0.08412144044305525
106,0.046799,662.42,662.763,0.567145,0.000291509,0.0972309,0.00955157,0.0457365,0.0457365,-0.0889353,1.23614e-10,3.8921e-06,-8.5544e-06,0.0866321,0.04679854319682364,1.2361400791860433e-10,3.892107574232639e-06,0.04679854319682364,-8.554363411183985e-06,-0.08509523400208352
107,0.047009,662.174,662.511,-0.237599,0.000260985,0.0214382,-0.109559,0.045938,0.045938,-0.0893407,-1.07164e-10,2.9781e-06,-1.02442e-05,0.0870325,0.04700949435589319,-1.0716405540733831e-10,2.978104434614437e-06,0.04700949435589319,-1.0244147528370995e-05,-0.0854660612224627
108,0.047326,662.985,663.318,-0.251034,0.000231621,0.0232214,-0.110321,0.0462401,0.0462401,-0.089942,-1.16362e-10,3.05968e-06,-1.05425e-05,0.0876286,0.04732584370630155,-1.1636203112175281e-10,3.0596846807284805e-06,0.04732584370630155,-1.0542444427996678e-05,-0.08601580518276408
109,0.047801,664.711,665.045,0.252965,0.000223901,0.0719181,-0.0345401,0.0466932,0.0466932,-0.0908405,1.39454e-10,3.94842e-06,-9.71509e-06,0.0885204,0.04780049457011759,1.394540039001413e-10,3.948427794941978e-06,0.04780049457011759,-9.715042808666752e-06,-0.08683665116152883
110,0.048512,665.728,666.077,-0.545393,0.000290383,0.0106442,-0.14316,0.0473724,0.0473724,-0.0921965,1.36842e-10,3.21336e-06,-1.18871e-05,0.0898634,0.04851240240256183,1.3684209321240814e-10,3.2133651628463156e-06,0.04851240240256183,-1.1887029348733869e-05,-0.08807406150873254
111,0.048762,667.204,667.546,0.298247,0.00025712,0.0824378,-0.024713,0.0476108,0.0476108,-0.0926661,1.59594e-10,4.28525e-06,-1.04485e-05,0.0903306,0.04876239755753309,1.5959389365605148e-10,4.285259181724399e-06,0.04876239755753309,-1.0448445414645846e-05,-0.08850220139433496
112,0.049137,668.176,668.515,0.323387,0.000230062,0.0792648,-0.0235261,0.0479683,0.0479683,-0.0933773,1.66764e-10,4.48929e-06,-1.05011e-05,0.0910359,0.04913739714184162,1.6676393599368566e-10,4.489300076793157e-06,0.04913739714184162,-1.0501044863664433e-05,-0.08915022816306972
113,0.0497,669.164,669.508,-0.0945853,0.000238407,0.0413396,-0.0823076,0.0485043,0.0485043,-0.0944463,1.70181e-10,4.19274e-06,-1.16046e-05,0.0920951,0.049699885520128495,1.7018098041887697e-10,4.1927487894888316e-06,0.049699885520128495,-1.1604532666908973e-05,-0.0901234063127665
114,0.049911,669.872,670.21,0.0873682,0.000214015,0.0581136,-0.0569518,0.0487053,0.0487053,-0.0948451,1.78622e-10,4.50467e-06,-1.13843e-05,0.0924909,0.04991089640300128,1.7862200607510204e-10,4.504680146011353e-06,0.04991089640300128,-1.1384235199085602e-05,-0.09048619275390446
115,0.050227,670.455,670.789,-0.115324,0.000191426,0.0356849,-0.0877649,0.0490066,0.0490066,-0.0954459,1.79173e-10,4.31434e-06,-1.19981e-05,0.0930863,0.05022728221721695,1.7917289873992104e-10,4.314349306699938e-06,0.05022728221721695,-1.1998028023096907e-05,-0.09103246453282365
116,0.050702,672.068,672.404,0.335195,0.000188373,0.0781107,-0.0200723,0.0494584,0.0494584,-0.0963425,1.97925e-10,5.14642e-06,-1.12147e-05,0.0939763,0.050701882107364815,1.9792500971504978e-10,5.14643324289743e-06,0.050701882107364815,-1.121463711550863e-05,-0.0918470795786267
117,0.051414,672.919,673.27,-0.54319,0.00025157,0.00922471,-0.140594,0.0501357,0.0501357,-0.0976955,-1.69478e-10,4.30895e-06,-1.35167e-05,0.0953164,0.05141376354355076,-1.6947798719968432e-10,4.308959283605418e-06,0.05141376354355076,-1.351660864978843e-05,-0.09307497961826294
118,0.051664,674.367,674.712,0.302992,0.000223265,0.0817287,-0.0218374,0.0503735,0.0503735,-0.0981639,2.18811e-10,5.38702e-06,-1.20666e-05,0.0957825,0.05166381946699228,2.1881096934350808e-10,5.387034510029309e-06,0.05166381946699228,-1.2066527198872912e-05,-0.09349968382431972
119,0.052039,675.285,675.626,0.317973,0.000200694,0.0775347,-0.0221674,0.05073,0.05073,-0.0988733,2.25889e-10,5.57023e-06,-1.21337e-05,0.0964861,0.052038804455734944,2.258890852147033e-10,5.570245513730754e-06,0.052038804455734944,-1.2133626386967578e-05,-0.09414252710514381
120,0.052601,676.227,676.573,-0.0800799,0.000209787,0.0411233,-0.0781631,0.0512645,0.0512645,-0.0999396,2.30588e-10,5.29038e-06,-1.31808e-05,0.0975428,0.052601269502109416,2.305879931441268e-10,5.290393993995224e-06,0.052601269502109416,-1.3180713133609245e-05,-0.09510792813346203
121,0.053445,677.491,677.858,-0.797871,0.000312399,-0.00779748,-0.172695,0.0520658,0.0520658,-0.101539,2.31169e-10,4.58208e-06,-1.54989e-05,0.0991274,0.05344505691764101,2.3116908387521562e-10,4.582090497695646e-06,0.05344505691764101,-1.5498779892708647e-05,-0.09655405573668518
122,0.054078,679.233,679.602,-0.528823,0.000303146,0.0045941,-0.140431,0.0526663,0.0526663,-0.102732,2.41117e-10,4.74584e-06,-1.57904e-05,0.100312,0.0540778406486202,2.4111690422046195e-10,4.745851261533929e-06,0.0540778406486202,-1.5790275332272508e-05,-0.0976312240895123
123,0.054711,681.667,682.037,0.450479,0.000294787,0.0830577,-0.00130114,0.0532665,0.0532665,-0.103922,2.74082e-10,6.14431e-06,-1.40235e-05,0.101493,0.05471068806708956,2.7408209035684195e-10,6.1443288763562975e-06,0.05471068806708956,-1.4023401671225955e-05,-0.09870440426399774
124,0.054948,681.55,681.912,-0.217869,0.000261308,0.0210471,-0.099704,0.0534914,0.0534914,-0.104373,2.64504e-10,5.40404e-06,-1.54535e-05,0.10194,0.05494791917647435,2.645039742787958e-10,5.404054601809705e-06,0.05494791917647435,-1.5453380595276123e-05,-0.0991107969292403
125,0.055304,682.331,682.686,-0.25245,0.000228995,0.0206049,-0.103563,0.0538288,0.0538288,-0.105045,2.71206e-10,5.4553e-06,-1.57966e-05,0.102606,0.05530391865813966,2.71205946589248e-10,5.455314880276063e-06,0.05530391865813966,-1.5796475234419738e-05,-0.09971599110568585
126,0.055838,684.111,684.466,0.319717,0.000218762,0.0741262,-0.0182016,0.0543346,0.0543346,-0.106049,2.96892e-10,6.44031e-06,-1.4787e-05,0.103603,0.05583782639408086,2.9689206648697564e-10,6.440330738932687e-06,0.05583782639408086,-1.4786890672802144e-05,-0.10061942265209001
127,0.056639,684.927,685.299,-0.657208,0.000282787,0.00196675,-0.148972,0.0550929,0.0550929,-0.107564,2.94107e-10,5.5143e-06,-1.73507e-05,0.105104,0.056638771857928205,2.9410696100740097e-10,5.514315203791753e-06,0.056638771857928205,-1.7350549477490596e-05,-0.1019809526074128
128,0.056889,686.475,686.838,0.333547,0.000249696,0.083908,-0.0123099,0.0553295,0.0553295,-0.108029,3.21641e-10,6.71347e-06,-1.5653e-05,0.105568,0.05688880216876924,3.216409361073147e-10,6.713492535448395e-06,0.05688880216876924,-1.5652877492389194e-05,-0.10239843439241281
129,0.057264,687.332,687.689,0.356588,0.00021918,0.0799012,-0.0118082,0.0556842,0.0556842,-0.108736,3.29047e-10,6.90181e-06,-1.56775e-05,0.106268,0.05726374711945437,3.290470118599842e-10,6.901833817574143e-06,0.05726374711945437,-1.5677377108613832e-05,-0.10303281441953327
130,0.057826,688.102,688.46,-0.112772,0.000213541,0.0365894,-0.0783413,0.0562161,0.0562161,-0.109797,3.30566e-10,6.51193e-06,-1.68547e-05,0.107321,0.05782625529233387,3.3056601900227633e-10,6.511951202714528e-06,0.05782625529233387,-1.6854557960299665e-05,-0.103983991914543
131,0.05867,689.259,689.636,-0.787569,0.000285942,-0.00950581,-0.167231,0.0570134,0.0570134,-0.111389,3.30043e-10,5.83437e-06,-1.90526e-05,0.108898,0.05866999647840587,3.300431039576779e-10,5.834387019953979e-06,0.05866999647840587,-1.9052418500420387e-05,-0.10540931454156821
132,0.058881,690.779,691.147,0.276612,0.000255668,0.0780629,-0.0193345,0.0572126,0.0572126,-0.111779,-2.98661e-10,7.06795e-06,-1.72206e-05,0.109288,0.05888090454745076,-2.986609848321109e-10,7.0679749779589685e-06,0.05888090454745076,-1.7220451726362995e-05,-0.10575813688411895
133,0.059092,691.053,691.414,0.0918149,0.000229024,0.0550676,-0.0489182,0.0574118,0.0574118,-0.112177,3.58058e-10,6.87108e-06,-1.76749e-05,0.109682,0.059091854633567475,3.5805802767185924e-10,6.871103605865514e-06,0.059091854633567475,-1.76747437998781e-05,-0.10611397432929026
134,0.059408,691.743,692.098,0.0986089,0.000201047,0.0549991,-0.047345,0.0577105,0.0577105,-0.112772,-2.96361e-10,7.00785e-06,-1.77717e-05,0.110272,0.059408252622233704,-2.963610468142974e-10,7.007874555098326e-06,0.059408252622233704,-1.7771542084266123e-05,-0.1066456783169416
135,0.059883,692.685,693.038,0.0259152,0.000185214,0.0474513,-0.0572806,0.0581584,0.0581584,-0.113664,3.73374e-10,7.08698e-06,-1.81047e-05,0.111157,0.05988286786073127,3.733739983857731e-10,7.087005112760281e-06,0.05988286786073127,-1.8104536110952196e-05,-0.10744219507259656
136,0.060595,694.51,694.875,0.351009,0.000215949,0.0730608,-0.00974334,0.0588299,0.0588299,-0.114999,3.93637e-10,7.80501e-06,-1.75338e-05,0.112483,0.06059481821707968,3.936369008528118e-10,7.805040459274437e-06,0.06059481821707968,-1.753364628387377e-05,-0.10863296472657902
137,0.061595,696.144,696.538,-0.0957748,0.000338373,0.042946,-0.065,0.0597723,0.0597723,-0.116879,4.07779e-10,7.71594e-06,-1.86716e-05,0.114346,0.061594793888295696,4.07778921740487e-10,7.715969768007369e-06,0.061594793888295696,-1.8671425686789256e-05,-0.11030716051574485
138,0.061845,696.865,697.248,0.101428,0.0002977,0.0554904,-0.0449834,0.0600078,0.0600078,-0.117347,-4.06887e-10,7.9833e-06,-1.85065e-05,0.114811,0.0618448289027238,-4.0688696856250317e-10,7.98333186668998e-06,0.0618448289027238,-1.850632875577407e-05,-0.11072343934777884
139,0.06222,697.413,697.787,-0.130959,0.000256296,0.029941,-0.0808905,0.0603609,0.0603609,-0.118051,4.16761e-10,7.74736e-06,-1.9195e-05,0.11551,0.0622198325148009,4.167610700989144e-10,7.747390010859334e-06,0.0622198325148009,-1.9194815777168195e-05,-0.11134926972833636
140,0.062782,699.151,699.523,0.453488,0.000233709,0.0827317,0.00593738,0.0608903,0.0608903,-0.119102,4.40091e-10,8.77196e-06,-1.80605e-05,0.116554,0.06278232057158561,4.400910746937825e-10,8.771998473822151e-06,0.06278232057158561,-1.806033691009734e-05,-0.11228275101550844
141,0.063626,701.127,701.514,0.722343,0.000278221,0.0926375,0.0350093,0.0616839,0.0616839,-0.120681,4.53022e-10,9.4834e-06,-1.74232e-05,0.118121,0.06362607938040332,4.530220643061966e-10,9.483444967539612e-06,0.06362607938040332,-1.7423048216946846e-05,-0.11368335048736933
142,0.064626,702.122,702.53,-0.285867,0.00035952,0.0289683,-0.088229,0.0626236,0.0626236,-0.122559,4.69032e-10,8.86152e-06,-1.96031e-05,0.119982,0.06462603856443638,4.690319244105012e-10,8.861559263273477e-06,0.06462603856443638,-1.960290786051644e-05,-0.11534629116510775
143,0.064876,703.11,703.505,0.199699,0.000316099,0.0654219,-0.0285513,0.0628584,0.0628584,-0.123024,4.80469e-10,9.44893e-06,-1.89038e-05,0.120444,0.0648760421075587,4.804689979209797e-10,9.448974641390606e-06,0.0648760421075587,-1.890362132428436e-05,-0.11575755951241473
144,0.065251,703.3,703.685,-0.361752,0.000270533,0.00487893,-0.114693,0.0632105,0.0632105,-0.123728,4.72738e-10,8.69613e-06,-2.03247e-05,0.121142,0.0652510509784221,4.727380709113049e-10,8.696167811406141e-06,0.0652510509784221,-2.0324493454682013e-05,-0.11637984711957894
145,0.065814,704.186,704.567,-0.58879,0.000240995,-0.00851153,-0.143155,0.0637384,0.0637384,-0.124781,4.79136e-10,8.48143e-06,-2.12998e-05,0.122187,0.0658135454655906,4.791360641576148e-10,8.481465967324908e-06,0.0658135454655906,-2.1299573160882268e-05,-0.11730980942947666
146,0.066657,705.656,706.05,-0.762281,0.000272148,-0.0119439,-0.159718,0.0645298,0.0645298,-0.126358,4.9153e-10,8.33441e-06,-2.25156e-05,0.123752,0.0666573641604884,4.915299278707153e-10,8.334444731250557e-06,0.0666573641604884,-2.2515346525753266e-05,-0.11870071484283107
147,0.067501,708.778,709.18,0.737528,0.000289863,0.0928828,0.0398433,0.0653205,0.0653205,-0.127925,5.21978e-10,1.02414e-05,-1.96984e-05,0.125309,0.06750110366678452,5.219780163656651e-10,1.0241452443215948e-05,0.06750110366678452,-1.9698205987794815e-05,-0.12008062937727082
148,0.068345,708.879,709.286,-0.77998,0.000300513,-0.0138805,-0.161134,0.0661106,0.0661106,-0.129508,5.21632e-10,8.77578e-06,-2.32551e-05,0.126877,0.0683448695746196,5.216320708711919e-10,8.775818507222866e-06,0.0683448695746196,-2.325482960230385e-05,-0.1214724398323479
149,0.069189,710.533,710.944,-0.72147,0.000304101,-0.0099382,-0.152406,0.0669,0.0669,-0.13108,-3.68811e-10,8.73751e-06,-2.40971e-05,0.128438,0.06918855397308188,-3.6881098175456373e-10,8.737548172099707e-06,0.06918855397308188,-2.409680966719563e-05,-0.12285240022388566
150,0.069821,711.914,712.318,-0.530988,0.000268511,-0.00208315,-0.129813,0.0674917,0.0674917,-0.132258,5.39077e-10,8.81663e-06,-2.44266e-05,0.129607,0.06982138004359761,5.39077005257127e-10,8.816668866540311e-06,0.06982138004359761,-2.4426301672986206e-05,-0.12388507173348429
151,0.070454,714.101,714.499,0.478032,0.000241672,0.0812671,0.0142863,0.068083,0.068083,-0.13343,5.7308e-10,1.02564e-05,-2.25193e-05,0.130773,0.07045415248635334,5.730800278769266e-10,1.0256452597001697e-05,0.07045415248635334,-2.251904644245961e-05,-0.1249112769556876
152,0.070691,713.852,714.241,-0.217905,0.000214769,0.0153075,-0.0886614,0.0683047,0.0683047,-0.133876,5.60447e-10,9.44943e-06,-2.39827e-05,0.131214,0.07069149848079093,5.604470221243218e-10,9.449474646094913e-06,0.07069149848079093,-2.398241241730048e-05,-0.12530147950452875
153,0.071047,714.498,714.877,-0.233999,0.000186473,0.016598,-0.0899214,0.0686371,0.0686371,-0.134538,5.67268e-10,9.50916e-06,-2.42408e-05,0.131871,0.0710474554916638,5.672680103430139e-10,9.509205212143712e-06,0.0710474554916638,-2.4240506194206368e-05,-0.12588033830169476
154,0.071581,715.985,716.362,0.27326,0.000169927,0.0654701,-0.0138132,0.0691355,0.0691355,-0.135528,-4.95708e-10,1.03898e-05,-2.33244e-05,0.132855,0.0715813985910485,-4.957080301792871e-10,1.0389853974057672e-05,0.0715813985910485,-2.3324127988333387e-05,-0.1267452885457605
155,0.072382,716.658,717.048,-0.509457,0.000198762,0.00578764,-0.119107,0.0698826,0.0698826,-0.137021,5.91371e-10,9.65067e-06,-2.53572e-05,0.134335,0.07238227618450943,5.91370952207626e-10,9.650716567888296e-06,0.07238227618450943,-2.5356878508908665e-05,-0.12804808505037124
156,0.072632,717.876,718.256,0.254011,0.000176103,0.0699299,-0.0140268,0.0701157,0.0701157,-0.137482,6.13768e-10,1.05951e-05,-2.4052e-05,0.134793,0.07263227762962443,6.137679253725992e-10,1.0595156128223593e-05,0.07263227762962443,-2.4051710752925892e-05,-0.1284499622433528
157,0.073007,718.546,718.919,0.243355,0.000154346,0.0641001,-0.0177787,0.0704653,0.0704653,-0.138178,6.19337e-10,1.07031e-05,-2.41463e-05,0.135485,0.07300733543016724,6.193370261087239e-10,1.0703157278468822e-05,0.07300733543016724,-2.414600848044124e-05,-0.12905635002220572
158,0.07357,719.305,719.679,-0.00743343,0.000147142,0.0401914,-0.052782,0.0709893,0.0709893,-0.139224,6.2341e-10,1.05663e-05,-2.48052e-05,0.136522,0.07356973861069749,6.234099902968637e-10,1.0566355823637963e-05,0.07356973861069749,-2.4804892353569308e-05,-0.12996688078947227
159,0.074414,721.585,721.975,0.782025,0.000188078,0.0990921,0.0579834,0.071775,0.071775,-0.140785,6.45295e-10,1.19264e-05,-2.30018e-05,0.138073,0.07441357381157254,6.452949286028797e-10,1.1926471119805271e-05,0.07441357381157254,-2.3001535460642764e-05,-0.1313239430259192
160,0.074664,720.989,721.37,-0.264856,0.000167155,0.00844735,-0.0940548,0.0720076,0.0720076,-0.141254,6.35322e-10,1.07933e-05,-2.51063e-05,0.138537,0.07466351147546457,6.353220172172769e-10,1.0793358247829232e-05,0.07466351147546457,-2.5105984839512985e-05,-0.13173125657414697
161,0.075039,721.559,721.933,-0.359268,0.000146565,0.00265664,-0.106642,0.0723565,0.0723565,-0.14195,6.39717e-10,1.07251e-05,-2.55654e-05,0.139228,0.07503852699227109,6.39716946082558e-10,1.072515751410208e-05,0.07503852699227109,-2.5565073207944877e-05,-0.13233536136671697
162,0.075601,723.348,723.723,0.44719,0.000139321,0.0786985,0.0129487,0.0728796,0.0728796,-0.142988,-5.34275e-10,1.20177e-05,-2.39844e-05,0.14026,0.07560102675472713,-5.342749576087158e-10,1.201777221293554e-05,0.07560102675472713,-2.3984112376584932e-05,-0.1332355299932777
163,0.076445,725.119,725.51,0.759317,0.000178533,0.0921385,0.0481965,0.0736637,0.0736637,-0.144549,6.78141e-10,1.27552e-05,-2.32029e-05,0.14181,0.07644473625288728,6.781410988310199e-10,1.2755281347809344e-05,0.07644473625288728,-2.3202630814789238e-05,-0.13458749384863922
164,0.077445,725.693,726.106,-0.381288,0.000242176,0.0178268,-0.0935162,0.0745923,0.0745923,-0.146406,6.91592e-10,1.19146e-05,-2.56561e-05,0.143651,0.07744478708671187,6.915918948635635e-10,1.1914670979162878e-05,0.07744478708671187,-2.56557708850913e-05,-0.1361930736303384
165,0.077695,726.734,727.136,0.228615,0.000214064,0.0649419,-0.0162004,0.0748243,0.0748243,-0.146865,7.03905e-10,1.26334e-05,-2.47041e-05,0.144108,0.07769478327575263,7.039049343404713e-10,1.263347980162699e-05,0.07769478327575263,-2.470379485619567e-05,-0.13658947002960897
166,0.07807,726.713,727.105,-0.438608,0.000184869,-0.00777109,-0.118569,0.0751722,0.0751722,-0.147562,6.90856e-10,1.16864e-05,-2.63345e-05,0.144799,0.07806977851749441,6.90856039042842e-10,1.1686468286198348e-05,0.07806977851749441,-2.6334153250151537e-05,-0.13719105749141325
167,0.078632,728.497,728.886,0.393408,0.000166236,0.0713668,0.00418647,0.0756938,0.0756938,-0.148597,7.16458e-10,1.29859e-05,-2.47492e-05,0.145827,0.07863224639283861,7.16458004035303e-10,1.2985984317204213e-05,0.07863224639283861,-2.4748893741044498e-05,-0.13808360277504894
168,0.079476,730.24,730.641,0.723746,0.000190482,0.0886203,0.0447155,0.0764758,0.0764758,-0.150153,7.25614e-10,1.3746e-05,-2.39263e-05,0.147373,0.07947606670025653,7.256140133193867e-10,1.37460944766854e-05,0.07947606670025653,-2.392601376832726e-05,-0.1394237018216925
169,0.080476,730.808,731.228,-0.368109,0.000240442,0.0173412,-0.0907869,0.0774017,0.0774017,-0.152005,7.41167e-10,1.294e-05,-2.62796e-05,0.14921,0.08047601644571167,7.411669056267556e-10,1.2940083722101647e-05,0.08047601644571167,-2.6279254694339116e-05,-0.1410160141895429
170,0.080726,731.813,732.221,0.219144,0.000212604,0.0626278,-0.016589,0.0776331,0.0776331,-0.152463,7.51357e-10,1.3631e-05,-2.53664e-05,0.149665,0.08072606752571154,7.513569766359751e-10,1.3631092902421926e-05,0.08072606752571154,-2.5366078275634862e-05,-0.14140933877683814
171,0.081101,731.803,732.2,-0.416991,0.00018324,-0.00694924,-0.114243,0.07798,0.07798,-0.153158,-6.23418e-10,1.27251e-05,-2.69236e-05,0.150354,0.08110103643313282,-6.23417983902641e-10,1.2725180964512361e-05,0.08110103643313282,-2.692323756314785e-05,-0.14200585197404125
172,0.081664,732.549,732.942,-0.597112,0.000163487,-0.0158353,-0.135905,0.0785002,0.0785002,-0.154196,7.47912e-10,1.25395e-05,-2.77579e-05,0.151384,0.08166357149496939,7.479119545905633e-10,1.2539578619907843e-05,0.08166357149496939,-2.7757514753035117e-05,-0.1428959878392556
173,0.082507,735.237,735.641,0.726903,0.000182681,0.0883074,0.0470014,0.0792799,0.0792799,-0.155742,-6.58803e-10,1.43984e-05,-2.51139e-05,0.152922,0.08250727345613074,-6.58803012143494e-10,1.4398503657364614e-05,0.08250727345613074,-2.511358464862834e-05,-0.14422004688069578
174,0.083351,735.096,735.508,-0.777933,0.000195225,-0.0206127,-0.154082,0.0800591,0.0800591,-0.157304,7.75326e-10,1.28658e-05,-2.86083e-05,0.15447,0.08335109183255329,7.753260256038175e-10,1.2865882764723224e-05,0.08335109183255329,-2.8607890786513934e-05,-0.1455557317260321
175,0.084195,737.906,738.323,0.688202,0.000201445,0.085156,0.0427681,0.0808376,0.0808376,-0.158848,7.92897e-10,1.47245e-05,-2.58134e-05,0.156005,0.08419480903185272,7.9289708132535e-10,1.4724608405902728e-05,0.08419480903185272,-2.581306683702156e-05,-0.14687397572999195
176,0.084828,738.865,739.275,0.637765,0.000180144,0.0878973,0.0402594,0.0814211,0.0814211,-0.160011,8.05344e-10,1.51631e-05,-2.56459e-05,0.15716,0.08482762130794974,8.053440136990275e-10,1.5163214960312033e-05,0.08482762130794974,-2.564557114670407e-05,-0.14786558456391274
177,0.08546,739.048,739.454,-0.183096,0.000164196,0.0218712,-0.0717591,0.0820042,0.0820042,-0.161178,8.12053e-10,1.44171e-05,-2.73947e-05,0.158318,0.08546036875352403,8.120530914368373e-10,1.4417203926919697e-05,0.08546036875352403,-2.739432476861481e-05,-0.14885944539613705
178,0.085698,739.763,740.159,0.155069,0.00014647,0.0531775,-0.0249418,0.0822228,0.0822228,-0.161612,8.20502e-10,1.49077e-05,-2.68407e-05,0.158749,0.08569767632690639,8.205021106988397e-10,1.4907811120234982e-05,0.08569767632690639,-2.684033979161171e-05,-0.1492287602497151
179,0.086054,739.944,740.332,-0.227427,0.000128158,0.0106785,-0.0833157,0.0825506,0.0825506,-0.162268,8.17148e-10,1.43927e-05,-2.77991e-05,0.159399,0.0860536263622298,8.171479048968422e-10,1.4392803575402624e-05,0.0860536263622298,-2.7798713608584436e-05,-0.14978668316426735
180,0.086588,741.576,741.961,0.5726,0.000117399,0.0870094,0.0359238,0.0830422,0.0830422,-0.163243,8.32999e-10,1.57012e-05,-2.61325e-05,0.160369,0.08658766158005093,8.329990031086254e-10,1.570132326444984e-05,0.08658766158005093,-2.6132158549185824e-05,-0.15061523716247105
181,0.087389,742.882,743.279,0.643304,0.000137352,0.0816714,0.0381829,0.083779,0.083779,-0.164711,8.37687e-10,1.6099e-05,-2.58597e-05,0.161827,0.08738855438177939,8.376870308524076e-10,1.6099129589663974e-05,0.08738855438177939,-2.585936564081237e-05,-0.1518612192197265
182,0.088389,743.764,744.182,-0.00322045,0.000186367,0.038366,-0.0405067,0.0846982,0.0846982,-0.166548,8.52867e-10,1.58019e-05,-2.71206e-05,0.16365,0.08838854146462038,8.528671102681074e-10,1.5802024850630758e-05,0.08838854146462038,-2.7120232239830067e-05,-0.15341781998447934
183,0.088639,744.234,744.641,0.079963,0.000165346,0.0430797,-0.035653,0.0849278,0.0849278,-0.167005,8.58014e-10,1.59399e-05,-2.71221e-05,0.164104,0.08863846416376875,8.580141042102696e-10,1.5940027040972637e-05,0.08863846416376875,-2.7121732199208992e-05,-0.1538046196502909
184,0.089014,744.686,745.084,-0.0442715,0.000143228,0.0285418,-0.0551097,0.0852723,0.0852723,-0.167692,8.61033e-10,1.58308e-05,-2.75174e-05,0.164786,0.08901356472203448,8.610330226588303e-10,1.5830925307769306e-05,0.08901356472203448,-2.7517021399803276e-05,-0.1543857562333184
185,0.089576,745.848,746.243,0.264634,0.000129429,0.0574645,-0.00840419,0.0857886,0.0857886,-0.16872,8.69816e-10,1.64301e-05,-2.69476e-05,0.165807,0.08957596759730979,8.698159970066399e-10,1.6430234974773583e-05,0.08957596759730979,-2.694723691665235e-05,-0.15525460101317856
186,0.09042,746.633,747.039,-0.216925,0.000148297,0.020033,-0.0723605,0.0865627,0.0865627,-0.170266,8.81189e-10,1.606e-05,-2.81837e-05,0.167342,0.09041973489182387,8.811888996262951e-10,1.606012896249176e-05,0.09041973489182387,-2.8183302843265423e-05,-0.15655956840030338
187,0.09067,747.358,747.755,0.130613,0.000131974,0.0482259,-0.0270878,0.086792,0.086792,-0.170721,8.86279e-10,1.65063e-05,-2.76535e-05,0.167794,0.09066979680553722,8.862790501495965e-10,1.6506436229635213e-05,0.09066979680553722,-2.765311764552081e-05,-0.1569432465032935
188,0.091045,747.566,747.956,-0.226381,0.000115535,0.00885025,-0.0816899,0.0871357,0.0871357,-0.171409,8.85432e-10,1.60258e-05,-2.85694e-05,0.168476,0.09104472444232292,8.854319499818075e-10,1.60259284138764e-05,0.09104472444232292,-2.8568991898625384e-05,-0.15752307006752186
189,0.091607,749.208,749.596,0.580699,0.000107469,0.0850353,0.0384,0.0876512,0.0876512,-0.172432,8.95784e-10,1.73398e-05,-2.6872e-05,0.169494,0.09160730298993514,8.957838915080174e-10,1.7339950335149013e-05,0.09160730298993514,-2.6871638950987098e-05,-0.15838448327886068
190,0.092451,750.589,750.991,0.722958,0.000130829,0.0845764,0.0497471,0.0884238,0.0884238,-0.173971,8.97328e-10,1.78357e-05,-2.64025e-05,0.171023,0.09245100467221712,8.973279896906661e-10,1.7835859057013792e-05,0.09245100467221712,-2.640215145710556e-05,-0.15967873337818816
191,0.093451,751.173,751.595,-0.150272,0.000171977,0.0263044,-0.0583529,0.0893388,0.0893388,-0.175801,9.16761e-10,1.72575e-05,-2.81697e-05,0.172838,0.09345105479465099,9.16760889424495e-10,1.7257648911472856e-05,0.09345105479465099,-2.816930323767952e-05,-0.16121511507808506
192,0.093701,751.827,752.238,0.135165,0.00015278,0.0476668,-0.0254812,0.0895674,0.0895674,-0.176255,9.20916e-10,1.76154e-05,-2.77938e-05,0.173289,0.09370104627871512,9.209160101164571e-10,1.7615555152117324e-05,0.09370104627871512,-2.7793413755916596e-05,-0.16159583698542723
193,0.094076,752.053,752.455,-0.188497,0.000132456,0.0113309,-0.0754601,0.0899102,0.0899102,-0.17694,9.21685e-10,1.71795e-05,-2.86332e-05,0.173969,0.09407603126613417,9.216849505833125e-10,1.717964756853263e-05,0.09407603126613417,-2.8632790073812586e-05,-0.16216994718190092
194,0.094639,753.578,753.977,0.5236,0.000119329,0.0787422,0.0307516,0.0904242,0.0904242,-0.177961,9.28163e-10,1.83549e-05,-2.71432e-05,0.174985,0.09463853089622565,9.281631019320002e-10,1.8355068452269307e-05,0.09463853089622565,-2.7142831626636443e-05,-0.16302493512021288
195,0.095482,753.57,753.979,-0.694881,0.000135482,-0.020623,-0.139943,0.0911947,0.0911947,-0.179504,9.43658e-10,1.69434e-05,-3.0153e-05,0.176515,0.09548227489491468,9.436580405974837e-10,1.694354354020433e-05,0.09548227489491468,-3.0152545402839515e-05,-0.16431539180196053
196,0.095982,754.51,754.913,-0.471153,0.000119043,-0.0131086,-0.114113,0.091651,0.091651,-0.180413,-8.75697e-10,1.69879e-05,-3.02253e-05,0.177418,0.09598225751930989,-8.756969593903818e-10,1.698804429528522e-05,0.09598225751930989,-3.0224843220238995e-05,-0.16507468396024427
197,0.096732,756.441,756.849,0.399921,0.000122457,0.0626992,0.0117047,0.0923351,0.0923351,-0.181772,9.51773e-10,1.82843e-05,-2.85367e-05,0.178769,0.09673227549607755,9.517731047736788e-10,1.8284467158791173e-05,0.09673227549607755,-2.8536292832281873e-05,-0.1662085768100371
198,0.097732,758.274,758.7,0.834679,0.000159093,0.0866274,0.0636176,0.0932465,0.0932465,-0.183587,9.4914e-10,1.91876e-05,-2.73879e-05,0.180572,0.09773229293068741,9.491400998484778e-10,1.918778408316335e-05,0.09773229293068741,-2.738752495490271e-05,-0.16772053572535017
199,0.098732,758.373,758.811,-0.460753,0.000181358,0.00327967,-0.097179,0.094157,0.094157,-0.18541,9.75762e-10,1.81209e-05,-3.01078e-05,0.182381,0.09873223333719094,9.757619157113595e-10,1.8121064184528635e-05,0.09873223333719094,-3.0107346764784992e-05,-0.1692363990594844
200,0.098982,759.432,759.858,0.247166,0.000161157,0.0595108,-0.00577837,0.0943845,0.0943845,-0.18586,9.78425e-10,1.89457e-05,-2.89456e-05,0.182829,0.0989822233555615,9.784248966582254e-10,1.8945879470821936e-05,0.0989822233555615,-2.8945181080208826e-05,-0.1696101585777089
201,0.099357,759.907,760.321,0.196522,0.000139024,0.0494694,-0.0157221,0.0947257,0.0947257,-0.18654,9.80535e-10,1.89475e-05,-2.91111e-05,0.183505,0.09935726006779522,9.80534986538828e-10,1.8947679504943693e-05,0.09935726006779522,-2.9110676276089542e-05,-0.1701746317272541
202,0.09992,760.54,760.948,0.0504058,0.000122776,0.0348055,-0.0357376,0.0952372,0.0952372,-0.187561,9.85537e-10,1.88939e-05,-2.95024e-05,0.184518,0.09991972514449987,9.855369853539742e-10,1.889407849087199e-05,0.09991972514449987,-2.9501964808442693e-05,-0.17102145105343136
203,0.1008,762.173,762.59,0.53279,0.000132352,0.0722826,0.0336057,0.096004,0.096004,-0.189088,9.85656e-10,1.9794e-05,-2.83927e-05,0.186035,0.10076346703904093,9.85656001262214e-10,1.979419590258935e-05,0.10076346703904093,-2.839229693107903e-05,-0.17228633531276016
204,0.1018,762.628,763.061,-0.367186,0.000159392,0.00876655,-0.0839514,0.0969121,0.0969121,-0.190904,1.00657e-09,1.90198e-05,-3.04637e-05,0.187837,0.10176352435075708,1.0065699385108928e-09,1.9019980877610365e-05,0.10176352435075708,-3.0463235986211146e-05,-0.1737880993134029
205,0.102,763.531,763.952,0.193028,0.000141853,0.0519372,-0.0133325,0.097139,0.097139,-0.191353,1.0081e-09,1.96642e-05,-2.95794e-05,0.188285,0.10201354285795938,1.0081000478834312e-09,1.9664393341667363e-05,0.10201354285795938,-2.9578962533860498e-05,-0.1741589851867017
206,0.1024,763.481,763.892,-0.369528,0.000122926,-0.0107491,-0.0998537,0.0974792,0.0974792,-0.192035,1.00647e-09,1.88285e-05,-3.09516e-05,0.188961,0.10238851164381368,1.0064700184386766e-09,1.882867725733206e-05,0.10238851164381368,-3.0951121004152427e-05,-0.1747220167432203
207,0.103,764.129,764.535,-0.480468,0.000109476,-0.0147011,-0.112388,0.0979893,0.0979893,-0.193053,1.01434e-09,1.87135e-05,-3.1551e-05,0.189971,0.10295098346984588,1.0143399453710344e-09,1.8713675098647187e-05,0.10295098346984588,-3.1550502272437164e-05,-0.17556172224755673
208,0.1038,766.385,766.8,0.655821,0.000120403,0.0769681,0.0456686,0.098754,0.098754,-0.194571,1.01325e-09,2.03352e-05,-2.92313e-05,0.191482,0.10379473265328931,1.0132499284054575e-09,2.0335406761606833e-05,0.10379473265328931,-2.923087276973657e-05,-0.17681227014719014
209,0.104,765.83,766.236,-0.23868,0.000107457,-0.000306974,-0.0798476,0.0989805,0.0989805,-0.195028,1.01908e-09,1.93412e-05,-3.09825e-05,0.191934,0.10404477047594973,1.019079931552369e-09,1.9341387042182134e-05,0.10404477047594973,-3.0982020047254366e-05,-0.17718838099185896
210,0.1044,766.304,766.702,-0.266167,9.40074e-05,0.000195442,-0.0826426,0.0993201,0.0993201,-0.195705,1.02401e-09,1.93455e-05,-3.12331e-05,0.192607,0.10441976775093664,1.0240099879155196e-09,1.9345687125360556e-05,0.10441976775093664,-3.1232612251796965e-05,-0.17774523594125857
211,0.105,767.609,768.006,0.296722,8.67674e-05,0.0555536,0.00178848,0.0998293,0.0998293,-0.196718,1.02993e-09,2.02716e-05,-3.01332e-05,0.193613,0.10498228150052191,1.0299299191274258e-09,2.0271805470262194e-05,0.10498228150052191,-3.0132745999722488e-05,-0.17857775827349642
212,0.1058,767.858,768.268,-0.55924,0.000103144,-0.0114433,-0.114234,0.100593,0.100593,-0.198245,1.04398e-09,1.93286e-05,-3.22818e-05,0.195129,0.10582647878460616,1.043980013548662e-09,1.9328786798666897e-05,0.10582647878460616,-3.228127894827626e-05,-0.17983111285684816
213,0.1061,768.994,769.395,0.247802,9.22829e-05,0.0573632,-0.00307091,0.100819,0.100819,-0.198691,-1.08794e-09,2.0312e-05,-3.08563e-05,0.195573,0.1060764238115357,-1.08793996034251e-09,2.0312206290062917e-05,0.1060764238115357,-3.085582394923847e-05,-0.18019682662028258
214,0.1065,769.453,769.847,0.2139,8.1345e-05,0.0493864,-0.0101037,0.101158,0.101158,-0.199367,1.0479e-09,2.03375e-05,-3.09693e-05,0.196245,0.10645144728209455,1.0478999890040086e-09,2.0337706808426503e-05,0.10645144728209455,-3.0968820456167556e-05,-0.18075082629250094
215,0.107,769.994,770.388,0.0235792,7.66297e-05,0.030399,-0.0366601,0.101666,0.101666,-0.200382,1.05197e-09,2.02082e-05,-3.14472e-05,0.197253,0.10701366740913532,1.0519700666122844e-09,2.0208404187149753e-05,0.10701366740913532,-3.144670554200424e-05,-0.1815819423410664
216,0.1079,771.649,772.057,0.596543,9.45454e-05,0.0754513,0.0454366,0.102428,0.102428,-0.201899,1.04959e-09,2.12206e-05,-3.01047e-05,0.19876,0.10785753329577163,1.049589970492093e-09,2.1220825158430046e-05,0.10785753329577163,-3.0104246858120298e-05,-0.18282254130230824
217,0.1089,771.795,772.223,-0.533243,0.000125559,-0.00511469,-0.103342,0.10333,0.10333,-0.203705,1.07221e-09,2.01273e-05,-3.27122e-05,0.200552,0.10885727160499936,1.0722100984850158e-09,2.012750255553364e-05,0.10885727160499936,-3.2711664961770914e-05,-0.18429703192691127
218,0.1091,772.9,773.317,0.249439,0.000112107,0.056872,-0.00149577,0.103555,0.103555,-0.20415,1.0727e-09,2.10228e-05,-3.14015e-05,0.200996,0.10910679256116551,1.0726999288834804e-09,2.1023020980504015e-05,0.10910679256116551,-3.1401006978071244e-05,-0.18465993899489241
219,0.1095,773.338,773.746,0.205057,9.77061e-05,0.0475304,-0.0103913,0.103893,0.103893,-0.204824,1.07397e-09,2.10248e-05,-3.15391e-05,0.201666,0.10948173401858785,1.0739700240236516e-09,2.1025021022635926e-05,0.10948173401858785,-3.153860264781816e-05,-0.18520929304289913
220,0.11,773.885,774.29,0.0369664,8.85244e-05,0.0306146,-0.0337196,0.1044,0.1044,-0.205836,1.07779e-09,2.09219e-05,-3.19636e-05,0.20267,0.1100443838774221,1.0777900794067818e-09,2.092211886450812e-05,0.1100443838774221,-3.1963089169528835e-05,-0.1860334441475433
221,0.1109,775.458,775.874,0.552239,0.000100573,0.0712602,0.0404201,0.10516,0.10516,-0.207349,1.07517e-09,2.18514e-05,-3.07532e-05,0.204174,0.11088833827121625,1.0751699530686665e-09,2.1851638743575208e-05,0.11088833827121625,-3.075272712516064e-05,-0.18726404436273103
222,0.1119,775.726,776.159,-0.426257,0.00012609,0.00118687,-0.0883176,0.10606,0.10606,-0.209149,1.09587e-09,2.09364e-05,-3.29977e-05,0.205961,0.11188858782044053,1.0958700613628025e-09,2.0936619167910564e-05,0.11188858782044053,-3.2997155581915294e-05,-0.18872565324025392
223,0.1121,776.676,777.099,0.208977,0.000112586,0.0510442,-0.00687038,0.106285,0.106285,-0.209594,1.09597e-09,2.16662e-05,-3.19571e-05,0.206404,0.11213879089949108,1.0959699814350188e-09,2.166643471390728e-05,0.11213879089949108,-3.195658937726886e-05,-0.18908659001017447
224,0.1125,776.529,776.942,-0.410785,9.81092e-05,-0.0183993,-0.102175,0.106622,0.106622,-0.21027,1.0935e-09,2.07194e-05,-3.34489e-05,0.207074,0.11251364483136417,1.0934999572498327e-09,2.0719614648223583e-05,0.11251364483136417,-3.3448340591824e-05,-0.18963458223308804
225,0.1131,777.14,777.549,-0.4988,8.80644e-05,-0.0197313,-0.111206,0.107127,0.107127,-0.211279,-8.38033e-10,2.06194e-05,-3.39904e-05,0.208076,0.11307560610528267,-8.380329763468808e-10,2.0619612581374014e-05,0.11307560610528267,-3.3989822332936015e-05,-0.19045182856950282
226,0.1139,777.943,778.362,-0.73093,9.79401e-05,-0.029604,-0.137487,0.107885,0.107885,-0.212792,1.11167e-09,2.03062e-05,-3.51111e-05,0.209578,0.11391963726210652,1.111670089315453e-09,2.0306406172343472e-05,0.11391963726210652,-3.511048361248825e-05,-0.19167574882372485
227,0.1149,780.708,781.143,0.822429,0.000121249,0.0821916,0.0696781,0.108782,0.108782,-0.214573,1.10094e-09,2.22983e-05,-3.19302e-05,0.211351,0.11491927144563574,1.1009400058270558e-09,2.2298548608912228e-05,0.11491927144563574,-3.1929690236576214e-05,-0.19311409308930372
228,0.1157,780.224,780.657,-0.577641,0.000113376,-0.0214559,-0.118302,0.109455,0.109455,-0.215922,1.11935e-09,2.08372e-05,-3.49578e-05,0.212689,0.11566986466160523,1.119349946065995e-09,2.083741709602016e-05,0.11566986466160523,-3.49571889832756e-05,-0.1942018483218637
229,0.1164,781.022,781.453,-0.687259,0.000107268,-0.0303075,-0.132833,0.110127,0.110127,-0.217263,1.12439e-09,2.05562e-05,-3.58155e-05,0.214021,0.11641984677642525,1.1243899145085834e-09,2.0556411280070463e-05,0.11641984677642525,-3.581485863268785e-05,-0.1952816994412655
230,0.1174,782.117,782.561,-0.786477,0.000124741,-0.0298103,-0.13985,0.111022,0.111022,-0.21905,1.13494e-09,2.03397e-05,-3.68356e-05,0.215796,0.11741948981282069,1.1349399198223864e-09,2.0339906853017453e-05,0.11741948981282069,-3.683492157757762e-05,-0.19671844692814577
231,0.1182,784.325,784.764,0.527938,0.000114865,0.0673676,0.0373161,0.111693,0.111693,-0.220381,1.13403e-09,2.19342e-05,-3.43374e-05,0.21712,0.11816952990079299,1.1340299810314036e-09,2.1934440556314883e-05,0.11816952990079299,-3.433681047826376e-05,-0.19778690345972627
232,0.1189,784.153,784.589,-0.537964,0.000107567,-0.01866,-0.110507,0.112364,0.112364,-0.221725,1.14101e-09,2.07143e-05,-3.68051e-05,0.218453,0.11892007343455147,1.141009953187222e-09,2.0714514542552465e-05,0.11892007343455147,-3.680442270059814e-05,-0.19886435365276034
233,0.1192,785.249,785.675,0.25989,9.60938e-05,0.0560973,0.00510357,0.112587,0.112587,-0.222166,1.14807e-09,2.17762e-05,-3.52973e-05,0.218893,0.11916962043438373,1.1480700834454183e-09,2.177643710310484e-05,0.11916962043438373,-3.529667705759465e-05,-0.19921757658141903
234,0.1195,785.639,786.055,0.202485,8.39335e-05,0.0456812,-0.00527426,0.112922,0.112922,-0.222834,1.14824e-09,2.17564e-05,-3.54405e-05,0.219557,0.11954460506364772,1.148239947568186e-09,2.175663667225436e-05,0.11954460506364772,-3.543987199294829e-05,-0.19975232061587056
235,0.1201,786.146,786.558,0.04634,7.59964e-05,0.0297418,-0.0269326,0.113424,0.113424,-0.223837,1.15007e-09,2.16593e-05,-3.58161e-05,0.220553,0.1201067575438568,1.150070039201978e-09,2.165953456434444e-05,0.1201067575438568,-3.581545861119917e-05,-0.20055456664465388
236,0.121,787.593,788.014,0.512222,8.56336e-05,0.0668787,0.0404505,0.114177,0.114177,-0.225337,1.15028e-09,2.25142e-05,-3.46924e-05,0.222044,0.12095051556731495,1.1502800933982371e-09,2.2514453446476068e-05,0.12095051556731495,-3.469179822568336e-05,-0.20175283586809378
237,0.122,787.899,788.337,-0.337052,0.000106834,0.00523214,-0.0715616,0.115069,0.115069,-0.227121,1.16241e-09,2.17325e-05,-3.66056e-05,0.223815,0.12195084950981205,1.1624099460760817e-09,2.1732736152468846e-05,0.12195084950981205,-3.660493002322074e-05,-0.2031756392908941
238,0.123,788.61,789.059,-0.774547,0.00011993,-0.0306112,-0.136089,0.11596,0.11596,-0.228901,1.16961e-09,2.10413e-05,-3.83391e-05,0.225582,0.12295095319675409,1.1696099644353808e-09,2.1041521369724592e-05,0.12295095319675409,-3.833836506605959e-05,-0.20459272507245296
239,0.1237,790.842,791.285,0.598978,0.000109388,0.0721497,0.0497662,0.116628,0.116628,-0.230225,1.1686e-09,2.27334e-05,-3.56597e-05,0.2269,0.12370133503311975,1.1686001055721817e-09,2.273365840577135e-05,0.12370133503311975,-3.565906420044396e-05,-0.20564514744710571
240,0.1245,790.533,790.972,-0.569919,0.000101642,-0.0227729,-0.112697,0.117295,0.117295,-0.231563,1.17422e-09,2.13744e-05,-3.83295e-05,0.228227,0.12445109384035247,1.1742200545228343e-09,2.1374628434100984e-05,0.12445109384035247,-3.832876543408137e-05,-0.20670728351233691
241,0.1247,791.664,792.093,0.273912,9.08494e-05,0.0566177,0.00966627,0.117517,0.117517,-0.232001,1.18192e-09,2.24993e-05,-3.67215e-05,0.228665,0.12470074969395939,1.1819198952878196e-09,2.2499553111066106e-05,0.12470074969395939,-3.6720825773994825e-05,-0.20705466963904318
242,0.1251,792.03,792.449,0.209881,7.93724e-05,0.0452889,-0.00177754,0.117851,0.117851,-0.232667,1.1815e-09,2.2465e-05,-3.68697e-05,0.229326,0.12507646248490056,1.1815000089399064e-09,2.246525233995378e-05,0.12507646248490056,-3.6869020320962065e-05,-0.20758259541026802
243,0.1256,792.504,792.919,0.04615,7.16194e-05,0.0284748,-0.0246126,0.11835,0.11835,-0.233665,1.18256e-09,2.23498e-05,-3.72513e-05,0.230317,0.1256380157355641,1.1825600498838185e-09,2.2350049758701473e-05,0.1256380157355641,-3.725060617898457e-05,-0.20837303348584224
244,0.1265,793.913,794.337,0.512227,7.98001e-05,0.0658469,0.0428731,0.1191,0.1191,-0.235157,1.18248e-09,2.32e-05,-3.61121e-05,0.231801,0.1264825609122191,1.1824798917814405e-09,2.320026912205897e-05,0.1264825609122191,-3.611144796600296e-05,-0.20955326025177556
245,0.1275,794.172,794.612,-0.339665,9.8708e-05,0.00357286,-0.0698017,0.119987,0.119987,-0.236933,1.19296e-09,2.23966e-05,-3.80228e-05,0.233563,0.12748219421557816,1.1929599530446922e-09,2.2396850805739277e-05,0.12748219421557816,-3.802207714254102e-05,-0.21095584779516263
246,0.1285,794.846,795.297,-0.770745,0.000110453,-0.0319606,-0.133507,0.120874,0.120874,-0.238704,1.19869e-09,2.17013e-05,-3.97231e-05,0.235322,0.12848271458703397,1.1986900361193875e-09,2.1701535474871747e-05,0.12848271458703397,-3.972231104809598e-05,-0.21235200832365486
247,0.1292,797.017,797.463,0.574337,0.00010076,0.0692032,0.0487906,0.121538,0.121538,-0.240022,1.19808e-09,2.33587e-05,-3.70893e-05,0.236634,0.12923227593634778,1.1980800795896585e-09,2.335897281646737e-05,0.12923227593634778,-3.7088612200419924e-05,-0.21338944455602749
248,0.13,796.737,797.178,-0.533529,9.36498e-05,-0.0213175,-0.105461,0.122202,0.122202,-0.241353,1.20204e-09,2.20616e-05,-3.96171e-05,0.237954,0.1299823351596736,1.2020400230738915e-09,2.2061843358844868e-05,0.1299823351596736,-3.961631525306597e-05,-0.21443572675006062
249,0.131,799.131,799.583,0.778503,0.000105471,0.0770314,0.0720905,0.123087,0.123087,-0.24311,1.19792e-09,2.38438e-05,-3.67958e-05,0.239703,0.13098281217206797,1.1979199854295075e-09,2.3844084265700616e-05,0.13098281217206797,-3.679512304288757e-05,-0.2158147513502897
250,0.1317,799.8,800.247,0.631444,9.63823e-05,0.0730118,0.057091,0.123749,0.123749,-0.244434,1.20332e-09,2.41502e-05,-3.66906e-05,0.241018,0.131731770671637,1.2033201102212843e-09,2.4150491618524228e-05,0.131731770671637,-3.66899269081955e-05,-0.21685232559378254
251,0.1325,799.93,800.372,-0.051821,8.96191e-05,0.0204491,-0.0332765,0.124412,0.124412,-0.24576,1.20989e-09,2.35579e-05,-3.80227e-05,0.242334,0.13248235762767369,1.209889965991806e-09,2.3558177489446663e-05,0.13248235762767369,-3.8021977146307506e-05,-0.21789009121937886
252,0.1335,800.245,800.698,-0.805651,0.000101157,-0.0361563,-0.13693,0.125295,0.125295,-0.247525,1.21821e-09,2.25595e-05,-4.02642e-05,0.244087,0.13348278117145185,1.218209977338347e-09,2.2559754467410542e-05,0.13348278117145185,-4.026338940799068e-05,-0.2192692977006121
253,0.1345,801.324,801.784,-0.788156,0.000108137,-0.0349137,-0.133709,0.126176,0.126176,-0.249285,1.22153e-09,2.23262e-05,-4.10851e-05,0.245835,0.13448181951343563,1.221529988271186e-09,2.2326449231391265e-05,0.13448181951343563,-4.108425601878629e-05,-0.22064217525003016
254,0.1352,802.284,802.736,-0.62641,9.74133e-05,-0.0298129,-0.115683,0.126837,0.126837,-0.250602,1.21974e-09,2.22343e-05,-4.14116e-05,0.247145,0.13523195989021586,1.2197400867108854e-09,2.223454718386364e-05,0.13523195989021586,-4.141074255148425e-05,-0.2216679139080585
255,0.136,804.326,804.773,0.625287,8.93247e-05,0.074798,0.0625846,0.127498,0.127498,-0.251913,1.22402e-09,2.39666e-05,-3.87544e-05,0.24845,0.13598259627369735,1.2240199964708154e-09,2.3966887201298803e-05,0.13598259627369735,-3.8753649057921e-05,-0.22268763869727382
256,0.137,805.523,805.98,0.779409,9.9098e-05,0.0761582,0.0747722,0.128378,0.128378,-0.253668,1.2196e-09,2.44748e-05,-3.80753e-05,0.250194,0.13698270093993137,1.2195999765651777e-09,2.4475099510423703e-05,0.13698270093993137,-3.8074575144930733e-05,-0.22405062552058652
257,0.138,805.615,806.078,-0.169418,0.000104973,0.0130811,-0.0430603,0.129257,0.129257,-0.255428,1.22946e-09,2.37193e-05,-3.98791e-05,0.25194,0.13798254810250854,1.2294600892914787e-09,2.371958130487073e-05,0.13798254810250854,-3.987830483931365e-05,-0.22541509533401938
258,0.139,807.587,808.054,0.771875,0.000108441,0.0750637,0.074044,0.130135,0.130135,-0.257175,1.2216e-09,2.50126e-05,-3.7832e-05,0.253679,0.1389821355344114,1.2215999323217375e-09,2.5012912817645727e-05,0.1389821355344114,-3.7831284378953e-05,-0.22676711383044978
259,0.14,808.623,809.093,0.781121,0.000110254,0.075476,0.0754246,0.131013,0.131013,-0.258926,1.21945e-09,2.55017e-05,-3.72926e-05,0.255419,0.13998260098947513,1.2194500964568533e-09,2.550202517115352e-05,0.13998260098947513,-3.729190463963583e-05,-0.22811985993928774
260,0.141,808.816,809.287,-0.0490917,0.000110815,0.0211586,-0.0262434,0.13189,0.13189,-0.260681,1.23036e-09,2.49126e-05,-3.87757e-05,0.257161,0.14098280425556786,1.2303600360752398e-09,2.4912910321361892e-05,0.14098280425556786,-3.877494823223415e-05,-0.22947332157511757
261,0.142,810.661,811.134,0.783012,0.000110908,0.0747072,0.0754052,0.132766,0.132766,-0.262424,1.21888e-09,2.60921e-05,-3.69223e-05,0.258895,0.14198274310136605,1.2188801079560108e-09,2.6092440401859207e-05,0.14198274310136605,-3.692161838031449e-05,-0.23081517980644428
262,0.143,811.584,812.058,0.697121,0.000110401,0.0683179,0.0641813,0.133641,0.133641,-0.264171,1.21722e-09,2.64424e-05,-3.66249e-05,0.260631,0.14298241529438305,1.2172201024895912e-09,2.6442749603283744e-05,0.14298241529438305,-3.662422931649534e-05,-0.23215777259105796
263,0.144,811.998,812.472,0.107274,0.000109428,0.0312304,-0.00544168,0.134515,0.134515,-0.26592,1.22589e-09,2.61441e-05,-3.75525e-05,0.262367,0.14398181860097714,1.225890056133494e-09,2.6144441759967663e-05,0.14398181860097714,-3.7551794913714964e-05,-0.23349955491611019
264,0.145,812.108,812.583,-0.78108,0.000108175,-0.0387084,-0.132063,0.135389,0.135389,-0.267669,1.24002e-09,2.49522e-05,-4.00604e-05,0.264103,0.14498209576788224,1.2400200866125033e-09,2.49525113087401e-05,0.14498209576788224,-4.0059597592900786e-05,-0.23483899251493667
265,0.146,813.09,813.565,-0.789952,0.000106847,-0.0393429,-0.132372,0.136262,0.136262,-0.269411,1.24374e-09,2.46693e-05,-4.09052e-05,0.265835,0.14598210157651192,1.2437399998788123e-09,2.4669604289595526e-05,0.14598210157651192,-4.0904363393767795e-05,-0.23617074269879212
266,0.147,814.084,814.56,-0.779945,0.000105517,-0.0385577,-0.130131,0.137134,0.137134,-0.271152,1.24659e-09,2.44107e-05,-4.17004e-05,0.267564,0.146981833788983,1.2465899423830251e-09,2.441099794348034e-05,0.146981833788983,-4.1699530550443065e-05,-0.2374994124930888
267,0.148,815.086,815.563,-0.756524,0.000104197,-0.0368103,-0.126124,0.138006,0.138006,-0.272891,1.2487e-09,2.41767e-05,-4.24447e-05,0.269293,0.14798243814814382,1.2487000322636277e-09,2.4176992258873042e-05,0.14798243814814382,-4.244379923645791e-05,-0.23882424873577823
268,0.149,816.086,816.562,-0.729666,0.000102891,-0.0348211,-0.121681,0.138877,0.138877,-0.274628,1.25019e-09,2.39594e-05,-4.31531e-05,0.271019,0.14898276643149755,1.2501899515626747e-09,2.3959687028618504e-05,0.14898276643149755,-4.315216891837004e-05,-0.24014526338235986
269,0.15,817.076,817.553,-0.706481,0.000101603,-0.0331033,-0.117747,0.139747,0.139747,-0.276364,1.25116e-09,2.37503e-05,-4.38413e-05,0.272745,0.14998281639694966,1.2511600644415921e-09,2.3750582040626966e-05,0.14998281639694966,-4.3840338984302285e-05,-0.24146322688181554
270,0.151,819.519,819.996,0.77798,0.000100509,0.0742922,0.0803935,0.140616,0.140616,-0.27809,1.24536e-09,2.56366e-05,-4.06792e-05,0.274463,0.1509825858012892,1.2453600373163454e-09,2.5636928620453858e-05,0.1509825858012892,-4.0678372612568126e-05,-0.24277133213264068
271,0.152,820.434,820.911,0.737451,9.93892e-05,0.0707742,0.0746666,0.141484,0.141484,-0.279824,1.24356e-09,2.60354e-05,-4.02468e-05,0.276186,0.15198207240019568,1.2435599217042181e-09,2.6035738923901874e-05,0.15198207240019568,-4.024599010843399e-05,-0.24408322889951295
272,0.153,820.669,821.147,0.0209161,9.81442e-05,0.0241268,-0.0121359,0.142352,0.142352,-0.28156,1.24959e-09,2.55597e-05,-4.14494e-05,0.277909,0.15298242693009745,1.2495899870401672e-09,2.556002665188295e-05,0.15298242693009745,-4.144854098553363e-05,-0.24539436202131393
273,0.154,822.346,822.824,0.755172,9.70615e-05,0.0714522,0.0771262,0.143219,0.143219,-0.283286,1.24101e-09,2.66338e-05,-3.97461e-05,0.279626,0.15398249616161253,1.241009961461259e-09,2.6634154682847466e-05,0.15398249616161253,-3.974531013428706e-05,-0.246695687985096
274,0.155,821.871,822.35,-0.662037,9.57745e-05,-0.0282743,-0.106237,0.144085,0.144085,-0.285023,1.25353e-09,2.51128e-05,-4.28386e-05,0.28135,0.15498227784627527,1.253529946509957e-09,2.5113115329045144e-05,0.15498227784627527,-4.283768244028874e-05,-0.24800304180956045
275,0.156,822.701,823.18,-0.766293,9.44401e-05,-0.0394508,-0.124796,0.14495,0.14495,-0.286751,1.25453e-09,2.46932e-05,-4.38648e-05,0.283067,0.1559817697345336,1.2545300354105393e-09,2.4693504879547135e-05,0.1559817697345336,-4.386383795373927e-05,-0.24930137047428147
276,0.157,823.668,824.147,-0.72776,9.31578e-05,-0.0365941,-0.118807,0.145815,0.145815,-0.288476,1.25483e-09,2.44787e-05,-4.45255e-05,0.284782,0.15698212655730548,1.254830017671793e-09,2.4478999605781482e-05,0.15698212655730548,-4.452450875458425e-05,-0.25059520935334856
277,0.158,826.046,826.525,0.729651,9.21407e-05,0.0696361,0.0762222,0.146679,0.146679,-0.290192,1.24792e-09,2.6322e-05,-4.14238e-05,0.28649,0.15798219108031297,1.247919989566526e-09,2.6322346426965737e-05,0.15798219108031297,-4.142294204623198e-05,-0.2518800852352985
278,0.159,825.492,825.972,-0.74478,9.11017e-05,-0.0382531,-0.120453,0.147542,0.147542,-0.291923,-1.15293e-09,2.46254e-05,-4.47876e-05,0.288208,0.15898196104990725,-1.1529299737134124e-09,2.4625703207714622e-05,0.15898196104990725,-4.478659705042798e-05,-0.2531739606355208
279,0.16,826.401,826.88,-0.749232,8.98536e-05,-0.0386056,-0.120259,0.148405,0.148405,-0.293645,1.25436e-09,2.43564e-05,-4.55314e-05,0.289919,0.15998259419339145,1.2543599492431667e-09,2.4356696619598495e-05,0.15998259419339145,-4.553036346155448e-05,-0.25445888843495645
280,0.161,828.796,829.276,0.740969,8.8815e-05,0.0703578,0.0793584,0.149266,0.149266,-0.295356,1.24962e-09,2.62421e-05,-4.23449e-05,0.291622,0.1609817692901454,1.249619963061832e-09,2.6242444326918246e-05,0.1609817692901454,-4.2344003467365e-05,-0.25573341860534904
281,0.162,828.211,828.691,-0.749518,8.78781e-05,-0.0390418,-0.119686,0.150127,0.150127,-0.297083,-1.39126e-09,2.45184e-05,-4.57377e-05,0.293336,0.16198180504711845,-1.3912599960974603e-09,2.451870057851302e-05,0.16198180504711845,-4.5736654047390246e-05,-0.2570176577317419
282,0.163,829.143,829.623,-0.715512,8.66747e-05,-0.0365861,-0.114377,0.150988,0.150988,-0.2988,1.25269e-09,2.43008e-05,-4.63727e-05,0.295042,0.1629827022056587,1.2526899517695256e-09,2.430109526674329e-05,0.1629827022056587,-4.637162480292112e-05,-0.2582922638509255
283,0.164,831.434,831.914,0.685357,8.5616e-05,0.0661455,0.0734827,0.151847,0.151847,-0.300508,1.25031e-09,2.60781e-05,-4.33761e-05,0.296742,0.16398213354115687,1.250310077693939e-09,2.607844003654769e-05,0.16398213354115687,-4.3375159270553354e-05,-0.2595580194013162
284,0.165,832.4,832.881,0.763753,8.46623e-05,0.0713845,0.0837114,0.152706,0.152706,-0.302221,1.24734e-09,2.659e-05,-4.26814e-05,0.298445,0.16498242375700856,1.2473400090584619e-09,2.659035351726402e-05,0.16498242375700856,-4.268048916200584e-05,-0.2608253107691335
285,0.166,832.405,832.886,-0.116884,8.36582e-05,0.0115589,-0.0262338,0.153564,0.153564,-0.303939,1.25129e-09,2.585e-05,-4.42917e-05,0.300151,0.16598240760831806,1.2512899605354733e-09,2.58503341141747e-05,0.16598240760831806,-4.429071913714111e-05,-0.26209412266373733
286,0.167,832.702,833.184,-0.698917,8.26667e-05,-0.0366272,-0.11161,0.154421,0.154421,-0.305654,1.25081e-09,2.49563e-05,-4.61179e-05,0.301854,0.16698208283128735,1.2508099000996253e-09,2.495661141099781e-05,0.16698208283128735,-4.6116836585952115e-05,-0.2633585466898536
287,0.168,834.971,835.452,0.698064,8.1724e-05,0.0661961,0.0759536,0.155278,0.155278,-0.307355,1.24558e-09,2.6737e-05,-4.31049e-05,0.303548,0.16798261514313273,1.245580083519826e-09,2.6737357436745768e-05,0.16798261514313273,-4.3103970997160346e-05,-0.26461050870637015
288,0.169,835.893,836.374,0.751064,8.08177e-05,0.0695824,0.0827811,0.156134,0.156134,-0.309063,1.24191e-09,2.72105e-05,-4.24639e-05,0.305246,0.16898283629527344,1.2419099082450202e-09,2.7210870209071203e-05,0.16898283629527344,-4.246299842136647e-05,-0.26586548190529713
289,0.17,835.92,836.402,-0.0879278,7.9828e-05,0.0125858,-0.0217498,0.156989,0.156989,-0.310775,1.24627e-09,2.65121e-05,-4.39768e-05,0.306945,0.16998274401994506,1.2462699761073281e-09,2.6512451448912344e-05,0.16998274401994506,-4.3975833034726186e-05,-0.2671212449603859
290,0.171,837.616,838.098,0.749388,7.90194e-05,0.068918,0.0826838,0.157843,0.157843,-0.312475,1.23724e-09,2.7689e-05,-4.2031e-05,0.308637,0.17098233604838287,1.237240088158842e-09,2.768938334396509e-05,0.17098233604838287,-4.203011670989021e-05,-0.2683660804340028
291,0.172,838.358,838.84,0.635352,7.81174e-05,0.0602535,0.0674961,0.158697,0.158697,-0.31418,-1.42127e-09,2.79401e-05,-4.17835e-05,0.310331,0.17198278209302575,-1.421269990586893e-09,2.7940490328282053e-05,0.17198278209302575,-4.178262708176561e-05,-0.2696124534319456
292,0.173,838.722,839.205,0.148198,7.71391e-05,0.0292148,0.0102286,0.159549,0.159549,-0.315885,1.23671e-09,2.76934e-05,-4.24631e-05,0.312025,0.17298173691769558,1.2367100676868858e-09,2.7693783465787547e-05,0.17298173691769558,-4.2462198455384126e-05,-0.2708567031745165
293,0.174,840.289,840.772,0.869635,7.64661e-05,0.083962,0.109504,0.160402,0.160402,-0.317582,1.22371e-09,2.89442e-05,-4.04166e-05,0.313713,0.17398271719668168,1.22371002220234e-09,2.8944618887472018e-05,0.17398271719668168,-4.041578326019479e-05,-0.2720930100461548
294,0.175,840.906,841.389,0.644014,7.55669e-05,0.0597937,0.0683772,0.161253,0.161253,-0.319283,1.22176e-09,2.89823e-05,-4.05144e-05,0.315403,0.1749822017093574,1.2217600264818884e-09,2.8982719990855443e-05,0.1749822017093574,-4.05135793027922e-05,-0.27333012736949314
295,0.176,841.335,841.818,0.233936,7.46049e-05,0.0340446,0.0209343,0.162104,0.162104,-0.320984,1.22355e-09,2.88355e-05,-4.09969e-05,0.317093,0.1759825371453696,1.223549928042189e-09,2.8835915746983076e-05,0.1759825371453696,-4.099605963858721e-05,-0.2745651421449883
296,0.177,842.659,843.142,0.725266,7.3956e-05,0.0717874,0.0892314,0.162954,0.162954,-0.322678,1.21095e-09,2.97803e-05,-3.94941e-05,0.318778,0.17698254724602713,1.2109500069357182e-09,2.9780743437513024e-05,0.17698254724602713,-3.9493320118322295e-05,-0.2757929885146969
297,0.178,842.323,842.806,-0.442982,7.28091e-05,-0.0174666,-0.0709639,0.163803,0.163803,-0.32438,1.22606e-09,2.84513e-05,-4.20749e-05,0.320467,0.1779822297338074,1.2260599202562616e-09,2.8451704741971895e-05,0.1779822297338074,-4.207401486377993e-05,-0.2770245405002082
298,0.179,844.3,844.783,0.710714,7.23784e-05,0.0633047,0.0770788,0.164652,0.164652,-0.326067,1.20652e-09,2.99217e-05,-3.95743e-05,0.322147,0.17898276131240776,1.2065199950228589e-09,2.9922147658512088e-05,0.17898276131240776,-3.957351694772182e-05,-0.2782431718957865
299,0.18,843.719,844.203,-0.693557,7.11989e-05,-0.0415464,-0.111553,0.165499,0.165499,-0.327768,1.22456e-09,2.82284e-05,-4.27963e-05,0.323834,0.1799817827370871,1.224560008949993e-09,2.8228798425011803e-05,0.1799817827370871,-4.2795384251448354e-05,-0.27946983668621816
300,0.181,844.524,845.008,-0.706262,7.02701e-05,-0.0425179,-0.112543,0.166347,0.166347,-0.329459,1.22503e-09,2.79312e-05,-4.34909e-05,0.325515,0.18098283167360907,1.2250300773786194e-09,2.793159007952184e-05,0.18098283167360907,-4.348995428449243e-05,-0.28068722360165355
301,0.182,845.335,845.819,-0.7082,6.94102e-05,-0.0425817,-0.111999,0.167193,0.167193,-0.331149,1.22493e-09,2.76462e-05,-4.41603e-05,0.327195,0.18198236589256434,1.2249299352617982e-09,2.7646582159812638e-05,0.18198236589256434,-4.4159324948278567e-05,-0.2819018355575762
302,0.183,846.153,846.638,-0.698763,6.86034e-05,-0.0418014,-0.109937,0.168039,0.168039,-0.332837,-1.44494e-09,2.7378e-05,-4.47954e-05,0.328873,0.1829827460752611,-1.4449399454719014e-09,2.737837478083982e-05,0.1829827460752611,-4.4794396701020034e-05,-0.2831129627802026
303,0.184,846.974,847.458,-0.683583,6.78366e-05,-0.0405954,-0.107113,0.168884,0.168884,-0.334524,-1.43498e-09,2.71235e-05,-4.54015e-05,0.33055,0.18398278895430642,-1.4349800236956867e-09,2.7123867845535443e-05,0.18398278895430642,-4.540046936751807e-05,-0.2843213316662554
304,0.185,847.79,848.274,-0.668502,6.71001e-05,-0.0394009,-0.104316,0.169728,0.169728,-0.336209,1.22155e-09,2.68767e-05,-4.59896e-05,0.332225,0.18498249224362828,1.2215499722856293e-09,2.6877061181762585e-05,0.18498249224362828,-4.59885424946016e-05,-0.2855262348064196
305,0.186,848.599,849.084,-0.656453,6.6387e-05,-0.038437,-0.101939,0.170571,0.170571,-0.337893,1.2196e-09,2.66332e-05,-4.65676e-05,0.333899,0.1859818536562421,1.2195999765651777e-09,2.663355466681061e-05,0.1859818536562421,-4.656651574619364e-05,-0.28672839612308054
306,0.187,849.401,849.886,-0.647404,6.56928e-05,-0.0377009,-0.0999761,0.171414,0.171414,-0.339575,1.2173e-09,2.63916e-05,-4.71382e-05,0.335571,0.1869820578857242,1.2173000385473642e-09,2.639194826126179e-05,0.1869820578857242,-4.713708901249447e-05,-0.2879271105593514
307,0.188,850.198,850.684,-0.639878,6.50142e-05,-0.0370814,-0.0982264,0.172256,0.172256,-0.341257,1.21465e-09,2.61526e-05,-4.76998e-05,0.337242,0.187981917660357,1.214649936187584e-09,2.615294198227147e-05,0.187981917660357,-4.769866238263365e-05,-0.2891238104526459
308,0.189,850.992,851.477,-0.63246,6.4349e-05,-0.0364722,-0.0964994,0.173098,0.173098,-0.342936,1.21168e-09,2.59177e-05,-4.82502e-05,0.338912,0.1889826196714519,1.2116800895967117e-09,2.5918035866379086e-05,0.1889826196714519,-4.824903597777652e-05,-0.2903163701408814
309,0.19,853.156,853.642,0.752702,6.3797e-05,0.0676815,0.0908208,0.173938,0.173938,-0.344607,1.20673e-09,2.77386e-05,-4.51174e-05,0.340575,0.18998178466252136,1.206730049219118e-09,2.7738984718528314e-05,0.18998178466252136,-4.5116382225374174e-05,-0.2915012612341591
310,0.191,853.867,854.353,0.685072,6.32177e-05,0.0620124,0.0812977,0.174778,0.174778,-0.346284,1.20286e-09,2.80324e-05,-4.47173e-05,0.342243,0.19098178930478737,1.2028600337998796e-09,2.803279291141436e-05,0.19098178930478737,-4.4716300196423475e-05,-0.2926884179099739
311,0.192,854.005,854.491,0.0468049,6.25626e-05,0.0188734,0.00296301,0.175618,0.175618,-0.347963,1.20325e-09,2.75472e-05,-4.57397e-05,0.343911,0.19198263430385332,1.203249944126128e-09,2.7547579427578128e-05,0.19198263430385332,-4.5738653955851305e-05,-0.29387499764386504
312,0.193,855.44,855.927,0.712911,6.20408e-05,0.0636031,0.0851354,0.176456,0.176456,-0.349634,1.19519e-09,2.85358e-05,-4.40693e-05,0.345572,0.1929819343996606,1.1951899470119542e-09,2.8536207149709725e-05,0.1929819343996606,-4.406832896264312e-05,-0.2950539472360919
313,0.194,854.928,855.414,-0.569517,6.13808e-05,-0.0300719,-0.0829668,0.177294,0.177294,-0.351314,1.19895e-09,2.70554e-05,-4.685e-05,0.34724,0.1939820722599226,1.1989500503517547e-09,2.705576600070536e-05,0.1939820722599226,-4.6848902555907124e-05,-0.29623726234173087
314,0.195,856.911,857.397,0.651682,6.08778e-05,0.0586238,0.077259,0.178131,0.178131,-0.352978,1.18961e-09,2.86126e-05,-4.41632e-05,0.348897,0.1949818536045289,1.1896099660901882e-09,2.8613009344313767e-05,0.1949818536045289,-4.4162224820287754e-05,-0.29740734975447924
315,0.196,856.363,856.85,-0.657938,6.02253e-05,-0.040572,-0.099521,0.178968,0.178968,-0.354656,1.19283e-09,2.69898e-05,-4.71674e-05,0.350562,0.19598247211642628,1.192830056950811e-09,2.6990164228024582e-05,0.19598247211642628,-4.7166287635680426e-05,-0.298585311635176
316,0.197,858.443,858.93,0.667127,5.9721e-05,0.0595461,0.0799328,0.179804,0.179804,-0.356317,1.18346e-09,2.87099e-05,-4.4199e-05,0.352216,0.19698273151328705,1.1834599966675796e-09,2.8710312133028992e-05,0.19698273151328705,-4.4198023238628537e-05,-0.29974939439418424
317,0.198,857.812,858.299,-0.719449,5.90756e-05,-0.0456308,-0.107331,0.180639,0.180639,-0.357992,1.18673e-09,2.69722e-05,-4.73976e-05,0.353878,0.19798262949341128,1.1867300475643106e-09,2.697256375294721e-05,0.19798262949341128,-4.739647675144898e-05,-0.30092133238650387
318,0.199,859.965,860.452,0.686212,5.85818e-05,0.0607697,0.0831316,0.181473,0.181473,-0.35965,1.17718e-09,2.87871e-05,-4.4256e-05,0.355529,0.19898216375425948,1.177179909106485e-09,2.8787514352535126e-05,0.19898216375425948,-4.425502071769838e-05,-0.30207944447718327
319,0.2,860.657,861.144,0.631566,5.7965e-05,0.0561213,0.0754422,0.182307,0.182307,-0.361315,1.17239e-09,2.90543e-05,-4.38722e-05,0.357184,0.19998253197439397,1.1723899628890422e-09,2.9054722080257278e-05,0.19998253197439397,-4.3871237629056203e-05,-0.30324051534240426
320,0.201,860.841,861.328,0.0713245,5.72683e-05,0.018418,0.00723115,0.18314,0.18314,-0.362981,1.17288e-09,2.86352e-05,-4.47376e-05,0.35884,0.20098253386649256,1.1728800153321117e-09,2.8635609991223276e-05,0.20098253386649256,-4.473659928849738e-05,-0.3044003502331143
321,0.202,862.131,862.619,0.623484,5.68028e-05,0.055005,0.0744215,0.183972,0.183972,-0.36464,1.16351e-09,2.94598e-05,-4.33349e-05,0.360489,0.20198216712444061,1.1635099550488803e-09,2.9460233944123004e-05,0.20198216712444061,-4.3333961056823966e-05,-0.3055533933383636
322,0.203,861.84,862.328,-0.406291,5.60823e-05,-0.0200419,-0.0597064,0.184804,0.184804,-0.366306,1.16826e-09,2.82892e-05,-4.55184e-05,0.362144,0.20298263242334036,1.1682599332374366e-09,2.8289600143116544e-05,0.20298263242334036,-4.551736405333795e-05,-0.3067093781823118
323,0.204,862.374,862.862,-0.60532,5.54482e-05,-0.0387692,-0.0913742,0.185635,0.185635,-0.367966,1.16627e-09,2.77766e-05,-4.64886e-05,0.363794,0.20398272647240923,1.1662699694880985e-09,2.7776985773275698e-05,0.20398272647240923,-4.648751942182283e-05,-0.3078592859270439
324,0.205,863.069,863.557,-0.640148,5.48379e-05,-0.04136,-0.0953828,0.186465,0.186465,-0.369624,1.1634e-09,2.74702e-05,-4.71024e-05,0.365442,0.2049824469619923,1.1634000429694424e-09,2.7470577309340882e-05,0.2049824469619923,-4.710129069940283e-05,-0.30900590442157716
325,0.206,865.15,865.638,0.716311,5.45297e-05,0.0620444,0.0888893,0.187294,0.187294,-0.371273,1.15233e-09,2.92575e-05,-4.39992e-05,0.367083,0.205981791581636,1.152330009190905e-09,2.925792800478888e-05,0.205981791581636,-4.399823204936926e-05,-0.31014441472545395
326,0.207,864.42,864.909,-0.739194,5.3965e-05,-0.0492264,-0.108275,0.188123,0.188123,-0.372936,1.15649e-09,2.74052e-05,-4.73532e-05,0.368734,0.2069819650014597,1.1564900148641755e-09,2.7405575525829562e-05,0.2069819650014597,-4.7352078854867585e-05,-0.3112906911707257
327,0.208,866.519,867.008,0.641902,5.35988e-05,0.0560973,0.0793232,0.188951,0.188951,-0.374582,1.14604e-09,2.91841e-05,-4.42592e-05,0.370373,0.20798175992645973,1.1460399296225887e-09,2.9184525859982102e-05,0.20798175992645973,-4.4258220576076646e-05,-0.31242337423916033
328,0.209,865.889,866.378,-0.706948,5.30128e-05,-0.0471555,-0.103407,0.189779,0.189779,-0.376242,1.14919e-09,2.74532e-05,-4.73873e-05,0.37202,0.2089823830244737,1.1491900764326601e-09,2.7453576842528804e-05,0.2089823830244737,-4.7386177239649996e-05,-0.3135638046188274
329,0.21,867.906,868.395,0.598045,5.26171e-05,0.0525211,0.0739653,0.190606,0.190606,-0.377885,1.13934e-09,2.91341e-05,-4.44635e-05,0.373657,0.20998262499828324,1.1393399557135808e-09,2.9134524402119055e-05,0.20998262499828324,-4.446251151324354e-05,-0.31469069329529276
330,0.211,867.381,867.87,-0.639708,5.2032e-05,-0.0424009,-0.0937996,0.191432,0.191432,-0.379542,1.14166e-09,2.75458e-05,-4.7329e-05,0.375301,0.2109824835312577,1.1416600997904425e-09,2.7546179389048575e-05,0.2109824835312577,-4.732788000050281e-05,-0.3158253105265213
331,0.212,868.049,868.538,-0.679869,5.14238e-05,-0.0454718,-0.0985843,0.192257,0.192257,-0.38119,1.13803e-09,2.72089e-05,-4.79695e-05,0.37694,0.2119819563060017,1.1380298925445231e-09,2.7209270165418076e-05,0.2119819563060017,-4.796834948195272e-05,-0.31695190184854816
332,0.213,870.145,870.634,0.713747,5.10717e-05,0.0613823,0.091084,0.193082,0.193082,-0.382829,1.12889e-09,2.90458e-05,-4.47665e-05,0.378572,0.21298225398601156,1.128890092516599e-09,2.9046221833306518e-05,0.21298225398601156,-4.4765497995147285e-05,-0.31807050073921783
333,0.214,870.727,871.217,0.594522,5.05755e-05,0.0516874,0.0745115,0.193906,0.193906,-0.384475,1.12417e-09,2.9211e-05,-4.45175e-05,0.380208,0.2139821632693446,1.1241700903497076e-09,2.921142664535914e-05,0.2139821632693446,-4.4516509110748004e-05,-0.31919203342038893
334,0.215,870.971,871.46,0.138152,5.00181e-05,0.0214532,0.0200258,0.194729,0.194729,-0.386122,1.12285e-09,2.89065e-05,-4.51255e-05,0.381844,0.21498168183518818,1.1228500351734283e-09,2.8906917797000276e-05,0.21498168183518818,-4.512448185989282e-05,-0.32031240126516547
335,0.216,872.289,872.779,0.761968,4.96942e-05,0.0705287,0.10688,0.195552,0.195552,-0.387761,1.11214e-09,3.00005e-05,-4.32475e-05,0.383475,0.21598202334340577,1.1121399356994743e-09,3.000095001959302e-05,0.21598202334340577,-4.324656484033795e-05,-0.3214254968085164
336,0.217,871.637,872.127,-0.584831,4.90928e-05,-0.0356101,-0.0796808,0.196374,0.196374,-0.38941,1.11804e-09,2.82923e-05,-4.62973e-05,0.385112,0.2169819714889778,1.1180401049415423e-09,2.8292700230858614e-05,0.2169819714889778,-4.629622829654956e-05,-0.3225435440809534
337,0.218,872.255,872.745,-0.657063,4.85631e-05,-0.0454099,-0.0950292,0.197196,0.197196,-0.391051,1.11454e-09,2.78629e-05,-4.70608e-05,0.386743,0.21798274192984257,1.114540015834109e-09,2.7863288174279077e-05,0.21798274192984257,-4.705969265794696e-05,-0.32365433846905134
338,0.219,874.295,874.785,0.697859,4.83427e-05,0.058967,0.0896611,0.198016,0.198016,-0.392682,1.10264e-09,2.9656e-05,-4.39255e-05,0.388367,0.21898189737597185,1.1026399793223618e-09,2.96564397435084e-05,0.21898189737597185,-4.392453528934137e-05,-0.32475655913771273
339,0.22,873.587,874.078,-0.695558,4.78095e-05,-0.0486778,-0.0997671,0.198836,0.198836,-0.394327,1.10646e-09,2.78439e-05,-4.71421e-05,0.39,0.2199818724655751,1.106460034705492e-09,2.7844287644906984e-05,0.2199818724655751,-4.714098882863116e-05,-0.3258664214858735
340,0.221,874.286,874.776,-0.678464,4.72723e-05,-0.0473573,-0.0967839,0.199656,0.199656,-0.395963,1.10256e-09,2.75581e-05,-4.76597e-05,0.391627,0.22098266787103515,1.1025600432645888e-09,2.755847972801817e-05,0.22098266787103515,-4.76585642945615e-05,-0.3269684023541851
341,0.222,876.293,876.784,0.652924,4.70054e-05,0.0554485,0.084844,0.200474,0.200474,-0.39759,1.09268e-09,2.93109e-05,-4.45904e-05,0.393247,0.22198184029916246,1.0926799465238446e-09,2.9311329568626476e-05,0.22198184029916246,-4.4589405862938136e-05,-0.3280625344457393
342,0.223,875.664,876.155,-0.654333,4.65424e-05,-0.0457859,-0.092999,0.201292,0.201292,-0.399231,1.09417e-09,2.76029e-05,-4.76092e-05,0.394876,0.22298183038471242,1.0941700878674965e-09,2.7603280963628407e-05,0.22298183038471242,-4.7608066700011165e-05,-0.32916427959757777
343,0.224,876.361,876.852,-0.630176,4.60313e-05,-0.0439225,-0.089084,0.20211,0.20211,-0.400863,1.08995e-09,2.73463e-05,-4.80656e-05,0.396498,0.22398263879680225,1.0899499081062913e-09,2.734667391357526e-05,0.22398263879680225,-4.806444486760153e-05,-0.33025819061908523
344,0.225,878.275,878.766,0.616015,4.57217e-05,0.0525149,0.0810604,0.202926,0.202926,-0.402487,1.08177e-09,2.89953e-05,-4.51739e-05,0.398115,0.22498181623901448,1.0817700069054581e-09,2.8995720367852584e-05,0.22498181623901448,-4.517287967475969e-05,-0.3313449686149337
345,0.226,877.74,878.231,-0.58838,4.53151e-05,-0.0409914,-0.0829199,0.203742,0.203742,-0.404123,1.08138e-09,2.74218e-05,-4.79425e-05,0.399739,0.22598180934276435,1.0813800965792097e-09,2.7422175981062225e-05,0.22598180934276435,-4.794135077668127e-05,-0.33243799390780027
346,0.227,878.419,878.91,-0.57436,4.48321e-05,-0.0399173,-0.0804219,0.204558,0.204558,-0.405751,1.07693e-09,2.71791e-05,-4.8365e-05,0.401358,0.22698261877390302,1.0769301006519072e-09,2.717946935515414e-05,0.22698261877390302,-4.836383043227421e-05,-0.333523900685762
347,0.228,880.238,880.729,0.584583,4.44929e-05,0.0499593,0.0779385,0.205372,0.205372,-0.407371,1.07001e-09,2.87237e-05,-4.56518e-05,0.402971,0.2279817892327911,1.0700100805394186e-09,2.8724112529410206e-05,0.2279817892327911,-4.565075797247076e-05,-0.33460271788877927
348,0.229,880.982,881.473,0.669156,4.41204e-05,0.0562568,0.0894584,0.206186,0.206186,-0.408996,1.06387e-09,2.91354e-05,-4.49263e-05,0.404587,0.22898177334754588,1.0638701031240316e-09,2.91358244399742e-05,0.22898177334754588,-4.492529082888996e-05,-0.33568311041553944
349,0.23,880.877,881.369,-0.0928868,4.36656e-05,0.00114924,-0.00809243,0.207,0.207,-0.410625,1.06312e-09,2.83522e-05,-4.63181e-05,0.406204,0.22998257178075265,1.0631200364485949e-09,2.8352601927350563e-05,0.22998257178075265,-4.6317027333375727e-05,-0.3367644016778262
350,0.231,881.07,881.562,-0.55525,4.32747e-05,-0.0394275,-0.0774576,0.207812,0.207812,-0.41225,1.05951e-09,2.75275e-05,-4.77316e-05,0.40782,0.2309817232296283,1.0595100352617237e-09,2.7527878885047485e-05,0.2309817232296283,-4.773046086525845e-05,-0.3378412843209818
351,0.232,881.661,882.153,-0.61589,4.28517e-05,-0.0440891,-0.085084,0.208624,0.208624,-0.413872,1.05494e-09,2.71797e-05,-4.83226e-05,0.409432,0.23198168631896166,1.0549399132031567e-09,2.718006937141304e-05,0.23198168631896166,-4.832143248201248e-05,-0.3389144351971747
352,0.233,883.548,884.04,0.624701,4.25737e-05,0.052489,0.0846143,0.209436,0.209436,-0.415485,1.04757e-09,2.88379e-05,-4.54021e-05,0.411038,0.23298246170807269,1.04757003072109e-09,2.8838315816237525e-05,0.23298246170807269,-4.540106934025623e-05,-0.339979906679442
353,0.234,882.997,883.489,-0.574644,4.22522e-05,-0.0411892,-0.079024,0.210247,0.210247,-0.417111,1.04596e-09,2.72532e-05,-4.8155e-05,0.412652,0.23398281607338345,1.0459599852907786e-09,2.72535713718991e-05,0.23398281607338345,-4.815384056655603e-05,-0.3410522273182449
354,0.235,884.897,885.39,0.684005,4.19645e-05,0.0568421,0.0931229,0.211057,0.211057,-0.418721,1.038e-09,2.89599e-05,-4.51458e-05,0.414256,0.23498274707178624,1.0379999082488212e-09,2.896031934196408e-05,0.23498274707178624,-4.514478094375107e-05,-0.34211227966114643
355,0.236,884.249,884.742,-0.607379,4.1624e-05,-0.0441344,-0.0831477,0.211866,0.211866,-0.420345,1.03682e-09,2.72524e-05,-4.8105e-05,0.415868,0.23598225235954295,1.0368199632182495e-09,2.7252771350072535e-05,0.23598225235954295,-4.810384297304626e-05,-0.34317982223977694
356,0.237,884.946,885.439,-0.549174,4.11742e-05,-0.0396074,-0.0746325,0.212675,0.212675,-0.42196,1.03202e-09,2.7062e-05,-4.8404e-05,0.417473,0.23698256657424444,1.0320200249935851e-09,2.706236617933122e-05,0.23698256657424444,-4.840282854534639e-05,-0.34423973072038827
357,0.238,885.456,885.949,-0.675283,4.07785e-05,-0.0489877,-0.0906671,0.213483,0.213483,-0.423574,1.02675e-09,2.6619e-05,-4.91453e-05,0.419078,0.23798245238750604,1.0267500183402944e-09,2.6619354288826003e-05,0.23798245238750604,-4.914409238954143e-05,-0.345297274127901
358,0.239,887.427,887.92,0.663759,4.04553e-05,0.0553596,0.0922327,0.21429,0.21429,-0.425179,1.02143e-09,2.84101e-05,-4.59819e-05,0.420676,0.23898190745246017,1.0214300516508956e-09,2.841050357060837e-05,0.23898190745246017,-4.598084284868076e-05,-0.34634722918859706
359,0.24,886.77,887.263,-0.626478,4.0241e-05,-0.0458405,-0.0840745,0.215097,0.215097,-0.426798,1.01757e-09,2.66852e-05,-4.8954e-05,0.422283,0.2399821694031865,1.0175700282388789e-09,2.668555605311873e-05,0.2399821694031865,-4.8952801772528254e-05,-0.3474046368220918
360,0.241,888.717,889.21,0.693513,3.98947e-05,0.0574268,0.0967055,0.215903,0.215903,-0.4284,1.01187e-09,2.84755e-05,-4.57903e-05,0.423879,0.24098199790848596,1.0118699211858484e-09,2.847590543098022e-05,0.24098199790848596,-4.578925164022696e-05,-0.3484492576292263
361,0.242,888.024,888.518,-0.627627,3.96567e-05,-0.0463184,-0.083891,0.216709,0.216709,-0.430016,1.00824e-09,2.67094e-05,-4.88258e-05,0.425483,0.24198263260041042,1.008239935984534e-09,2.6709756699272447e-05,0.24198263260041042,-4.88246080400101e-05,-0.3495013133389343
362,0.243,889.966,890.46,0.692239,3.93011e-05,0.0570862,0.096953,0.217514,0.217514,-0.431616,1.00232e-09,2.85016e-05,-4.56561e-05,0.427076,0.2429828311455553,1.0023200047726277e-09,2.850200617454668e-05,0.2429828311455553,-4.565505777609502e-05,-0.35054127904316923
363,0.244,889.275,889.769,-0.622878,3.90484e-05,-0.0463345,-0.0829069,0.218318,0.218318,-0.433229,9.98832e-10,2.67378e-05,-4.86791e-05,0.428678,0.2439825911914797,9.988319060738604e-10,2.6738157458128242e-05,0.2439825911914797,-4.8677915191808196e-05,-0.35158801154336494
364,0.245,891.195,891.689,0.679634,3.86922e-05,0.0558537,0.0956418,0.219121,0.219121,-0.434827,9.92741e-10,2.85075e-05,-4.55459e-05,0.430268,0.24498191038516537,9.927410005161619e-10,2.8507906342678524e-05,0.24498191038516537,-4.554486280128334e-05,-0.3526233464480102
365,0.246,890.529,891.023,-0.605373,3.84293e-05,-0.045347,-0.0801815,0.219924,0.219924,-0.436438,9.89359e-10,2.6779e-05,-4.8499e-05,0.431868,0.2459820323544346,9.893590391385487e-10,2.677935856065794e-05,0.2459820323544346,-4.8497823942561524e-05,-0.35366543061270916
366,0.247,892.405,892.899,0.657716,3.80775e-05,0.0538836,0.0930454,0.220726,0.220726,-0.438032,9.83121e-10,2.8497e-05,-4.54533e-05,0.433456,0.24698171076184106,9.831209180077849e-10,2.84974060433818e-05,0.24698171076184106,-4.545226701435645e-05,-0.35469486723735355
367,0.248,891.787,892.281,-0.574203,3.78066e-05,-0.0432816,-0.0755904,0.221528,0.221528,-0.43964,-1.87244e-09,2.68361e-05,-4.82803e-05,0.435052,0.24798219123291498,-1.87243998084341e-09,2.683646009127294e-05,0.24798219123291498,-4.827913452509769e-05,-0.3557316840667001
368,0.249,893.597,894.091,0.626906,3.74623e-05,0.0512043,0.0892167,0.222329,0.222329,-0.441233,9.73459e-10,2.84725e-05,-4.53736e-05,0.436638,0.24898222542831916,9.73459091113682e-10,2.847290534546687e-05,0.24898222542831916,-4.537257063375044e-05,-0.3567571864644583
369,0.25,893.05,893.544,-0.529666,3.71843e-05,-0.0401587,-0.0691749,0.223129,0.223129,-0.442838,9.70217e-10,2.69111e-05,-4.80198e-05,0.438232,0.24998181098957506,9.702170178371716e-10,2.6911462106982142e-05,0.24998181098957506,-4.801864706782677e-05,-0.35778876311847074
370,0.251,894.771,895.266,0.587808,3.685e-05,0.0478593,0.0842343,0.223929,0.223929,-0.444429,9.6375e-10,2.84372e-05,-4.53019e-05,0.439815,0.2509821965392327,9.6374996871873e-10,2.8437604340902922e-05,0.2509821965392327,-4.5300873884435156e-05,-0.35880970881868646
371,0.252,895.407,895.902,0.6207,3.65146e-05,0.0502126,0.0887327,0.224728,0.224728,-0.446024,9.57758e-10,2.87532e-05,-4.4685e-05,0.441402,0.25198213073478226,9.577580950548281e-10,2.8753613377174858e-05,0.25198213073478226,-4.468400164026054e-05,-0.3598315921645109
372,0.253,895.357,895.851,-0.0322624,3.61436e-05,0.00263116,0.00533857,0.225527,0.225527,-0.447623,9.55375e-10,2.80708e-05,-4.58207e-05,0.44299,0.2529828641970182,9.553748903101678e-10,2.8071193988621346e-05,0.2529828641970182,-4.5819650247747035e-05,-0.36085440349305564
373,0.254,896.55,897.045,0.563174,3.59062e-05,0.045061,0.080632,0.226324,0.226324,-0.449212,9.47251e-10,2.89297e-05,-4.42384e-05,0.444572,0.2539818895985233,9.472509443497756e-10,2.8930118467718202e-05,0.2539818895985233,-4.423742149639587e-05,-0.361869199377052
374,0.255,896.179,896.674,-0.40578,3.55659e-05,-0.0287336,-0.0477875,0.227121,0.227121,-0.45081,9.46077e-10,2.7683e-05,-4.63371e-05,0.446158,0.2549817115406525,9.46076994523537e-10,2.7683383177823373e-05,0.2549817115406525,-4.633602645320867e-05,-0.36288811806359067
375,0.256,896.533,897.029,-0.646537,3.52542e-05,-0.0508218,-0.0847114,0.227918,0.227918,-0.452402,9.41057e-10,2.7047e-05,-4.73413e-05,0.447741,0.25598233065850207,9.410570100953919e-10,2.70473657733028e-05,0.25598233065850207,-4.734017941832036e-05,-0.36390159323934224
376,0.257,898.418,898.913,0.647404,3.50674e-05,0.0516456,0.0932199,0.228714,0.228714,-0.453984,9.32758e-10,2.88085e-05,-4.42086e-05,0.449316,0.256982490604555,9.327580929863188e-10,2.8808914968925237e-05,0.256982490604555,-4.4207622814207426e-05,-0.3649071053490489
377,0.258,897.798,898.293,-0.564943,3.48089e-05,-0.0446629,-0.0731472,0.229509,0.229509,-0.455579,9.31133e-10,2.71407e-05,-4.70076e-05,0.4509,0.2579821890120497,9.311329485228725e-10,2.7141068312142025e-05,0.2579821890120497,-4.7006495160095696e-05,-0.36591927109925015
378,0.259,899.527,900.022,0.577795,3.45814e-05,0.0458469,0.0839997,0.230304,0.230304,-0.45716,9.23067e-10,2.86981e-05,-4.42242e-05,0.452474,0.2589826824957795,9.230669562043659e-10,2.8698511794322812e-05,0.2589826824957795,-4.4223222124495365e-05,-0.3669209606873741
379,0.26,900.156,900.652,0.620781,3.42921e-05,0.0490125,0.0898804,0.231098,0.231098,-0.458745,9.16625e-10,2.90173e-05,-4.35828e-05,0.45405,0.2599827117047391,9.166249981262808e-10,2.9017721005830666e-05,0.2599827117047391,-4.3581850283525014e-05,-0.3679235961661639
380,0.261,900.075,900.571,-0.0452917,3.39313e-05,2.82398e-05,0.00438059,0.231891,0.231891,-0.460333,9.14828e-10,2.82939e-05,-4.47634e-05,0.455628,0.26098227426929665,9.148279911386226e-10,2.8294300276066053e-05,0.26098227426929665,-4.4762398134001735e-05,-0.36892653694970656
381,0.262,901.255,901.751,0.553656,3.37526e-05,0.0430958,0.0804602,0.232684,0.232684,-0.461913,9.05864e-10,2.91534e-05,-4.31655e-05,0.4572,0.2619826298013379,9.05864050437799e-10,2.9153824964600616e-05,0.2619826298013379,-4.31645683831583e-05,-0.36992284573012413
382,0.263,900.879,901.375,-0.402925,3.34028e-05,-0.0301831,-0.0465904,0.233476,0.233476,-0.463501,9.05621e-10,2.78984e-05,-4.52496e-05,0.458777,0.26298251594678823,9.056209115954061e-10,2.7898789163982585e-05,0.26298251594678823,-4.524857625232137e-05,-0.3709226142248232
383,0.264,901.247,901.743,-0.613222,3.31095e-05,-0.0498921,-0.0793025,0.234267,0.234267,-0.465083,9.01051e-10,2.73011e-05,-4.61629e-05,0.460349,0.2639819303331823,9.010510115814441e-10,2.7301472678376015e-05,0.2639819303331823,-4.6161834509672595e-05,-0.3719170278605384
384,0.265,903.032,903.529,0.597917,3.29913e-05,0.0465274,0.0875341,0.235058,0.235058,-0.466655,8.91428e-10,2.8954e-05,-4.32084e-05,0.461915,0.264982135569096,8.914280424932031e-10,2.89544191711677e-05,0.264982135569096,-4.3207466530525984e-05,-0.3729035986449386
385,0.266,903.672,904.168,0.663544,3.27481e-05,0.0514584,0.0964582,0.235848,0.235848,-0.468233,8.84382e-10,2.93122e-05,-4.24858e-05,0.463484,0.26598186629783904,8.84381901045117e-10,2.9312629606703666e-05,0.26598186629783904,-4.2484897491146256e-05,-0.3738923764154377
386,0.267,903.483,903.98,-0.0977779,3.23856e-05,-0.00541596,-0.0024137,0.236638,0.236638,-0.469814,8.83745e-10,2.84382e-05,-4.39073e-05,0.465055,0.26698238712590605,8.837450771181921e-10,2.8438604369407372e-05,0.26698238712590605,-4.3906336088639364e-05,-0.374881470483439
387,0.268,904.749,905.246,0.59947,3.2279e-05,0.0457998,0.0874731,0.237427,0.237427,-0.471386,8.73372e-10,2.94341e-05,-4.20639e-05,0.466619,0.2679824306946572,8.733720413545143e-10,2.9434533187266965e-05,0.2679824306946572,-4.206301532660994e-05,-0.37586338482495907
388,0.269,904.209,904.706,-0.509947,3.19122e-05,-0.0401843,-0.0610864,0.238215,0.238215,-0.472967,8.74901e-10,2.793e-05,-4.45552e-05,0.468189,0.26898199462651107,8.749010405040281e-10,2.793039004611586e-05,0.26898199462651107,-4.455420743176841e-05,-0.37684936519069523
389,0.27,904.613,905.11,-0.671381,3.1625e-05,-0.0558079,-0.0867188,0.239003,0.239003,-0.474541,8.70491e-10,2.73564e-05,-4.54105e-05,0.469754,0.2699823465251612,8.70491012605612e-10,2.7356774189746247e-05,0.2699823465251612,-4.540946895881248e-05,-0.37782943277435554
390,0.271,906.433,906.93,0.585949,3.15699e-05,0.0446944,0.0866865,0.23979,0.23979,-0.476106,8.59759e-10,2.90644e-05,-4.23541e-05,0.471313,0.2709822160289188,8.597589307157705e-10,2.9064822373747745e-05,0.2709822160289188,-4.2353203077771795e-05,-0.3788023681915216
391,0.272,907.084,907.581,0.675099,3.13494e-05,0.051524,0.0988517,0.240577,0.240577,-0.477676,-2.19924e-09,2.945e-05,-4.15716e-05,0.472874,0.27198287273970134,-2.1992400123238554e-09,2.945043365554234e-05,0.27198287273970134,-4.15707359130435e-05,-0.37977688327894377
392,0.273,906.843,907.34,-0.126905,3.0975e-05,-0.0089274,-0.00589675,0.241362,0.241362,-0.47925,8.52395e-10,2.84985e-05,-4.31073e-05,0.474438,0.2729817713111957,8.523950434380367e-10,2.8498906086138476e-05,0.2729817713111957,-4.310637089366409e-05,-0.3807523465736592
393,0.274,908.139,908.636,0.611835,3.09144e-05,0.0459374,0.0899905,0.242148,0.242148,-0.480814,8.41145e-10,2.95515e-05,-4.11564e-05,0.475995,0.27398272830801385,8.411449314849051e-10,2.955193664977429e-05,0.27398272830801385,-4.115555308703556e-05,-0.3817200929287017
394,0.275,907.535,908.032,-0.549488,3.05276e-05,-0.0446515,-0.0660697,0.242932,0.242932,-0.482388,8.43784e-10,2.79474e-05,-4.37975e-05,0.477557,0.27498192239991126,8.437839316144391e-10,2.7947790532278916e-05,0.27498192239991126,-4.379654090347351e-05,-0.3826925000172936
395,0.276,907.962,908.46,-0.676528,3.02486e-05,-0.0574473,-0.0868073,0.243716,0.243716,-0.483955,8.3952e-10,2.74051e-05,-4.45825e-05,0.479115,0.27598190016713753,8.395200090660637e-10,2.7405475523156753e-05,0.27598190016713753,-4.4581506215113365e-05,-0.3836590633695979
396,0.277,909.749,910.246,0.559047,3.02357e-05,0.0416988,0.0838044,0.2445,0.2445,-0.485513,8.28083e-10,2.90828e-05,-4.15717e-05,0.480666,0.27698266222433454,8.280829355555852e-10,2.908322290862131e-05,0.27698266222433454,-4.1570835908832926e-05,-0.38461857489529916
397,0.278,910.382,910.879,0.641838,3.00283e-05,0.0480618,0.095126,0.245282,0.245282,-0.487076,8.20566e-10,2.94407e-05,-4.08243e-05,0.48222,0.2779816532207646,8.205660595450581e-10,2.944113338165799e-05,0.2779816532207646,-4.082346669964654e-05,-0.3855796647753372
398,0.279,910.189,910.686,-0.10098,2.96557e-05,-0.00791575,-0.00165956,0.246065,0.246065,-0.488642,8.20622e-10,2.8556e-05,-4.22269e-05,0.483777,0.27898270471575226,8.206220147854992e-10,2.8556407726476607e-05,0.27898270471575226,-4.222600845704694e-05,-0.38654109402471615
399,0.28,911.398,911.896,0.56265,2.96055e-05,0.0411742,0.0840513,0.246846,0.246846,-0.490199,8.09574e-10,2.94999e-05,-4.04539e-05,0.485326,0.27998198037448674,8.095739634228494e-10,2.95003351262757e-05,0.27998198037448674,-4.045308175204543e-05,-0.38749550633852237
400,0.281,910.922,911.42,-0.459536,2.92137e-05,-0.0384834,-0.052888,0.247627,0.247627,-0.491765,8.11912e-10,2.80861e-05,-4.27487e-05,0.486881,0.2809820367723497,8.1191209311271e-10,2.8086494418211316e-05,0.2809820367723497,-4.2747786287322675e-05,-0.38845393772795034
401,0.282,911.335,911.833,-0.59013,2.89533e-05,-0.0517252,-0.074342,0.248408,0.248408,-0.493324,8.07938e-10,2.75705e-05,-4.34721e-05,0.488432,0.28198287451933646,8.079379387737617e-10,2.7570880069660575e-05,0.28198287451933646,-4.347115510194843e-05,-0.389406595249543
402,0.283,912.977,913.475,0.512281,2.89638e-05,0.0370568,0.0780788,0.249187,0.249187,-0.494875,7.96194e-10,2.90758e-05,-4.075e-05,0.489976,0.28298192825949653,7.961939996192768e-10,2.9076222705093357e-05,0.28298192825949653,-4.074916973006992e-05,-0.3903528915778075
403,0.284,913.545,914.043,0.540246,2.87587e-05,0.0390736,0.081907,0.249966,0.249966,-0.496431,7.89297e-10,2.93167e-05,-4.01907e-05,0.491524,0.28398176056573243,7.892970721457004e-10,2.931712973874845e-05,0.28398176056573243,-4.0189892364650426e-05,-0.3913007648418688
404,0.285,913.552,914.05,0.00930252,2.84198e-05,1.55611e-06,0.0143108,0.250745,0.250745,-0.497989,7.87922e-10,2.87231e-05,-4.10781e-05,0.493072,0.28498237204478327,7.879219499073997e-10,2.8723512512263127e-05,0.28498237204478327,-4.1077256306421006e-05,-0.3922483798664572
405,0.286,914.871,915.37,0.793427,2.84739e-05,0.0646116,0.12482,0.251523,0.251523,-0.499539,7.73775e-10,3.00359e-05,-3.86972e-05,0.494614,0.28598247732074067,7.737750440384161e-10,3.0036351082118884e-05,0.28598247732074067,-3.869645127296817e-05,-0.39318966519308285
406,0.287,915.137,915.635,0.524504,2.81927e-05,0.0369437,0.0793496,0.2523,0.2523,-0.501093,7.69628e-10,2.98256e-05,-3.88815e-05,0.496159,0.28698207399863795,7.696279169522313e-10,2.9826044787739647e-05,0.28698207399863795,-3.888074412428111e-05,-0.3941319161347697
407,0.288,915.379,915.877,0.233512,2.78904e-05,0.0172935,0.0450396,0.253077,0.253077,-0.502646,7.66235e-10,2.96182e-05,-3.91017e-05,0.497703,0.2879824476649746,7.662350753889768e-10,2.9618638623274407e-05,0.2879824476649746,-3.910093553849414e-05,-0.3950720990280341
408,0.289,916.129,916.628,0.453177,2.77737e-05,0.0356712,0.0765242,0.253853,0.253853,-0.504195,7.5725e-10,3.00803e-05,-3.81666e-05,0.499243,0.28898230994075114,7.572500404506854e-10,3.008075241672792e-05,0.28898230994075114,-3.8165871664608275e-05,-0.39600840698890905
409,0.29,916.135,916.633,-0.0708989,2.74101e-05,-0.00802551,0.00251341,0.254628,0.254628,-0.505747,7.57465e-10,2.9368e-05,-3.92234e-05,0.500785,0.2899816584284749,7.574649796282529e-10,2.936843124401456e-05,0.2899816584284749,-3.9222630772495215e-05,-0.39694507489895114
410,0.291,916.122,916.62,-0.611845,2.70851e-05,-0.0555632,-0.0772015,0.255403,0.255403,-0.507298,7.58033e-10,2.83203e-05,-4.08295e-05,0.502327,0.2909817817114708,7.580329697276511e-10,2.8320701023432093e-05,0.2909817817114708,-4.0828666487358056e-05,-0.39787968810788044
411,0.292,917.912,918.411,0.654237,2.73588e-05,0.0465641,0.0975512,0.256178,0.256178,-0.508837,7.40351e-10,3.00882e-05,-3.76479e-05,0.50386,0.2919826803904382,7.403508917036561e-10,3.0088652654525205e-05,0.2919826803904382,-3.764719132670624e-05,-0.3988056385662436
412,0.293,918.473,918.972,0.691681,2.71812e-05,0.049253,0.102532,0.256951,0.256951,-0.510382,7.31959e-10,3.03972e-05,-3.69545e-05,0.505396,0.29298176910041773,7.319589379051195e-10,3.0397661999526093e-05,0.29298176910041773,-3.695381719082125e-05,-0.3997337666910603
413,0.294,918.192,918.691,-0.112883,2.66958e-05,-0.012321,-0.00319725,0.257724,0.257724,-0.511931,7.35507e-10,2.93916e-05,-3.85203e-05,0.506935,0.2939816304045393,7.355069886472165e-10,2.939203193741413e-05,0.2939816304045393,-3.851955810274532e-05,-0.4006628593184438
414,0.295,919.379,919.878,0.554881,2.6787e-05,0.0376556,0.0834453,0.258497,0.258497,-0.51347,7.21573e-10,3.03358e-05,-3.67243e-05,0.508467,0.2949822649002487,7.21573023554356e-10,3.0336260135044313e-05,0.2949822649002487,-3.67236256711978e-05,-0.4015845297706234
415,0.296,918.886,919.385,-0.458396,2.62551e-05,-0.0421296,-0.0528314,0.259269,0.259269,-0.515018,7.28088e-10,2.88832e-05,-3.90365e-05,0.510004,0.2959823772024295,7.280880343074614e-10,2.888361712360954e-05,0.2959823772024295,-3.903573808572425e-05,-0.4025101602956711
416,0.297,919.319,919.819,-0.542468,2.60109e-05,-0.0515821,-0.0677515,0.26004,0.26004,-0.516559,7.25181e-10,2.84233e-05,-3.96276e-05,0.511536,0.2969819649067964,7.251810263397829e-10,2.8423703945845702e-05,0.2969819649067964,-3.9626814837046e-05,-0.40343018307903755
417,0.298,919.758,920.257,-0.619582,2.5779e-05,-0.0574072,-0.0773684,0.260811,0.260811,-0.518099,7.22044e-10,2.79838e-05,-4.01952e-05,0.513067,0.2979823235904575,7.22043980161402e-10,2.7984191550256554e-05,0.2979823235904575,-4.019439218372334e-05,-0.40434819354760554
418,0.299,920.239,920.738,-0.652636,2.55758e-05,-0.0599344,-0.0812614,0.261581,0.261581,-0.519637,7.184e-10,2.75791e-05,-4.06994e-05,0.514597,0.2989821548652629,7.184000061499773e-10,2.7579480306849646e-05,0.2989821548652629,-4.069857179067604e-05,-0.4052636018964635
419,0.3,920.758,921.258,-0.645344,2.53945e-05,-0.0591997,-0.0796005,0.262351,0.262351,-0.521174,7.14305e-10,2.72278e-05,-4.11106e-05,0.516126,0.2999827563066262,7.143050595459499e-10,2.7228170679904906e-05,0.2999827563066262,-4.1109754970847234e-05,-0.4061770096067061
420,0.301,921.295,921.795,-0.619327,2.52276e-05,-0.0569459,-0.0753632,0.26312,0.26312,-0.52271,7.09918e-10,2.69126e-05,-4.14582e-05,0.517653,0.3009828275243256,7.099179022418411e-10,2.6912962147296327e-05,0.3009828275243256,-4.1457340620665306e-05,-0.4070884215763666
421,0.302,921.829,922.329,-0.594763,2.50693e-05,-0.0548153,-0.0713419,0.263888,0.263888,-0.524245,7.05363e-10,2.66083e-05,-4.17854e-05,0.519179,0.30198236610955154,7.05363101261014e-10,2.660865400394563e-05,0.30198236610955154,-4.178452700231983e-05,-0.4079978426899755
422,0.303,922.35,922.85,-0.581167,2.49163e-05,-0.0535811,-0.0688481,0.264656,0.264656,-0.525778,7.00684e-10,2.62981e-05,-4.21205e-05,0.520704,0.30298267263526246,7.006839553014288e-10,2.6298445798156322e-05,0.30298267263526246,-4.211961294420252e-05,-0.40890468672358293
423,0.304,924.244,924.744,0.808885,2.51072e-05,0.0635066,0.129332,0.265423,0.265423,-0.527303,6.87565e-10,2.8405e-05,-3.83771e-05,0.522223,0.3039824437083676,6.875648939086432e-10,2.84054034258574e-05,0.3039824437083676,-3.837636360848329e-05,-0.4098054200925717
424,0.305,923.356,923.856,-0.58576,2.48497e-05,-0.0545731,-0.0697077,0.266189,0.266189,-0.528842,6.9037e-10,2.62966e-05,-4.17442e-05,0.523751,0.3049816769177085,6.903699834026611e-10,2.6296945758508272e-05,0.3049816769177085,-4.174332872297626e-05,-0.4107130309653414
425,0.306,923.796,924.297,-0.647818,2.46302e-05,-0.0595722,-0.0777071,0.266955,0.266955,-0.530372,6.85722e-10,2.58584e-05,-4.22876e-05,0.525272,0.3059816758329157,6.857219236877654e-10,2.585873433136321e-05,0.3059816758329157,-4.2286705892014e-05,-0.4116139506486597
426,0.307,924.302,924.802,-0.643767,2.44302e-05,-0.0587861,-0.0760848,0.267721,0.267721,-0.531901,6.80801e-10,2.5512e-05,-4.26766e-05,0.526793,0.30698244104074446,6.808009711534169e-10,2.5512325433796335e-05,0.30698244104074446,-4.2675689366888925e-05,-0.4125129054920057
427,0.308,924.838,925.339,-0.606813,2.42506e-05,-0.0556342,-0.0703464,0.268486,0.268486,-0.533429,6.75696e-10,2.522e-05,-4.297e-05,0.528312,0.30798266514508077,6.756959436415855e-10,2.5220318026875077e-05,0.30798266514508077,-4.296907680279016e-05,-0.41340990029386127
428,0.309,926.745,927.245,0.802971,2.4296e-05,0.0633177,0.130607,0.26925,0.26925,-0.534947,6.66261e-10,2.73619e-05,-3.91643e-05,0.529825,0.30898234573060956,6.66261046333716e-10,2.7362274340303472e-05,0.30898234573060956,-3.916353308885956e-05,-0.4142996685602415
429,0.31,925.858,926.359,-0.581845,2.41611e-05,-0.0542044,-0.0671158,0.270014,0.270014,-0.536481,6.65627e-10,2.52569e-05,-4.25092e-05,0.531347,0.3099827903639347,6.65627108986655e-10,2.5257218958074645e-05,0.3099827903639347,-4.250829649676824e-05,-0.41519744409878145
430,0.311,926.307,926.807,-0.628355,2.39435e-05,-0.0579502,-0.0729848,0.270777,0.270777,-0.538005,6.60415e-10,2.48477e-05,-4.29924e-05,0.532863,0.3109826886456677,6.604150559752497e-10,2.4848008706612745e-05,0.3109826886456677,-4.299147583997076e-05,-0.4160880044146481
431,0.312,926.812,927.313,-0.616819,2.37423e-05,-0.0565655,-0.0703586,0.271539,0.271539,-0.539528,6.55116e-10,2.45245e-05,-4.33317e-05,0.534377,0.31198203815822456,6.551159614787139e-10,2.4524800728009666e-05,0.31198203815822456,-4.33307611954481e-05,-0.4169766255271822
432,0.313,927.34,927.841,-0.580599,2.3561e-05,-0.0534732,-0.064741,0.272301,0.272301,-0.54105,6.49734e-10,2.42453e-05,-4.35929e-05,0.535891,0.31298214946531666,6.49734044344541e-10,2.4245593919669517e-05,0.31298214946531666,-4.359194984338011e-05,-0.4178633121634334
433,0.314,929.187,929.688,0.777257,2.34734e-05,0.0615062,0.129102,0.273062,0.273062,-0.542563,6.4374e-10,2.6325e-05,-3.98899e-05,0.537398,0.3139817091652868,6.437399502345897e-10,2.6325346505817748e-05,0.3139817091652868,-3.9889104408552534e-05,-0.41874341900341294
434,0.315,928.354,928.855,-0.546383,2.34561e-05,-0.0512812,-0.0602388,0.273823,0.273823,-0.54409,6.39998e-10,2.43014e-05,-4.30808e-05,0.538914,0.31498202981969503,6.399980545523931e-10,2.4301695281447877e-05,0.31498202981969503,-4.307987203566732e-05,-0.41963032048098203
435,0.316,928.799,929.3,-0.589627,2.32518e-05,-0.0547779,-0.0656913,0.274583,0.274583,-0.545609,6.34405e-10,2.39153e-05,-4.35148e-05,0.540424,0.3159817960253941,6.344049729989365e-10,2.391558597314436e-05,0.3159817960253941,-4.351385324485868e-05,-0.42051123280188185
436,0.317,929.288,929.789,-0.586995,2.30595e-05,-0.0541385,-0.0643354,0.275343,0.275343,-0.547126,6.28826e-10,2.35959e-05,-4.38373e-05,0.541933,0.316982322342215,6.288261023001951e-10,2.3596178385432154e-05,0.316982322342215,-4.3836339159608606e-05,-0.421389650813202
437,0.318,931.157,931.658,0.798892,2.28982e-05,0.0634421,0.133579,0.276102,0.276102,-0.548634,6.2459e-10,2.57326e-05,-4.00366e-05,0.543436,0.3179822913651118,6.245899353274353e-10,2.5732931086208666e-05,0.3179822913651118,-4.0035798546056434e-05,-0.42226153765187213
438,0.319,930.286,930.787,-0.557127,2.29485e-05,-0.0523039,-0.0604537,0.27686,0.27686,-0.550157,6.19326e-10,2.36524e-05,-4.33102e-05,0.544948,0.3189817006702411,6.193259238784776e-10,2.365267972015417e-05,0.3189817006702411,-4.330926212681163e-05,-0.42314076362949726
439,0.32,930.736,931.238,-0.588282,2.274e-05,-0.0548147,-0.0642355,0.277618,0.277618,-0.551671,6.13557e-10,2.32815e-05,-4.37099e-05,0.546453,0.31998186781480853,6.135569829979204e-10,2.3281771016181452e-05,0.31998186781480853,-4.3708944736264854e-05,-0.42401346770967274
440,0.321,931.232,931.733,-0.573497,2.25434e-05,-0.0531822,-0.0612108,0.278376,0.278376,-0.553184,6.07898e-10,2.29836e-05,-4.39882e-05,0.547958,0.32098279337347435,6.07897954196801e-10,2.2983864125025733e-05,0.32098279337347435,-4.398723253329351e-05,-0.4248842764001346
441,0.322,933.057,933.559,0.77506,2.23101e-05,0.0615227,0.131557,0.279132,0.279132,-0.554688,6.05388e-10,2.5072e-05,-4.02669e-05,0.549456,0.3219818339550222,6.053879619827285e-10,2.5072314305152332e-05,0.3219818339550222,-4.02660892993012e-05,-0.4257486003139195
442,0.323,932.232,932.733,-0.530008,2.24168e-05,-0.0502162,-0.0554375,0.279888,0.279888,-0.556206,5.98676e-10,2.30591e-05,-4.34145e-05,0.550963,0.3229816300968156,5.986759976650546e-10,2.3059365862998504e-05,0.3229816300968156,-4.341355760428822e-05,-0.4266196526426599
443,0.324,932.679,933.181,-0.558703,2.22159e-05,-0.0525353,-0.058903,0.280644,0.280644,-0.557715,5.92815e-10,2.27049e-05,-4.37784e-05,0.552464,0.32398218237027376,5.928149082734535e-10,2.270515775815163e-05,0.32398218237027376,-4.377744173977849e-05,-0.4274842310983177
444,0.325,934.502,935.003,0.790495,2.1948e-05,0.0627095,0.134449,0.281399,0.281399,-0.559216,5.9071e-10,2.48132e-05,-4.00239e-05,0.553959,0.3249821663644199,5.907099254187642e-10,2.4813507849996697e-05,0.3249821663644199,-4.0023099054375955e-05,-0.4283429326507028
445,0.326,933.655,934.157,-0.530998,2.20668e-05,-0.0505845,-0.0549539,0.282154,0.282154,-0.560731,5.8369e-10,2.27699e-05,-4.32135e-05,0.555462,0.32598290563156107,5.836899852340593e-10,2.2770159236129572e-05,0.32598290563156107,-4.32125663101246e-05,-0.4292083373981159
446,0.327,934.104,934.606,-0.554571,2.1858e-05,-0.0524851,-0.0577137,0.282907,0.282907,-0.562237,5.77844e-10,2.24227e-05,-4.35595e-05,0.55696,0.32698174677599656,5.778439948755931e-10,2.2422951390543844e-05,0.32698174677599656,-4.35585512987835e-05,-0.430067302678791
447,0.328,935.907,936.409,0.779705,2.15651e-05,0.0616749,0.133597,0.283661,0.283661,-0.563734,5.76147e-10,2.45132e-05,-3.98335e-05,0.558452,0.3279826683130651,5.761469079601511e-10,2.451350045085121e-05,0.3279826683130651,-3.9832706656639516e-05,-0.43091985363307705
448,0.329,935.08,935.582,-0.517931,2.16941e-05,-0.0497913,-0.0525259,0.284413,0.284413,-0.565245,5.68857e-10,2.2498e-05,-4.29668e-05,0.559952,0.32898168686353246,5.688569615358574e-10,2.24982530818707e-05,0.32898168686353246,-4.296587694030407e-05,-0.43177908442189916
449,0.33,935.528,936.03,-0.538191,2.14861e-05,-0.0514235,-0.0548384,0.285166,0.285166,-0.566748,5.63058e-10,2.21614e-05,-4.32894e-05,0.561446,0.3299827869406169,5.630580446336353e-10,2.216164556556599e-05,0.3299827869406169,-4.3288463027479906e-05,-0.43263247897135704
450,0.331,937.293,937.795,0.761744,2.11761e-05,0.0600388,0.131728,0.285917,0.285917,-0.568241,5.61666e-10,2.42059e-05,-3.96393e-05,0.562934,0.33098197916332683,5.616660470053603e-10,2.420619296517046e-05,0.33098197916332683,-3.96385143732747e-05,-0.4334789266498297
451,0.332,936.501,937.004,-0.496413,2.13135e-05,-0.0483006,-0.0489406,0.286668,0.286668,-0.569749,5.54191e-10,2.2243e-05,-4.26759e-05,0.564431,0.3319819220612392,5.541909153805591e-10,2.2243247377318198e-05,0.3319819220612392,-4.2674989396696006e-05,-0.4343325965995246
452,0.333,936.945,937.447,-0.516819,2.11113e-05,-0.049951,-0.0512902,0.287419,0.287419,-0.571248,5.48449e-10,2.19149e-05,-4.29786e-05,0.565922,0.33298261619832314,5.484490639418027e-10,2.1915140133277333e-05,0.33298261619832314,-4.297767643324235e-05,-0.4351798968270444
453,0.334,938.666,939.168,0.742819,2.07905e-05,0.0583145,0.129705,0.288169,0.288169,-0.572739,5.47266e-10,2.39048e-05,-3.94185e-05,0.567407,0.3339827281555756,5.472660102867621e-10,2.3905085722031316e-05,0.3339827281555756,-3.941772310112057e-05,-0.4360214160923659
454,0.335,939.071,939.573,0.686661,2.06524e-05,0.0494897,0.116182,0.288918,0.288918,-0.574236,5.42156e-10,2.40379e-05,-3.89355e-05,0.568896,0.33498225549522487,5.421560977936224e-10,2.4038188912722802e-05,0.33498225549522487,-3.893474202321112e-05,-0.4368650604071548
455,0.336,938.781,939.284,-0.0637845,2.05715e-05,-0.009571,0.0164937,0.289667,0.289667,-0.575737,5.37533e-10,2.30543e-05,-4.03555e-05,0.570387,0.33598253176128945,5.375329070744783e-10,2.3054565752467227e-05,0.33598253176128945,-4.0354685727717055e-05,-0.43770969189697095
456,0.337,938.672,939.175,-0.632342,2.05698e-05,-0.0600425,-0.0669515,0.290415,0.290415,-0.577235,5.30394e-10,2.19122e-05,-4.20036e-05,0.571875,0.3369822205320361,5.303939509815336e-10,2.191244007399007e-05,0.3369822205320361,-4.2002717861144845e-05,-0.4385513722025659
457,0.338,940.32,940.823,0.560142,2.03113e-05,0.038672,0.0988839,0.291163,0.291163,-0.578721,5.27992e-10,2.36476e-05,-3.88447e-05,0.573356,0.3379826573497182,5.279920944900596e-10,2.364787960673631e-05,0.3379826573497182,-3.8843945554423165e-05,-0.4393850652761061
458,0.339,940.778,941.281,0.56205,2.01638e-05,0.0385184,0.0989581,0.29191,0.29191,-0.580214,5.23058e-10,2.38512e-05,-3.82515e-05,0.57484,0.33898250379091066,5.230580413240205e-10,2.385148444217222e-05,0.33898250379091066,-3.825076842067787e-05,-0.44022143886540466
459,0.34,940.651,941.154,-0.0209175,2.00572e-05,-0.00661393,0.0227189,0.292656,0.292656,-0.581708,5.1879e-10,2.30972e-05,-3.92785e-05,0.576326,0.3399817574139985,5.187898999281515e-10,2.3097466742338923e-05,0.3399817574139985,-3.927772860978784e-05,-0.44105712362378535
460,0.341,941.893,942.396,0.768712,1.99293e-05,0.0603755,0.1348,0.293402,0.293402,-0.583194,-2.43153e-09,2.44683e-05,-3.6743e-05,0.577805,0.34098175675840836,-2.4315299773647325e-09,2.4468599351346043e-05,0.34098175675840836,-3.674232498429575e-05,-0.4418870959159389
461,0.342,942.051,942.554,0.474643,1.98237e-05,0.0304067,0.086252,0.294148,0.294148,-0.584685,5.08327e-10,2.41613e-05,-3.69793e-05,0.579287,0.3419825023806564,5.083269360994791e-10,2.4161591886562306e-05,0.3419825023806564,-3.6978616274163656e-05,-0.44271862219903835
462,0.343,942.266,942.769,0.238134,1.96742e-05,0.0141995,0.0584861,0.294893,0.294893,-0.586174,5.04113e-10,2.39748e-05,-3.7052e-05,0.580768,0.34298265185434995,5.041129735872119e-10,2.3975087397820616e-05,0.34298265185434995,-3.705131358311409e-05,-0.44354779669697186
463,0.344,942.832,943.335,0.354269,1.95528e-05,0.0242712,0.0754165,0.295637,0.295637,-0.587661,4.98844e-10,2.42551e-05,-3.63328e-05,0.582246,0.3439822027341495,4.988440771569458e-10,2.4255394157401966e-05,0.3439822027341495,-3.6332139971784194e-05,-0.4443746262231758
464,0.345,942.965,943.469,0.0388939,1.94359e-05,-0.00299692,0.0303177,0.296381,0.296381,-0.589148,4.94973e-10,2.37968e-05,-3.6838e-05,0.583725,0.3449824975565161,4.949729515146828e-10,2.379708314603768e-05,0.3449824975565161,-3.68373214891804e-05,-0.44520022716755114
465,0.346,943.916,944.419,0.543233,1.93647e-05,0.039505,0.10152,0.297124,0.297124,-0.59063,4.88037e-10,2.46704e-05,-3.51236e-05,0.585199,0.3459821908922849,4.880369441906396e-10,2.4670704316775982e-05,0.3459821908922849,-3.512298317354112e-05,-0.4460218314717237
466,0.347,943.47,943.974,-0.349565,1.92671e-05,-0.0365131,-0.0248862,0.297867,0.297867,-0.592119,4.86263e-10,2.32569e-05,-3.72162e-05,0.586678,0.3469826272762102,4.862630298418935e-10,2.325717044371345e-05,0.3469826272762102,-3.7215507485810484e-05,-0.4468460911510408
467,0.348,944.814,945.318,0.550756,1.9238e-05,0.0354494,0.0964291,0.298609,0.298609,-0.593596,4.78409e-10,2.4569e-05,-3.47462e-05,0.588149,0.3479824592774492,4.784090901210902e-10,2.456930182037631e-05,0.3479824592774492,-3.474559635774366e-05,-0.44766249641070877
468,0.349,944.095,944.598,-0.613607,1.9147e-05,-0.060025,-0.0631254,0.29935,0.29935,-0.595084,4.77162e-10,2.27135e-05,-3.75803e-05,0.589627,0.34898168444697775,4.771620876198313e-10,2.2713757953596314e-05,0.34898168444697775,-3.75795938694079e-05,-0.4484837634418448
469,0.35,945.86,946.364,0.711208,1.91538e-05,0.048787,0.119203,0.300091,0.300091,-0.596557,4.68247e-10,2.4681e-05,-3.40224e-05,0.591094,0.34998165031675255,4.682469967320912e-10,2.4681304578333396e-05,0.34998165031675255,-3.402182124467856e-05,-0.44929554883157596
470,0.351,946.271,946.775,0.680791,1.90024e-05,0.0458083,0.114588,0.300832,0.300832,-0.598037,4.625e-10,2.48806e-05,-3.34178e-05,0.592566,0.3509823574358357,4.625000382674216e-10,2.4880909524682693e-05,0.3509823574358357,-3.341724163152815e-05,-0.4501099885852252
471,0.352,945.945,946.449,-0.0859601,1.87858e-05,-0.0150416,0.012454,0.301572,0.301572,-0.599519,4.61687e-10,2.38228e-05,-3.49263e-05,0.594039,0.3519824543705663,4.616869109241861e-10,2.3823083765250885e-05,0.3519824543705663,-3.49256900838979e-05,-0.4509243220120276
472,0.353,945.848,946.352,-0.622139,1.86729e-05,-0.0632211,-0.0666662,0.302311,0.302311,-0.600999,4.58689e-10,2.26872e-05,-3.65262e-05,0.59551,0.3529819386683075,4.586890867130933e-10,2.2687457356562746e-05,0.3529819386683075,-3.652553292643468e-05,-0.45173635296432235
473,0.354,947.421,947.925,0.514624,1.86692e-05,0.0316717,0.0918035,0.30305,0.30305,-0.602469,4.50168e-10,2.43445e-05,-3.3489e-05,0.596973,0.35398216185793174,4.5016790295449027e-10,2.4344796329733853e-05,0.35398216185793174,-3.3488439249662605e-05,-0.45254170844416275
474,0.355,947.845,948.349,0.502897,1.85364e-05,0.0304127,0.0900146,0.303788,0.303788,-0.603944,4.44771e-10,2.44826e-05,-3.29813e-05,0.59844,0.3549817695032349,4.447711088317874e-10,2.4482899701361305e-05,0.3549817695032349,-3.29807561229023e-05,-0.4533486141849301
475,0.356,947.798,948.302,0.019835,1.83426e-05,-0.00681762,0.0274003,0.304526,0.304526,-0.60542,4.42632e-10,2.38407e-05,-3.37886e-05,0.599908,0.3559821151312623,4.4263193110793964e-10,2.3840984191725312e-05,0.3559821151312623,-3.378802917164414e-05,-0.454154876462457
476,0.357,948.865,949.369,0.653329,1.83513e-05,0.0473789,0.117573,0.305263,0.305263,-0.606889,4.33205e-10,2.49498e-05,-3.16755e-05,0.60137,0.3569818423043256,4.3320502740584743e-10,2.4950111248811524e-05,0.3569818423043256,-3.1674998336672644e-05,-0.4549561342809757
477,0.358,948.135,948.639,-0.510559,1.81647e-05,-0.0524164,-0.0477553,0.306,0.306,-0.608368,4.35434e-10,2.30573e-05,-3.45354e-05,0.602838,0.3579823065478924,4.354339111500849e-10,2.3057565821549275e-05,0.3579823065478924,-3.4534803659891367e-05,-0.45576165832650617
478,0.359,949.734,950.238,0.658147,1.82757e-05,0.0427754,0.111641,0.306736,0.306736,-0.609832,4.24088e-10,2.47893e-05,-3.13608e-05,0.604296,0.35898214942255535,4.2408809797223057e-10,2.4789607257158508e-05,0.35898214942255535,-3.136030825523495e-05,-0.45655784031129887
479,0.36,950.084,950.588,0.577636,1.81221e-05,0.0356296,0.100086,0.307472,0.307472,-0.611302,4.18805e-10,2.48636e-05,-3.09519e-05,0.605758,0.35998272845244594,4.188049906872493e-10,2.4863909101835446e-05,0.35998272845244594,-3.0951420994851375e-05,-0.45735611341156346
480,0.361,949.948,950.453,0.0123136,1.7878e-05,-0.00854842,0.0259994,0.308207,0.308207,-0.612773,4.18071e-10,2.40987e-05,-3.19548e-05,0.60722,0.3609826831962102,4.1807091122336715e-10,2.4098990375920337e-05,0.3609826831962102,-3.195428945079737e-05,-0.45815375575895767
481,0.362,951.07,951.574,0.706539,1.79566e-05,0.0509223,0.124762,0.308941,0.308941,-0.614237,4.06662e-10,2.53152e-05,-2.96598e-05,0.608677,0.36198201119418516,4.066620373777141e-10,2.5315520432389604e-05,0.36198201119418516,-2.965936015253412e-05,-0.4589464382753451
482,0.363,950.206,950.711,-0.585703,1.7676e-05,-0.0601297,-0.0589251,0.309675,0.309675,-0.61571,4.12126e-10,2.31923e-05,-3.28881e-05,0.61014,0.36298207296817364,4.121261110157093e-10,2.319256894356414e-05,0.36298207296817364,-3.2887559192396054e-05,-0.4597428234900599
483,0.364,951.923,952.427,0.706446,1.7906e-05,0.04584,0.118041,0.310409,0.310409,-0.617168,3.97925e-10,2.51194e-05,-2.93881e-05,0.611593,0.36398286905696486,3.97925026263124e-10,2.5119715494792416e-05,0.36398286905696486,-2.9387668174063464e-05,-0.46052994450275697
484,0.365,952.29,952.795,0.648884,1.77467e-05,0.0405607,0.109618,0.311141,0.311141,-0.618633,3.92129e-10,2.52505e-05,-2.88779e-05,0.613049,0.36498167003367343,3.921289959407659e-10,2.525081879656277e-05,0.36498167003367343,-2.887748303748161e-05,-0.4613196895045991
485,0.366,952.013,952.517,-0.0528097,1.74284e-05,-0.0153004,0.0162822,0.311874,0.311874,-0.6201,3.93666e-10,2.42576e-05,-3.02492e-05,0.614507,0.36598256838223864,3.9366598869605696e-10,2.425789421800495e-05,0.36598256838223864,-3.024874249757392e-05,-0.4621093541594524
486,0.367,953.32,953.825,0.833433,1.76432e-05,0.0607843,0.142361,0.312606,0.312606,-0.621557,3.78547e-10,2.57986e-05,-2.74142e-05,0.615957,0.3669828336747276,3.785469715467116e-10,2.5798932786758044e-05,0.3669828336747276,-2.741382423421257e-05,-0.46289249017731315
487,0.368,953.437,953.942,0.528608,1.74168e-05,0.029582,0.0921839,0.313337,0.313337,-0.623019,3.7608e-10,2.54533e-05,-2.76699e-05,0.617411,0.3679824634463118,3.760800559859945e-10,2.5453623937909953e-05,0.3679824634463118,-2.7669517191797333e-05,-0.46367716761769795
488,0.369,953.519,954.024,0.189347,1.71752e-05,0.00428212,0.0496224,0.314068,0.314068,-0.624481,3.74395e-10,2.5057e-05,-2.80471e-05,0.618865,0.36898282421440576,3.743949594792184e-10,2.5057313929321978e-05,0.36898282421440576,-2.804670668377085e-05,-0.46446069869785844
489,0.37,954.179,954.684,0.430931,1.71637e-05,0.0252217,0.0843529,0.314798,0.314798,-0.625938,3.66119e-10,2.55181e-05,-2.69943e-05,0.620315,0.36998254653033147,3.6611891296445265e-10,2.551842558951023e-05,0.36998254653033147,-2.6993935657193546e-05,-0.4652404113012898
490,0.371,954.059,954.564,-0.107933,1.68783e-05,-0.0215769,0.00737254,0.315527,0.315527,-0.627399,3.67821e-10,2.46297e-05,-2.81634e-05,0.621766,0.3709816279276754,3.6782110690580794e-10,2.4630003313541593e-05,0.3709816279276754,-2.8163003415127008e-05,-0.46602112461043554
491,0.372,955.342,955.847,0.758834,1.71851e-05,0.0526849,0.130345,0.316257,0.316257,-0.628851,3.51263e-10,2.61006e-05,-2.54386e-05,0.623212,0.3719828099030227,3.5126301867194343e-10,2.6100940623718927e-05,0.3719828099030227,-2.5438276441525076e-05,-0.46679589931494403
492,0.373,955.482,955.988,0.483244,1.69583e-05,0.0244973,0.085087,0.316985,0.316985,-0.630308,3.49067e-10,2.57716e-05,-2.56615e-05,0.624661,0.37298197704134206,3.4906699752923487e-10,2.5771932090634664e-05,0.37298197704134206,-2.5661170746538176e-05,-0.46757221200851196
493,0.374,955.611,956.116,0.196682,1.67264e-05,0.00355213,0.0498173,0.317713,0.317713,-0.631764,3.47302e-10,2.54387e-05,-2.59256e-05,0.626108,0.37398187183817333,3.473019649646858e-10,2.5439023566553587e-05,0.37398187183817333,-2.5925263934523102e-05,-0.4683468627852113
494,0.375,956.215,956.72,0.387173,1.67223e-05,0.0201447,0.0773145,0.318441,0.318441,-0.633217,3.39288e-10,2.58023e-05,-2.50277e-05,0.627553,0.37498249482344526,3.3928793108373156e-10,2.5802632882099275e-05,0.37498249482344526,-2.5027386809761687e-05,-0.469118793849857
495,0.376,956.193,956.699,-0.0478074,1.64385e-05,-0.01779,0.0150824,0.319168,0.319168,-0.634672,3.40731e-10,2.5074e-05,-2.59235e-05,0.628999,0.37598247054431355,3.4073099897113934e-10,2.507431435527785e-05,0.37598247054431355,-2.592316398897232e-05,-0.46989066433285664
496,0.377,957.297,957.802,0.645133,1.6725e-05,0.0416653,0.113421,0.319894,0.319894,-0.636119,3.25129e-10,2.62495e-05,-2.36826e-05,0.63044,0.3769817965293678,3.25129034806082e-10,2.624984452115342e-05,0.3769817965293678,-2.3682319569395816e-05,-0.4706571778353036
497,0.378,956.521,957.027,-0.542316,1.61603e-05,-0.0608343,-0.0552899,0.32062,0.32062,-0.637576,3.37576e-10,2.42348e-05,-2.66942e-05,0.631887,0.37798184828851156,3.3757596717975957e-10,2.4235093665225804e-05,0.37798184828851156,-2.6693843713010423e-05,-0.4714278687425333
498,0.379,958.101,958.607,0.629008,1.66665e-05,0.0358297,0.105318,0.321346,0.321346,-0.639019,3.17762e-10,2.5978e-05,-2.34943e-05,0.633324,0.37898262634884783,3.1776203890387933e-10,2.597833743123168e-05,0.37898262634884783,-2.3494024011139203e-05,-0.47219004828314526
499,0.38,958.43,958.935,0.548922,1.65037e-05,0.0286754,0.0938131,0.322071,0.322071,-0.640468,3.12504e-10,2.60085e-05,-2.31307e-05,0.634765,0.3799827512544214,3.125040226592546e-10,2.600883822401201e-05,0.3799827512544214,-2.3130432487472596e-05,-0.47295429107556286
500,0.381,958.309,958.815,0.0208216,1.61211e-05,-0.0129242,0.0245267,0.322795,0.322795,-0.641918,3.15243e-10,2.52458e-05,-2.40926e-05,0.636206,0.3809822205305493,3.1524294286100485e-10,2.5246118677824114e-05,0.3809822205305493,-2.4092309775625154e-05,-0.47371795356439883
501,0.382,959.347,959.853,0.652608,1.64023e-05,0.0417186,0.114643,0.323519,0.323519,-0.64336,2.9937e-10,2.6348e-05,-2.19716e-05,0.637642,0.3819824136844454,2.99370084277939e-10,2.6348347111682102e-05,0.3819824136844454,-2.1971358626138304e-05,-0.474476305372298
502,0.383,958.593,959.099,-0.507938,1.57614e-05,-0.058977,-0.0507425,0.324242,0.324242,-0.644812,-2.64844e-09,2.43654e-05,-2.49174e-05,0.639084,0.382981948257747,-2.6484400228454774e-09,2.436569683883505e-05,0.382981948257747,-2.4917089564202577e-05,-0.4752388120630736
503,0.384,960.105,960.611,0.601375,1.62961e-05,0.0325368,0.101127,0.324965,0.324965,-0.64625,2.92913e-10,2.60138e-05,-2.18716e-05,0.640516,0.38398220575585107,2.929130271667191e-10,2.6014138361896144e-05,0.38398220575585107,-2.1871360818326302e-05,-0.47599287634916454
504,0.385,960.414,960.92,0.506968,1.61191e-05,0.0241756,0.0876417,0.325687,0.325687,-0.647693,2.88159e-10,2.59982e-05,-2.15775e-05,0.641951,0.38498180171912666,2.8815905217527416e-10,2.5998537956040124e-05,0.38498180171912666,-2.1577267207417705e-05,-0.4767484733342562
505,0.386,960.365,960.871,0.0549212,1.57486e-05,-0.011062,0.0289615,0.326409,0.326409,-0.649138,2.90327e-10,2.53461e-05,-2.23488e-05,0.643387,0.38598211965128715,2.9032709569776216e-10,2.5346421215211024e-05,0.38598211965128715,-2.2348550267392575e-05,-0.4775040257721841
506,0.387,961.287,961.793,0.575722,1.59897e-05,0.0340973,0.103336,0.32713,0.32713,-0.650576,2.7581e-10,2.62551e-05,-2.05416e-05,0.644818,0.3869817730913159,2.7581004147236854e-10,2.6255444668166206e-05,0.3869817730913159,-2.0541389022743495e-05,-0.4782548350218935
507,0.388,960.726,961.232,-0.386792,1.53708e-05,-0.0496792,-0.0339734,0.327851,0.327851,-0.652021,2.87995e-10,2.45929e-05,-2.29496e-05,0.646254,0.3879821475413676,2.8799496121223456e-10,2.459320240788543e-05,0.3879821475413676,-2.2949336659916497e-05,-0.47900821233908597
508,0.389,962.015,962.521,0.504283,1.58297e-05,0.0233094,0.0871768,0.328571,0.328571,-0.653455,-2.93761e-09,2.58946e-05,-2.04715e-05,0.647682,0.3889818545389292,-2.9376100441069752e-09,2.5894935268055974e-05,0.3889818545389292,-2.0471290460233327e-05,-0.4797547791462571
509,0.39,961.338,961.845,-0.57191,1.51711e-05,-0.066747,-0.0611555,0.329291,0.329291,-0.654899,2.83445e-10,2.40304e-05,-2.32176e-05,0.649116,0.3899822815847154,2.8344504521271574e-10,2.4030688732468164e-05,0.3899822815847154,-2.321733047361274e-05,-0.4805054711151271
510,0.391,962.887,963.394,0.581286,1.57893e-05,0.0298389,0.0983757,0.33001,0.33001,-0.65633,2.61749e-10,2.57559e-05,-2.00477e-05,0.650541,0.39098203821461364,2.6174906686549093e-10,2.5756231686102637e-05,0.39098203821461364,-2.0047499046160766e-05,-0.4812483361392691
511,0.392,963.214,963.721,0.511787,1.56245e-05,0.0235849,0.0883825,0.330729,0.330729,-0.657766,2.56736e-10,2.57704e-05,-1.96957e-05,0.651969,0.3919825139280082,2.567359658200985e-10,2.5770732059671175e-05,0.3919825139280082,-1.9695506040973143e-05,-0.48199272892663436
512,0.393,963.131,963.637,0.0322856,1.52171e-05,-0.0142019,0.025668,0.331447,0.331447,-0.659203,-2.71139e-09,2.50549e-05,-2.05593e-05,0.653398,0.3929823162590935,-2.711390001408631e-09,2.5055213876523652e-05,0.3929823162590935,-2.0559088659055647e-05,-0.4827365707967822
513,0.394,964.093,964.599,0.600681,1.5524e-05,0.0352419,0.106887,0.332165,0.332165,-0.660634,2.44161e-10,2.60453e-05,-1.86139e-05,0.654822,0.3939828367060254,2.441609137093792e-10,2.6045639181848657e-05,0.3939828367060254,-1.8613726762484184e-05,-0.48347624540057
514,0.395,963.453,963.96,-0.433558,1.482e-05,-0.0550087,-0.0407214,0.332882,0.332882,-0.662072,-2.69004e-09,2.42379e-05,-2.12447e-05,0.656251,0.39498268080121757,-2.6900399685558796e-09,2.423819374031133e-05,0.39498268080121757,-2.1244474332937635e-05,-0.48421847277030416
515,0.396,964.802,965.308,0.523841,1.53707e-05,0.0240209,0.0900257,0.333598,0.333598,-0.663499,2.39011e-10,2.56505e-05,-1.85819e-05,0.657671,0.395981846059148,2.3901103318735295e-10,2.5650828976875317e-05,0.395981846059148,-1.858172735758057e-05,-0.48495396810892766
516,0.397,964.045,964.552,-0.62556,1.46263e-05,-0.0727078,-0.0688802,0.334314,0.334314,-0.664936,2.54985e-10,2.36334e-05,-2.15622e-05,0.659098,0.3969817269755782,2.549849220656597e-10,2.3633679270940178e-05,0.3969817269755782,-2.1561967537442328e-05,-0.4856935577343401
517,0.398,965.661,966.168,0.601259,1.53512e-05,0.0306365,0.101324,0.33503,0.33503,-0.666358,2.31399e-10,2.54849e-05,-1.81849e-05,0.660515,0.3979823240631031,2.3139890004131303e-10,2.5485224742771706e-05,0.3979823240631031,-1.8184734655757318e-05,-0.4864243817562134
518,0.399,965.995,966.501,0.545032,1.51892e-05,0.0254749,0.09315,0.335745,0.335745,-0.667787,2.26123e-10,2.55272e-05,-1.77788e-05,0.661937,0.3989822388517468,2.2612289818368936e-10,2.5527525821633645e-05,0.3989822388517468,-1.777864195806611e-05,-0.4871577571931356
519,0.4,965.838,966.345,-0.000919932,1.47153e-05,-0.0181973,0.0209378,0.33646,0.33646,-0.669218,2.31172e-10,2.46884e-05,-1.88335e-05,0.663358,0.3999828688351159,2.3117197045507965e-10,2.468870476102225e-05,0.3999828688351159,-1.883332265073534e-05,-0.4878911096037981
520,0.401,966.882,967.389,0.656878,1.5124e-05,0.0391851,0.11495,0.337174,0.337174,-0.670641,2.13107e-10,2.58369e-05,-1.66252e-05,0.664775,0.40098281354124365,2.1310708753219387e-10,2.5837233775583002e-05,0.40098281354124365,-1.662506180211132e-05,-0.48861932230861094
521,0.402,966.087,966.595,-0.525957,1.42877e-05,-0.0642782,-0.0539312,0.337887,0.337887,-0.672073,2.31607e-10,2.37495e-05,-1.96985e-05,0.666197,0.4019820704800645,2.3160695583612778e-10,2.3749782021686983e-05,0.4019820704800645,-1.9698305985804687e-05,-0.4893510953645076
522,0.403,967.573,968.08,0.574428,1.49894e-05,0.0274621,0.0972835,0.3386,0.3386,-0.673492,2.08861e-10,2.53998e-05,-1.66448e-05,0.66761,0.402982040143139,2.088609285522125e-10,2.5400122577678985e-05,0.402982040143139,-1.6644661476106215e-05,-0.4900751922919143
523,0.404,967.862,968.369,0.478725,1.48022e-05,0.0189368,0.0835986,0.339313,0.339313,-0.674916,2.04765e-10,2.5349e-05,-1.63855e-05,0.669026,0.4039827230388202,2.0476509376976537e-10,2.534932128872569e-05,0.4039827230388202,-1.6385365758431192e-05,-0.49080080845676566
524,0.405,967.831,968.339,0.0641574,1.44002e-05,-0.0135262,0.029855,0.340025,0.340025,-0.676341,-2.73626e-09,2.47184e-05,-1.70917e-05,0.670443,0.40498271469240765,-2.736259996360957e-09,2.4718705502246863e-05,0.40498271469240765,-1.7091553937698123e-05,-0.49152590055389633
525,0.406,968.677,969.184,0.526747,1.468e-05,0.0269313,0.0960725,0.340736,0.340736,-0.677759,1.9349e-10,2.55222e-05,-1.54429e-05,0.671855,0.40598201261086686,1.934898907762772e-10,2.552252569421043e-05,0.40598201261086686,-1.544278075904515e-05,-0.49224640586791524
526,0.407,968.212,968.72,-0.320197,1.3994e-05,-0.0474346,-0.0250268,0.341447,0.341447,-0.679185,2.06686e-10,2.40044e-05,-1.7576e-05,0.673271,0.4069820212827888,2.0668600164697182e-10,2.4004688107925887e-05,0.4069820212827888,-1.75758455430719e-05,-0.4929699464860783
527,0.408,968.247,968.755,-0.667067,1.36771e-05,-0.0796522,-0.0767366,0.342158,0.342158,-0.680606,2.11998e-10,2.30014e-05,-1.88531e-05,0.674684,0.4079827412136994,2.1199797473059334e-10,2.3001664534172406e-05,0.4079827412136994,-1.885292228143154e-05,-0.493689924526573
528,0.409,968.688,969.195,-0.606432,1.36134e-05,-0.0742959,-0.0676614,0.342868,0.342868,-0.682024,2.10756e-10,2.26522e-05,-1.90712e-05,0.676095,0.4089827639260146,2.1075607925524764e-10,2.2652456562965995e-05,0.4089827639260146,-1.9071018145799812e-05,-0.4944073634291981
529,0.41,970.328,970.835,0.655516,1.44954e-05,0.0372606,0.114108,0.343577,0.343577,-0.683435,-2.74744e-09,2.46972e-05,-1.54003e-05,0.6775,0.40998208692377913,-2.7474400532412346e-09,2.4697504978243856e-05,0.40998208692377913,-1.5400181415992087e-05,-0.4951202515785348
530,0.411,970.625,971.132,0.573622,1.43408e-05,0.0267305,0.0979269,0.344286,0.344286,-0.684852,1.8094e-10,2.46567e-05,-1.51044e-05,0.678909,0.4109821186927787,1.8093992970591444e-10,2.4657003979022818e-05,0.4109821186927787,-1.5104285929101735e-05,-0.4958351595501288
531,0.412,970.422,970.929,-0.00711238,1.38474e-05,-0.0204094,0.020391,0.344995,0.344995,-0.686271,1.87227e-10,2.37398e-05,-1.62664e-05,0.680319,0.41198285973571047,1.8722690064976177e-10,2.374008179129028e-05,0.41198285973571047,-1.626626770279138e-05,-0.49655006211539876
532,0.413,971.475,971.982,0.669748,1.43284e-05,0.0390513,0.117378,0.345703,0.345703,-0.687681,1.68649e-10,2.49332e-05,-1.39796e-05,0.681723,0.412982897572024,1.6864909468949918e-10,2.4933510834879158e-05,0.412982897572024,-1.3979502285876855e-05,-0.49725942630853603
533,0.414,970.637,971.145,-0.544985,1.34364e-05,-0.0677191,-0.0562486,0.34641,0.34641,-0.689102,1.88725e-10,2.27524e-05,-1.71786e-05,0.683134,0.41398222970288945,1.8872503559919096e-10,2.2752658837887907e-05,0.41398222970288945,-1.717845244864069e-05,-0.4979733133268992
534,0.415,972.12,972.628,0.56491,1.42084e-05,0.0254387,0.0966543,0.347117,0.347117,-0.690508,1.65697e-10,2.44327e-05,-1.40739e-05,0.684534,0.41498226861138776,1.656970116670209e-10,2.4432998480872214e-05,0.41498226861138776,-1.4073800963187999e-05,-0.4986786668686244
535,0.416,972.4,972.908,0.470738,1.40293e-05,0.0170039,0.0831627,0.347823,0.347823,-0.69192,1.61954e-10,2.43711e-05,-1.38189e-05,0.685939,0.4159815988150808,1.6195400576179964e-10,2.4371396977640458e-05,0.4159815988150808,-1.3818804519449834e-05,-0.49938603307294005
536,0.417,972.365,972.873,0.0622962,1.36244e-05,-0.0151902,0.0300798,0.348529,0.348529,-0.693333,1.65414e-10,2.37299e-05,-1.4525e-05,0.687343,0.41698163479500727,1.6541390479574147e-10,2.373018155621409e-05,0.41698163479500727,-1.4524894512701891e-05,-0.5000929010883459
537,0.418,973.188,973.695,0.512782,1.39224e-05,0.0244094,0.0946393,0.349235,0.349235,-0.69474,-2.75759e-09,2.45132e-05,-1.29018e-05,0.688743,0.4179823770496214,-2.757590045199265e-09,2.451350045085121e-05,0.4179823770496214,-1.290171677215124e-05,-0.5007957757882096
538,0.419,972.742,973.25,-0.30525,1.32271e-05,-0.0477858,-0.0224727,0.34994,0.34994,-0.696153,1.64779e-10,2.30163e-05,-1.49784e-05,0.690147,0.4189824070946122,1.647790792702608e-10,2.3016564877131884e-05,0.4189824070946122,-1.497828782437427e-05,-0.5015006532438204
539,0.42,972.787,973.295,-0.630967,1.29151e-05,-0.078292,-0.071222,0.350644,0.350644,-0.697562,1.70201e-10,2.20448e-05,-1.61858e-05,0.691549,0.41998172242693066,1.7020096443332022e-10,2.2045042988416697e-05,0.41998172242693066,-1.618566901062657e-05,-0.5022025442250826
540,0.421,973.221,973.729,-0.566507,1.28656e-05,-0.07258,-0.0616185,0.351348,0.351348,-0.698968,1.69111e-10,2.17134e-05,-1.63604e-05,0.692947,0.4209817415249395,1.6911094746774324e-10,2.1713635737663495e-05,0.4209817415249395,-1.6360266169357374e-05,-0.5029019556464545
541,0.422,974.77,975.278,0.615117,1.37443e-05,0.0325202,0.108955,0.352052,0.352052,-0.700367,1.44621e-10,2.3645e-05,-1.2874e-05,0.694341,0.4219824648842645,1.4462098185674677e-10,2.3645279545236875e-05,0.4219824648842645,-1.2873917130451495e-05,-0.5035969095768836
542,0.423,975.039,975.547,0.516173,1.35794e-05,0.0205897,0.0905194,0.352755,0.352755,-0.701772,1.41366e-10,2.35444e-05,-1.26632e-05,0.695738,0.42298247001769806,1.4136602999315073e-10,2.3544677171472017e-05,0.42298247001769806,-1.2663119822065028e-05,-0.504293866192255
543,0.424,974.925,975.433,0.034492,1.31422e-05,-0.0182699,0.0267658,0.353457,0.353457,-0.703179,1.46263e-10,2.27707e-05,-1.35742e-05,0.697136,0.423981754419438,1.4626300171016737e-10,2.2770959254403422e-05,0.423981754419438,-1.3574107870950591e-05,-0.5049908342904861
544,0.425,975.825,976.333,0.569357,1.35287e-05,0.0289856,0.103567,0.354159,0.354159,-0.704578,1.30901e-10,2.37135e-05,-1.16887e-05,0.698529,0.42498174056511107,1.30901067763034e-10,2.371378116716727e-05,0.42498174056511107,-1.1688631687434281e-05,-0.5056828679229171
545,0.426,975.229,975.737,-0.393492,1.27542e-05,-0.0561459,-0.0342906,0.354861,0.354861,-0.705985,1.46817e-10,2.19437e-05,-1.41954e-05,0.699927,0.4259824289475147,1.4681700299945533e-10,2.194394076471262e-05,0.4259824289475147,-1.4195299245733928e-05,-0.5063778830699364
546,0.427,975.276,975.784,-0.71098,1.24599e-05,-0.0858206,-0.0816042,0.355562,0.355562,-0.707388,1.52119e-10,2.09411e-05,-1.54429e-05,0.701321,0.4269823930766856,1.5211898407585522e-10,2.094131926644316e-05,0.4269823930766856,-1.544278075904515e-05,-0.507069949302005
547,0.428,975.766,976.274,-0.584843,1.2452e-05,-0.0747436,-0.0633062,0.356262,0.356262,-0.708787,1.50351e-10,2.06897e-05,-1.54793e-05,0.702713,0.42798163044411575,1.5035106493144212e-10,2.0689914033367174e-05,0.42798163044411575,-1.5479180196287246e-05,-0.5077590762862094
548,0.429,977.294,977.802,0.581497,1.33003e-05,0.0292077,0.105045,0.356963,0.356963,-0.710179,1.27405e-10,2.25955e-05,-1.20342e-05,0.7041,0.4289829965048553,1.274049754584894e-10,2.259575528018587e-05,0.4289829965048553,-1.2034127589322097e-05,-0.5084437989744646
549,0.43,977.566,978.075,0.491924,1.31511e-05,0.0182197,0.0881406,0.357662,0.357662,-0.711577,1.24282e-10,2.24967e-05,-1.1814e-05,0.70549,0.42998220480202765,1.2428191809021882e-10,2.2496953052675295e-05,0.42998220480202765,-1.1813930214987778e-05,-0.5091305144175602
550,0.431,977.477,977.985,0.0407068,1.27487e-05,-0.0181605,0.0285629,0.358361,0.358361,-0.712976,1.28499e-10,2.17618e-05,-1.26521e-05,0.706881,0.4309821117899635,1.2849898922695502e-10,2.1762036789718664e-05,0.4309821117899635,-1.2652019962478e-05,-0.5098167606866979
551,0.432,978.336,978.844,0.540061,1.30985e-05,0.026095,0.100334,0.35906,0.35906,-0.714369,1.14566e-10,2.26433e-05,-1.08622e-05,0.708268,0.43198271795721865,1.1456591231251423e-10,2.2643556361501282e-05,0.43198271795721865,-1.0862141006540149e-05,-0.5104991105720275
552,0.433,977.802,978.311,-0.353764,1.23903e-05,-0.0531772,-0.0277409,0.359758,0.359758,-0.715769,-2.68225e-09,2.09811e-05,-1.31821e-05,0.709658,0.43298259080938317,-2.6822499776812947e-09,2.0981320104862533e-05,0.43298259080938317,-1.3182013116508351e-05,-0.5111839323301417
553,0.434,977.857,978.366,-0.65805,1.21143e-05,-0.0818233,-0.0732954,0.360455,0.360455,-0.717165,1.3335e-10,2.00161e-05,-1.43585e-05,0.711046,0.43398172783398126,1.3334999771075218e-10,2.001630032344437e-05,0.43398172783398126,-1.4358396917213412e-05,-0.5118658434758858
554,0.435,978.323,978.832,-0.549927,1.21008e-05,-0.0722838,-0.0575414,0.361152,0.361152,-0.718557,1.31771e-10,1.97546e-05,-1.44042e-05,0.712431,0.4349815614998367,1.3177103852513028e-10,1.975479512350553e-05,0.4349815614998367,-1.4404096259967858e-05,-0.5125448535211348
555,0.436,979.793,980.302,0.564034,1.28965e-05,0.0273915,0.103516,0.361849,0.361849,-0.719943,1.10499e-10,2.15898e-05,-1.10735e-05,0.713811,0.4359820922926778,1.1049894332870736e-10,2.1590033061347214e-05,0.4359820922926778,-1.1073438689002124e-05,-0.5132199983706945
556,0.437,980.046,980.555,0.460553,1.27427e-05,0.0151979,0.0846812,0.362545,0.362545,-0.721334,1.07954e-10,2.14526e-05,-1.09086e-05,0.715195,0.43698188371596935,1.0795409011166157e-10,2.1452830108570353e-05,0.43698188371596935,-1.0908540501453068e-05,-0.5138966386405517
557,0.438,980.007,980.515,0.0655301,1.23898e-05,-0.0164205,0.0329519,0.363241,0.363241,-0.722726,-2.6836e-09,2.08054e-05,-1.15957e-05,0.716579,0.4379823712363049,-2.683600008879239e-09,2.080561643391654e-05,0.4379823712363049,-1.1595632770089459e-05,-0.5145728237855183
558,0.439,980.779,981.288,0.483922,1.26668e-05,0.0207886,0.0931777,0.363936,0.363936,-0.724113,9.93494e-11,2.15423e-05,-1.00358e-05,0.717959,0.4389821163555012,9.934941758160676e-11,2.1542532036900042e-05,0.4389821163555012,-1.0035749641534863e-05,-0.5152456445698511
559,0.44,980.38,980.889,-0.270331,1.20656e-05,-0.0463474,-0.0150177,0.364631,0.364631,-0.725505,1.10354e-10,2.01179e-05,-1.19596e-05,0.719342,0.43998255653906226,1.1035394820169131e-10,2.011810236624001e-05,0.43998255653906226,-1.1959528484317694e-05,-0.5159199532049179
560,0.441,980.44,980.949,-0.563351,1.18047e-05,-0.0742143,-0.0592178,0.365325,0.365325,-0.726894,1.14649e-10,1.92069e-05,-1.30393e-05,0.720723,0.4409822512872541,1.1464895699475619e-10,1.920708445357633e-05,0.4409822512872541,-1.3039214988741499e-05,-0.5165918736331497
561,0.442,982.166,982.675,0.811962,1.289e-05,0.0489062,0.139389,0.366019,0.366019,-0.728272,8.72515e-11,2.15741e-05,-8.85121e-06,0.722097,0.44198264006440113,8.725153932687135e-11,2.157433272254039e-05,0.44198264006440113,-8.851170828161337e-06,-0.5172575512740516
562,0.443,982.356,982.865,0.649674,1.26606e-05,0.0309168,0.11134,0.366712,0.366712,-0.729658,8.49832e-11,2.14254e-05,-8.69743e-06,0.723475,0.4429822803693251,8.498313164295723e-11,2.142562952545113e-05,0.4429822803693251,-8.697392177459129e-06,-0.517926168848972
563,0.444,982.039,982.548,-0.0180382,1.20735e-05,-0.0245909,0.0210397,0.367405,0.367405,-0.731046,9.35936e-11,2.03194e-05,-1.01192e-05,0.724854,0.44398261366507374,9.35935773327401e-11,2.031960644033326e-05,0.44398261366507374,-1.0119148801113198e-05,-0.5185948231731593
564,0.445,983.103,983.612,0.696093,1.26369e-05,0.0388925,0.123544,0.368097,0.368097,-0.732425,7.52108e-11,2.16129e-05,-7.65943e-06,0.726227,0.44498219544913864,7.521072653560168e-11,2.1613133560416387e-05,0.44498219544913864,-7.6594006666042e-06,-0.5192582233924232
565,0.446,982.177,982.686,-0.579924,1.16462e-05,-0.0747319,-0.059425,0.368789,0.368789,-0.733815,9.70179e-11,1.92224e-05,-1.113e-05,0.727607,0.4459824691831853,9.701794922989393e-11,1.9222584751510396e-05,0.4459824691831853,-1.112993806173801e-05,-0.5199259902564213
566,0.447,983.636,984.146,0.532031,1.24825e-05,0.0201304,0.0946193,0.36948,0.36948,-0.73519,7.53322e-11,2.09519e-05,-7.94365e-06,0.728977,0.4469819883634967,7.533218493449567e-11,2.0952119492489985e-05,0.4469819883634967,-7.943618449246515e-06,-0.5205856384077857
567,0.448,983.891,984.4,0.438951,1.23055e-05,0.0116935,0.0812373,0.370171,0.370171,-0.736571,7.26541e-11,2.08576e-05,-7.71032e-06,0.73035,0.44798219845024234,7.265410495449487e-11,2.0857817521147126e-05,0.44798219845024234,-7.71029027557546e-06,-0.5212472526913314
568,0.449,983.866,984.375,0.0664074,1.19176e-05,-0.0180125,0.0327325,0.370861,0.370861,-0.737952,7.62126e-11,2.0229e-05,-8.35492e-06,0.731724,0.4489816509386282,7.621259179302342e-11,2.0229204607646878e-05,0.4489816509386282,-8.354885097761056e-06,-0.5219079539161636
569,0.45,984.605,985.115,0.460419,1.21932e-05,0.0170739,0.0893688,0.371551,0.371551,-0.739329,6.4674e-11,2.09152e-05,-6.87012e-06,0.733093,0.44998179328720544,6.467404389809417e-11,2.0915418724287704e-05,0.44998179328720544,-6.870096400768411e-06,-0.5225658336095002
570,0.451,984.248,984.758,-0.242716,1.15543e-05,-0.04581,-0.0116199,0.372241,0.372241,-0.74071,7.61885e-11,1.95557e-05,-8.67206e-06,0.734466,0.4509826259721419,7.618861097569152e-11,1.9555891213940413e-05,0.4509826259721419,-8.6720223978487e-06,-0.5232247151308789
571,0.452,985.684,986.194,0.84998,1.25379e-05,0.0512668,0.144845,0.37293,0.37293,-0.742081,4.96816e-11,2.15064e-05,-5.15153e-06,0.735831,0.45198269748651043,4.9681592173556055e-11,2.1506631264323062e-05,0.45198269748651043,-5.1515167308613385e-06,-0.5238779261679516
572,0.453,985.729,986.238,0.550311,1.21542e-05,0.0204495,0.0963458,0.373618,0.373618,-0.743458,5.13417e-11,2.10737e-05,-5.44304e-06,0.7372,0.4529820053048528,5.134159763997559e-11,2.1073922052083915e-05,0.4529820053048528,-5.4430251866799395e-06,-0.5245330950763012
573,0.454,985.644,986.153,0.121789,1.16995e-05,-0.0142282,0.0398869,0.374306,0.374306,-0.744835,5.63606e-11,2.03779e-05,-6.19059e-06,0.738569,0.45398200088353646,5.6360693889701e-11,2.0378107630891762e-05,0.45398200088353646,-6.190570838282561e-06,-0.5251873624379214
574,0.455,986.32,986.83,0.456116,1.19564e-05,0.0156604,0.0880458,0.374994,0.374994,-0.746207,4.54181e-11,2.09688e-05,-4.85699e-06,0.739935,0.4549826846959033,4.541811371439053e-11,2.0969019846717174e-05,0.4549826846959033,-4.856978204847984e-06,-0.5258383586911082
575,0.456,986.001,986.511,-0.20523,1.13041e-05,-0.0436781,-0.00708559,0.375681,0.375681,-0.747584,5.72988e-11,1.96777e-05,-6.54158e-06,0.741303,0.4559826012322923,5.7298832345509254e-11,1.9677893607239483e-05,0.4559826012322923,-6.541558603911923e-06,-0.5264908299416371
576,0.457,987.342,987.852,0.796028,1.22755e-05,0.0453981,0.136293,0.376367,0.376367,-0.74895,3.13267e-11,2.14644e-05,-3.28475e-06,0.742663,0.4569817479648841,3.132671899663819e-11,2.146463036178936e-05,0.4569817479648841,-3.284744605203116e-06,-0.5271372018953839
577,0.458,987.379,987.889,0.492939,1.18753e-05,0.0143703,0.0874944,0.377053,0.377053,-0.750322,3.38574e-11,2.09911e-05,-3.63679e-06,0.744028,0.4579815803472853,3.3857361358968774e-11,2.099132031463391e-05,0.4579815803472853,-3.6367833868844457e-06,-0.5277855248031693
578,0.459,987.382,987.892,0.156249,1.14875e-05,-0.0123248,0.0439798,0.377739,0.377739,-0.751694,3.74872e-11,2.04419e-05,-4.1424e-06,0.745392,0.4589820988500133,3.748712451567826e-11,2.0442108937146486e-05,0.4589820988500133,-4.142391420325353e-06,-0.5284329588218426
579,0.46,987.941,988.451,0.376197,1.16518e-05,0.00742515,0.0757821,0.378424,0.378424,-0.753062,2.90602e-11,2.08124e-05,-3.15977e-06,0.746753,0.4599818439613341,2.9060309714168397e-11,2.081261657949085e-05,0.4599818439613341,-3.159765007976212e-06,-0.5290776214843766
580,0.461,987.813,988.323,-0.0894852,1.11381e-05,-0.0345426,0.00867399,0.379109,0.379109,-0.754433,3.74849e-11,1.98708e-05,-4.27669e-06,0.748116,0.46098227413266235,3.748490406962901e-11,1.9870997425730508e-05,0.46098227413266235,-4.276680855008763e-06,-0.5297228136850073
581,0.462,988.842,989.352,0.602809,1.18262e-05,0.0270912,0.1078,0.379793,0.379793,-0.755796,1.80128e-11,2.10832e-05,-1.94042e-06,0.749473,0.4619819278507662,1.801270244072839e-11,2.1083422252266004e-05,0.4619819278507662,-1.9404181174076385e-06,-0.5303633648551658
582,0.463,988.07,988.58,-0.507482,1.07365e-05,-0.0721794,-0.0512746,0.380477,0.380477,-0.757169,4.1616e-11,1.89267e-05,-5.00291e-06,0.750836,0.4629822655659137,4.161604394425922e-11,1.892687911109192e-05,0.4629822655659137,-5.00289748550653e-06,-0.5310077334949219
583,0.464,988.164,988.674,-0.748804,1.04459e-05,-0.0950694,-0.0872709,0.38116,0.38116,-0.758535,4.82487e-11,1.79757e-05,-6.11814e-06,0.752195,0.4639818237635627,4.824873833797483e-11,1.7975861563934714e-05,0.4639818237635627,-6.118121284259814e-06,-0.5316479395706685
584,0.465,990.114,990.624,0.867111,1.21124e-05,0.0501854,0.145507,0.381843,0.381843,-0.75989,1.11961e-11,2.07836e-05,-1.2301e-06,0.753546,0.46498206489265526,1.1196155114134854e-11,2.0783815980474074e-05,0.46498206489265526,-1.23009924346551e-06,-0.532282126853634
585,0.466,990.315,990.825,0.73391,1.18595e-05,0.0347405,0.121711,0.382526,0.382526,-0.761255,8.6916e-12,2.06943e-05,-9.60777e-07,0.754903,0.4659829894197931,8.6914919705805e-12,2.0694514128560826e-05,0.4659829894197931,-9.607765384389566e-07,-0.5329201262168521
586,0.467,989.821,990.331,-0.0944467,1.09677e-05,-0.0356002,0.00822387,0.383207,0.383207,-0.762622,2.43605e-11,1.92455e-05,-2.90073e-06,0.756261,0.46698166384563433,2.4360513606325185e-11,1.9245685195734552e-05,0.46698166384563433,-2.900725792898129e-06,-0.5335581881895937
587,0.468,991.062,991.572,0.814791,1.19263e-05,0.0459,0.138882,0.383889,0.383889,-0.763978,-1.55605e-12,2.09185e-05,1.70772e-07,0.757612,0.46798248658213804,-1.5560885913146194e-12,2.0918718793394575e-05,0.46798248658213804,1.7077201452941893e-07,-0.5341902546484991
588,0.469,991.04,991.55,0.459635,1.14278e-05,0.00980463,0.0821867,0.38457,0.38457,-0.765341,3.19362e-12,2.0325e-05,-3.61366e-07,0.758967,0.46898252312929656,3.1936675526367253e-12,2.03252065542614e-05,0.46898252312929656,-3.6136593473123924e-07,-0.5348247208444764
589,0.47,991.113,991.624,0.201665,1.10896e-05,-0.0100799,0.049743,0.38525,0.38525,-0.766702,5.62124e-12,1.99038e-05,-6.50671e-07,0.76032,0.4699817709507794,5.6212812182820926e-12,1.9903998081938212e-05,0.4699817709507794,-6.506707883602303e-07,-0.5354573937678233
590,0.471,991.537,992.047,0.29441,1.11276e-05,-0.00164471,0.0633245,0.38593,0.38593,-0.768061,4.79037e-13,2.0028e-05,-5.52031e-08,0.761671,0.47098169849185934,4.789502128232925e-13,2.0028200561794662e-05,0.47098169849185934,-5.52030984257712e-08,-0.5360882783864971
591,0.472,991.604,992.115,0.0316712,1.07809e-05,-0.0255835,0.025275,0.38661,0.38661,-0.76942,4.89568e-12,1.94474e-05,-5.82039e-07,0.763023,0.4719823062149031,4.89563944938709e-12,1.9447589101995177e-05,0.4719823062149031,-5.820388305766144e-07,-0.5367183062152946
592,0.473,992.301,992.812,0.399628,1.11453e-05,0.00720873,0.077942,0.387289,0.387289,-0.770775,-6.78689e-12,2.00511e-05,7.83961e-07,0.764371,0.47298212159973296,-6.7869043718360444e-12,2.0051301024670565e-05,0.47298212159973296,7.839613072047058e-07,-0.537345627804015
593,0.474,992.037,992.547,-0.194025,1.0459e-05,-0.0461658,-0.00722081,0.387968,0.387968,-0.772134,6.15367e-12,1.88342e-05,-7.58077e-07,0.765723,0.4739826160897396,6.153744180892318e-12,1.8834377364607136e-05,0.4739826160897396,-7.580767126258436e-07,-0.5379739480555157
594,0.475,993.288,993.798,0.729515,1.15138e-05,0.0366384,0.125332,0.388646,0.388646,-0.773484,-2.01351e-11,2.04877e-05,2.28426e-06,0.767067,0.4749823151631387,-2.01351157969043e-11,2.0487909874411514e-05,0.4749823151631387,2.2842626088426243e-06,-0.5385972623937965
595,0.476,993.315,993.826,0.429457,1.10748e-05,0.00596236,0.0772865,0.389324,0.389324,-0.77484,-1.60253e-11,1.99643e-05,1.86895e-06,0.768415,0.4759826922623347,-1.6025292204346897e-11,1.9964499287983273e-05,0.4759826922623347,1.868951746475389e-06,-0.5392225004987514
596,0.477,993.396,993.906,0.183277,1.07483e-05,-0.0130093,0.0463896,0.390001,0.390001,-0.776195,-1.32589e-11,1.95405e-05,1.5826e-06,0.769762,0.4769822708641749,-1.3258949493888394e-11,1.9540690916919345e-05,0.4769822708641749,1.582601252270166e-06,-0.5398464312020614
597,0.478,993.833,994.343,0.294166,1.08258e-05,-0.00291427,0.0625944,0.390678,0.390678,-0.777547,-1.87085e-11,1.96881e-05,2.22019e-06,0.771107,0.4779825264098485,-1.8708479210260975e-11,1.968829381193693e-05,0.4779825264098485,2.220192464541526e-06,-0.5404681384582692
598,0.479,993.882,994.393,0.0184937,1.0455e-05,-0.0280479,0.0227052,0.391354,0.391354,-0.7789,-1.33636e-11,1.90698e-05,1.64016e-06,0.772452,0.478981980375081,-1.3363643525110547e-11,1.9069981829877847e-05,0.478981980375081,1.6401613449623653e-06,-0.5410894646449862
599,0.48,994.598,995.109,0.410094,1.08813e-05,0.00697016,0.0788112,0.39203,0.39203,-0.780248,-2.58694e-11,1.97158e-05,3.07633e-06,0.773794,0.4799821101996091,-2.5869417719093235e-11,1.9715994357571986e-05,0.4799821101996091,3.0763347318440992e-06,-0.5417076592898438
600,0.481,994.297,994.808,-0.215328,1.01255e-05,-0.0493874,-0.0109447,0.392706,0.392706,-0.781601,-2.56298e-09,1.84217e-05,1.4202e-06,0.775139,0.4809829163404675,-2.5629800504134437e-09,1.8421869680596004e-05,0.4809829163404675,1.4202010085728745e-06,-0.542327309538903
601,0.482,995.589,996.1,0.753867,1.13096e-05,0.0377475,0.128243,0.393381,0.393381,-0.782944,-2.47228e-09,2.01682e-05,4.61024e-06,0.776477,0.4819829172713428,-2.472280047349784e-09,2.016840337959458e-05,0.4819829172713428,4.610250627257173e-06,-0.5429415514064551
602,0.483,995.608,996.119,0.450049,1.08435e-05,0.00665374,0.0796233,0.394055,0.394055,-0.784294,-3.49172e-11,1.96378e-05,4.19036e-06,0.777819,0.48298211044785844,-3.491718025827595e-11,1.9637992822785222e-05,0.48298211044785844,4.190368779521947e-06,-0.5435581640049045
603,0.484,995.65,996.161,0.169613,1.04623e-05,-0.0154438,0.043796,0.394729,0.394729,-0.785643,-3.07831e-11,1.91426e-05,3.79629e-06,0.77916,0.48398197730758064,-3.0783153803781715e-11,1.9142783220793547e-05,0.48398197730758064,3.7962972059268907e-06,-0.544173488911698
604,0.485,996.119,996.63,0.318029,1.05969e-05,-0.00195202,0.0653818,0.395403,0.395403,-0.786988,-3.72083e-11,1.93576e-05,4.54547e-06,0.780498,0.48498251830472516,-3.7208347514194884e-11,1.935778735950855e-05,0.48498251830472516,4.5454803305755576e-06,-0.5447861634531208
605,0.486,996.102,996.613,-0.0201043,1.01339e-05,-0.0327747,0.0165025,0.396076,0.396076,-0.788335,-2.95673e-11,1.86085e-05,3.76386e-06,0.781837,0.4859822479108229,-2.9567348569514706e-11,1.8608673139297593e-05,0.4859822479108229,3.763867083339534e-06,-0.5453989237042705
606,0.487,996.906,997.417,0.464533,1.07113e-05,0.010727,0.086006,0.396749,0.396749,-0.789676,-4.49104e-11,1.94313e-05,5.48422e-06,0.783173,0.48698265056139944,-4.4910408725229445e-11,1.9431488788912432e-05,0.48698265056139944,5.484235038322183e-06,-0.5460081351799941
607,0.488,996.459,996.97,-0.302642,9.75285e-06,-0.0585365,-0.0241314,0.397421,0.397421,-0.791024,-2.5362e-11,1.78485e-05,3.37747e-06,0.784512,0.48798223872658375,-2.536204579683954e-11,1.7848659285446544e-05,0.48798223872658375,3.37747570355873e-06,-0.5466197039238312
608,0.489,997.961,998.472,0.881574,1.13113e-05,0.0482446,0.146047,0.398093,0.398093,-0.79236,-2.46515e-09,2.00157e-05,7.23546e-06,0.785843,0.4889824988407645,-2.4651499730410364e-09,2.0015900315417667e-05,0.4889824988407645,7.235486175982686e-06,-0.5472250155611803
609,0.49,997.962,998.473,0.564579,1.07862e-05,0.0156593,0.0951901,0.398764,0.398764,-0.793703,-5.6067e-11,1.95058e-05,6.85519e-06,0.787178,0.48998194137295714,-5.606703989968764e-11,1.95059902392547e-05,0.48998194137295714,6.855213496859136e-06,-0.5478326842244392
610,0.491,997.821,998.333,0.106185,1.01525e-05,-0.0223615,0.0340291,0.399435,0.399435,-0.795046,-4.65047e-11,1.86837e-05,5.94623e-06,0.788513,0.4909820547561341,-4.650468898859117e-11,1.86838745415141e-05,0.4909820547561341,5.946247678911831e-06,-0.5484395373364486
611,0.492,998.486,998.998,0.45461,1.05675e-05,0.00919037,0.0843072,0.400106,0.400106,-0.796384,-5.89715e-11,1.92873e-05,7.31662e-06,0.789845,0.4919828394405876,-5.897149435440951e-11,1.9287486001218213e-05,0.4919828394405876,7.316646766453161e-06,-0.5490433212140016
612,0.493,998.13,998.641,-0.218678,9.6591e-06,-0.0519987,-0.0127729,0.400776,0.400776,-0.797727,-4.10093e-11,1.78807e-05,5.49752e-06,0.791179,0.4929828028933625,-4.100930706130157e-11,1.788085986076382e-05,0.4929828028933625,5.497535111365082e-06,-0.5496485495318275
613,0.494,999.435,999.946,0.771625,1.10004e-05,0.0373398,0.12946,0.401445,0.401445,-0.799059,-7.19218e-11,1.96822e-05,8.77367e-06,0.792506,0.49398194256345307,-7.192180184745212e-11,1.9682393695763523e-05,0.49398194256345307,8.773708488840626e-06,-0.5502480183289995
614,0.495,999.434,999.946,0.456235,1.04682e-05,0.00510846,0.0791811,0.402114,0.402114,-0.800398,-6.60396e-11,1.91166e-05,8.30833e-06,0.793837,0.494981750881621,-6.603961821838311e-11,1.9116782723260783e-05,0.494981750881621,8.308364514375555e-06,-0.5508498332274654
615,0.496,999.459,999.971,0.16676,1.00382e-05,-0.0179449,0.0419586,0.402783,0.402783,-0.801736,-6.07055e-11,1.8586e-05,7.86839e-06,0.795167,0.495982228295341,-6.070555169657155e-11,1.858617272065821e-05,0.495982228295341,7.868420955903233e-06,-0.5514503942856631
616,0.497,999.923,1000.43,0.317498,1.01942e-05,-0.00419262,0.063882,0.403451,0.403451,-0.80307,-6.7116e-11,1.87961e-05,8.61636e-06,0.796495,0.4969818782697615,-6.71159794407572e-11,1.8796276647803367e-05,0.4969818782697615,8.616397120908559e-06,-0.5520483605275265
617,0.498,999.894,1000.41,-0.0249664,9.67992e-06,-0.0355267,0.0143491,0.404119,0.404119,-0.804406,-5.81244e-11,1.80164e-05,7.79789e-06,0.797824,0.4979821962334483,-5.812439418662052e-11,1.8016562296274685e-05,0.4979821962334483,7.797920403618264e-06,-0.5526464243222899
618,0.499,1000.69,1001.2,0.460912,1.03223e-05,0.00828353,0.0840985,0.404786,0.404786,-0.805737,-7.41045e-11,1.88402e-05,9.52277e-06,0.799148,0.49898168365033446,-7.410450031386517e-11,1.8840377477680192e-05,0.49898168365033446,9.52281534161159e-06,-0.5532414558501907
619,0.5,1000.24,1000.75,-0.302047,9.27007e-06,-0.0608803,-0.0255144,0.405453,0.405453,-0.807074,-5.25307e-11,1.72324e-05,7.39247e-06,0.800477,0.4999818379477077,-5.253064649934913e-11,1.723254847862954e-05,0.4999818379477077,7.392497324287817e-06,-0.5538383728957548
620,0.501,1001.72,1002.23,0.865415,1.09559e-05,0.0448415,0.1424,0.40612,0.40612,-0.808399,-8.95342e-11,1.93831e-05,1.12202e-05,0.801797,0.5009826595705253,-8.953415786550067e-11,1.938328785344723e-05,0.5009826595705253,1.1220262946753934e-05,-0.5544291455783344
621,0.502,1001.71,1002.22,0.543802,1.03825e-05,0.0118243,0.0909979,0.406786,0.406786,-0.809732,-8.35634e-11,1.88375e-05,1.0793e-05,0.803122,0.5019826469806445,-8.356337843906658e-11,1.8837677426830624e-05,0.5019826469806445,1.0793058244695786e-05,-0.555022695838141
622,0.503,1001.59,1002.1,0.115824,9.73865e-06,-0.0237004,0.0340207,0.407451,0.407451,-0.811064,-7.36362e-11,1.80459e-05,9.94429e-06,0.804446,0.502981797621654,-7.363620824207828e-11,1.804606282829191e-05,0.502981797621654,9.944339444567518e-06,-0.5556150110377867
623,0.504,1002.21,1002.72,0.422698,1.01366e-05,0.00421723,0.0783631,0.408116,0.408116,-0.812391,-8.50218e-11,1.85623e-05,1.11807e-05,0.805767,0.5039816129188133,-8.502176740421419e-11,1.856247228060326e-05,0.5039816129188133,1.118076250428146e-05,-0.5562043188259447
624,0.505,1001.91,1002.43,-0.177937,9.24374e-06,-0.0506204,-0.00833065,0.408781,0.408781,-0.813723,-6.74614e-11,1.7267e-05,9.55254e-06,0.807091,0.5049820933142661,-6.746136982371809e-11,1.7267149075461674e-05,0.5049820933142661,9.55258562562733e-06,-0.5567950611515371
625,0.506,1003.09,1003.6,0.693817,1.05198e-05,0.0283359,0.116967,0.409445,0.409445,-0.815045,-9.60231e-11,1.88477e-05,1.24768e-05,0.808408,0.5059817332679633,-9.602307837752733e-11,1.8847877619077025e-05,0.5059817332679633,1.2476877835565503e-05,-0.5573805909602145
626,0.507,1002.05,1002.56,-0.657776,8.66106e-06,-0.0943451,-0.0772318,0.410109,0.410109,-0.81638,-5.56913e-11,1.60686e-05,8.50165e-06,0.809732,0.5069820372030072,-5.569134042815449e-11,1.6068729100648937e-05,0.5069820372030072,8.501686139084086e-06,-0.5579710936230545
627,0.508,1003.49,1004.0,0.472835,1.02023e-05,0.00502573,0.0810658,0.410773,0.410773,-0.817699,-8.61576e-11,1.78934e-05,1.18303e-05,0.811046,0.5079830055604277,-8.615763658070819e-11,1.789356008785603e-05,0.5079830055604277,1.1830369978316213e-05,-0.5585537454072411
628,0.509,1002.65,1003.16,-0.673373,8.6408e-06,-0.096411,-0.0798918,0.411435,0.411435,-0.81903,-5.31124e-11,1.54865e-05,8.43998e-06,0.812369,0.5089816208152884,-5.3112403364252714e-11,1.5486619916460498e-05,0.5089816208152884,8.440015616839602e-06,-0.5591409195210468
629,0.51,1002.88,1003.39,-0.747203,8.44256e-06,-0.103472,-0.0906336,0.412098,0.412098,-0.820354,-4.62952e-11,1.47627e-05,7.72984e-06,0.813686,0.5099824073539669,-4.62951899038444e-11,1.4762808969281949e-05,0.5099824073539669,7.729869875294781e-06,-0.5597242307063854
630,0.511,1004.65,1005.16,0.719022,1.04968e-05,0.0304093,0.121118,0.41276,0.41276,-0.821669,-8.62782e-11,1.73658e-05,1.2266e-05,0.814996,0.5109823466510244,-8.627820680118248e-11,1.7365950786274453e-05,0.5109823466510244,1.2266075227751472e-05,-0.5603028128418774
631,0.512,1004.82,1005.33,0.585179,1.01903e-05,0.0152617,0.0979537,0.413422,0.413422,-0.822991,-8.59451e-11,1.71618e-05,1.23837e-05,0.816311,0.5119829481270537,-8.594513989379493e-11,1.716194726442133e-05,0.5119829481270537,1.2383776678337455e-05,-0.5608837084666907
632,0.513,1004.52,1005.03,-0.0197576,9.29848e-06,-0.0364716,0.0154925,0.414083,0.414083,-0.824316,-7.07486e-11,1.59968e-05,1.0954e-05,0.817628,0.5129826992371065,-7.074862917733071e-11,1.5996927949402107e-05,0.5129826992371065,1.0954059995293974e-05,-0.5614651522613919
633,0.514,1005.44,1005.95,0.595643,1.01457e-05,0.0196334,0.104281,0.414743,0.414743,-0.825633,-9.07968e-11,1.7122e-05,1.31553e-05,0.818939,0.5139815974187429,-9.079681451140686e-11,1.7122146582337905e-05,0.5139815974187429,1.3155386531238378e-05,-0.5620423225058331
634,0.515,1004.69,1005.2,-0.454362,8.67202e-06,-0.0762224,-0.0470332,0.415404,0.415404,-0.826958,-6.07104e-11,1.49219e-05,1.01092e-05,0.820255,0.5149826700726996,-6.07104366778799e-11,1.4922011332130225e-05,0.5149826700726996,1.0109251098233685e-05,-0.5626222321535292
635,0.516,1004.81,1005.32,-0.634737,8.35263e-06,-0.0939839,-0.074445,0.416064,0.416064,-0.828278,-5.18542e-11,1.4055e-05,9.18173e-06,0.821568,0.5159828886707771,-5.1854187610445024e-11,1.4055098771947883e-05,0.5159828886707771,9.181772152144774e-06,-0.563199189931179
636,0.517,1006.46,1006.97,0.709473,1.0257e-05,0.0292808,0.120165,0.416723,0.416723,-0.829588,-8.86684e-11,1.6471e-05,1.34185e-05,0.822873,0.5169822506480157,-8.866840595089798e-11,1.6471135647622148e-05,0.5169822506480157,1.34185900284578e-05,-0.5637710243590419
637,0.518,1006.58,1007.1,0.537239,9.90489e-06,0.0106223,0.0914765,0.417382,0.417382,-0.830906,-8.6788e-11,1.61755e-05,1.33951e-05,0.824184,0.5179822714218467,-8.678802121409035e-11,1.6175630824122322e-05,0.5179822714218467,1.339518971477105e-05,-0.5643455954234302
638,0.519,1006.38,1006.89,0.0278268,9.14715e-06,-0.0326294,0.0225708,0.418041,0.418041,-0.832224,-7.4355e-11,1.51837e-05,1.22452e-05,0.825495,0.5189829514265607,-7.435496662822061e-11,1.5183815272878931e-05,0.5189829514265607,1.2245274972677578e-05,-0.564919409701987
639,0.52,1007.16,1007.67,0.508897,9.80005e-06,0.0113353,0.0920476,0.418699,0.418699,-0.833537,-8.98882e-11,1.6045e-05,1.40307e-05,0.826801,0.5199827711132023,-8.988820798805364e-11,1.6045128721664526e-05,0.5199827711132023,1.4030798430653135e-05,-0.5654902956484086
640,0.521,1006.62,1007.13,-0.328353,8.59862e-06,-0.0653187,-0.0287161,0.419356,0.419356,-0.834856,-6.61008e-11,1.42516e-05,1.16344e-05,0.828111,0.5209817279152,-6.610079150703996e-11,1.4251701554446328e-05,0.5209817279152,1.1634467679932925e-05,-0.5660630361430562
641,0.522,1006.73,1007.24,-0.516615,8.27647e-06,-0.084029,-0.0575823,0.420014,0.420014,-0.83617,-5.75413e-11,1.34219e-05,1.07708e-05,0.829419,0.5219828632295653,-5.754130505408739e-11,1.3421990074036216e-05,0.5219828632295653,1.0770858005271222e-05,-0.5666328548606795
642,0.523,1008.18,1008.7,0.640553,9.92753e-06,0.0226335,0.110497,0.42067,0.42067,-0.837476,-8.92545e-11,1.55074e-05,1.44828e-05,0.83072,0.5229816115414738,-8.92544926855976e-11,1.5507520240376493e-05,0.5229816115414738,1.4482904876267355e-05,-0.5671984629297688
643,0.524,1008.29,1008.8,0.449584,9.56201e-06,0.00236018,0.0792733,0.421327,0.421327,-0.838789,-8.61148e-11,1.51342e-05,1.43403e-05,0.832025,0.5239825392289978,-8.611478197195765e-11,1.5134314522491366e-05,0.5239825392289978,1.4340402822554665e-05,-0.5677663584429515
644,0.525,1008.22,1008.74,0.086599,9.01289e-06,-0.027806,0.0311601,0.421983,0.421983,-0.840102,-7.77156e-11,1.4408e-05,1.36152e-05,0.833331,0.5249825997587223,-7.771561172376096e-11,1.4408103795826577e-05,0.5249825997587223,1.3615292687285674e-05,-0.5683335087986283
645,0.526,1008.82,1009.33,0.387977,9.40609e-06,-0.000156757,0.0748059,0.422638,0.422638,-0.84141,-8.7463e-11,1.49077e-05,1.48322e-05,0.834632,0.5259817905608288,-8.746303681306244e-11,1.4907811120234982e-05,0.5259817905608288,1.483230999754781e-05,-0.568897759468735
646,0.527,1008.57,1009.08,-0.158487,8.59257e-06,-0.0503821,-0.00412475,0.423293,0.423293,-0.842722,-7.20603e-11,1.36815e-05,1.33362e-05,0.835937,0.5269816360472963,-7.206024665862287e-11,1.368159359205201e-05,0.5269816360472963,1.3336288927412454e-05,-0.5694629947328984
647,0.528,1009.66,1010.17,0.632024,9.74297e-06,0.0217515,0.10966,0.423948,0.423948,-0.844026,-9.57611e-11,1.51308e-05,1.60498e-05,0.837235,0.5279821366470838,-9.576106574371579e-11,1.513091447113979e-05,0.5279821366470838,1.6049928798667068e-05,-0.5700240491008167
648,0.529,1008.75,1009.26,-0.571604,8.07543e-06,-0.0883128,-0.0635185,0.424602,0.424602,-0.84534,-6.1733e-11,1.25771e-05,1.24667e-05,0.83854,0.5289817638069025,-6.173295208355967e-11,1.2577179091977087e-05,0.5289817638069025,1.2466777709718713e-05,-0.5705886664654508
649,0.53,1008.91,1009.42,-0.704168,7.82291e-06,-0.101485,-0.083647,0.425256,0.425256,-0.846647,-5.36523e-11,1.17508e-05,1.16146e-05,0.83984,0.5299820449367088,-5.365230482112793e-11,1.175086904092737e-05,0.5299820449367088,1.1614667449810767e-05,-0.5711495404673775
650,0.531,1010.61,1011.13,0.709179,9.85409e-06,0.0284797,0.120791,0.42591,0.42591,-0.847945,-9.03792e-11,1.4318e-05,1.60819e-05,0.841133,0.5309829804643384,-9.037914860954288e-11,1.4318102502963725e-05,0.5309829804643384,1.6082029314468116e-05,-0.5717058272556225
651,0.532,1010.75,1011.26,0.548764,9.52032e-06,0.0109169,0.0939118,0.426562,0.426562,-0.849251,-8.85798e-11,1.40416e-05,1.60967e-05,0.842432,0.5319815068518305,-8.857981015353289e-11,1.404169858365556e-05,0.5319815068518305,1.6096829552614267e-05,-0.5722648143472034
652,0.533,1010.5,1011.01,0.00997711,8.71732e-06,-0.0352742,0.0206428,0.427215,0.427215,-0.850558,-7.53036e-11,1.29713e-05,1.4836e-05,0.843731,0.5329822174722629,-7.53036522027628e-11,1.2971384127702379e-05,0.5329822174722629,1.4836110054039509e-05,-0.5728234990548642
653,0.534,1011.31,1011.82,0.525251,9.4325e-06,0.0120164,0.0950859,0.427867,0.427867,-0.851858,-9.1011e-11,1.39105e-05,1.67454e-05,0.845025,0.5339820477873183,-9.101097653285706e-11,1.3910596751376403e-05,0.5339820477873183,1.6745540204921028e-05,-0.5733784676983165
654,0.535,1010.72,1011.23,-0.357018,8.16279e-06,-0.0690996,-0.0322496,0.428519,0.428519,-0.853165,-6.63373e-11,1.19957e-05,1.41756e-05,0.846324,0.534982530204301,-6.633726901128512e-11,1.1995771948658529e-05,0.534982530204301,1.417570047435035e-05,-0.5739356978118316
655,0.536,1010.84,1011.35,-0.525386,7.86582e-06,-0.0859773,-0.0581486,0.42917,0.42917,-0.854467,-2.27872e-09,1.11866e-05,1.33554e-05,0.847619,0.5359821291656235,-2.2787199904783506e-09,1.1186662570272787e-05,0.5359821291656235,1.3355489183686231e-05,-0.5744900725570067
656,0.537,1012.28,1012.79,0.622429,9.51619e-06,0.0202459,0.108618,0.429821,0.429821,-0.855761,-8.81522e-11,1.32776e-05,1.70704e-05,0.848909,0.536982379077731,-8.815215224444728e-11,1.3277688147628197e-05,0.536982379077731,1.7070545700104134e-05,-0.575040326312158
657,0.538,1012.38,1012.89,0.432521,9.15265e-06,8.81949e-05,0.0776633,0.430471,0.430471,-0.857062,-8.46712e-11,1.28906e-05,1.69143e-05,0.850202,0.5379817423820195,-8.467115897303756e-11,1.2890683084076926e-05,0.5379817423820195,1.69144430475221e-05,-0.5755928393599562
658,0.539,1012.32,1012.84,0.0903783,8.63031e-06,-0.028405,0.0323735,0.431121,0.431121,-0.858363,-7.6718e-11,1.21867e-05,1.62352e-05,0.851496,0.5389817554836169,-7.671796531383279e-11,1.2186774258182709e-05,0.5389817554836169,1.6235331791625285e-05,-0.5761446340556686
659,0.54,1012.89,1013.4,0.365428,8.98878e-06,-0.0030507,0.0722493,0.431771,0.431771,-0.859659,-2.13129e-09,1.26354e-05,1.73755e-05,0.852786,0.5399824188050293,-2.1312900333469997e-09,1.2635479827105556e-05,0.5399824188050293,1.7375650954942756e-05,-0.576693594806529
660,0.541,1012.68,1013.19,-0.133426,8.23707e-06,-0.0491198,0.000127369,0.43242,0.43242,-0.86096,-7.10775e-11,1.1484e-05,1.60101e-05,0.854078,0.540982191786074,-7.107747723722468e-11,1.1484065941314014e-05,0.540982191786074,1.6010228162333107e-05,-0.5772439583505715
661,0.542,1013.67,1014.19,0.57957,9.27487e-06,0.0162233,0.102826,0.433069,0.433069,-0.862252,-9.13718e-11,1.27935e-05,1.85024e-05,0.855365,0.5419826138303816,-9.137179901586023e-11,1.2793581837255985e-05,0.5419826138303816,1.8502571170531112e-05,-0.5777898064625718
662,0.543,1012.89,1013.4,-0.496645,7.76065e-06,-0.0826446,-0.052148,0.433717,0.433717,-0.863554,-6.15987e-11,1.0458e-05,1.52821e-05,0.856658,0.5429821423764172,-6.159872611988249e-11,1.0458054685136275e-05,0.5429821423764172,1.528221677182806e-05,-0.5783391664236165
663,0.544,1013.05,1013.56,-0.621718,7.52333e-06,-0.0952728,-0.0713656,0.434365,0.434365,-0.864849,-5.40256e-11,9.6754e-06,1.45091e-05,0.857946,0.5439823188268487,-5.4025561802006905e-11,9.675446806856058e-06,0.5439823188268487,1.4509205257473567e-05,-0.5788848637877922
664,0.545,1014.6,1015.11,0.64596,9.35634e-06,0.0220087,0.112414,0.435012,0.435012,-0.866135,-8.57137e-11,1.20001e-05,1.85875e-05,0.859228,0.5449815986192836,-8.571365839316059e-11,1.2000172001425113e-05,0.5449815986192836,1.8587672748537898e-05,-0.5794260697829192
665,0.546,1014.71,1015.23,0.472767,9.01443e-06,0.00336304,0.0838908,0.435659,0.435659,-0.867429,-8.27854e-11,1.16582e-05,1.85065e-05,0.860515,0.5459815251549431,-8.278544516571174e-11,1.1658267957015411e-05,0.5459815251549431,1.8506671246365514e-05,-0.579969940488384
666,0.547,1014.58,1015.09,0.0555072,8.38381e-06,-0.0320731,0.0277974,0.436306,0.436306,-0.868724,-7.27842e-11,1.07997e-05,1.75905e-05,0.861802,0.5469820988524055,-7.278422309298094e-11,1.0799758316970554e-05,0.5469820988524055,1.759065471373944e-05,-0.5805135273669804
667,0.548,1015.23,1015.74,0.421932,8.88122e-06,0.0017396,0.0808421,0.436952,0.436952,-0.870013,-8.32907e-11,1.14396e-05,1.90318e-05,0.863085,0.5479817721479734,-8.329070766421864e-11,1.1439665432488866e-05,0.5479817721479734,1.903198110575488e-05,-0.5810538970871
668,0.549,1014.88,1015.39,-0.216949,7.93587e-06,-0.0573269,-0.0114933,0.437598,0.437598,-0.871307,-6.56722e-11,9.99066e-06,1.72078e-05,0.864371,0.5489820914411252,-6.567224541953465e-11,9.990709906704254e-06,0.5489820914411252,1.720794805493142e-05,-0.5815956627462918
669,0.55,1016.07,1016.59,0.698097,9.29741e-06,0.0267966,0.120394,0.438243,0.438243,-0.872592,-9.1071e-11,1.17249e-05,2.03633e-05,0.865651,0.549981507167028,-9.107103959848928e-11,1.1724968736803731e-05,0.549981507167028,2.036350733347625e-05,-0.5821329670277278
670,0.551,1014.99,1015.5,-0.672679,7.4062e-06,-0.0993957,-0.0770481,0.438888,0.438888,-0.873888,-5.39936e-11,8.764e-06,1.61756e-05,0.866938,0.5509815677240095,-5.39935873788977e-11,8.764038403885621e-06,0.5509815677240095,1.617573082568491e-05,-0.5826741719259345
671,0.552,1015.18,1015.7,-0.757829,7.20689e-06,-0.108085,-0.090069,0.439533,0.439533,-0.875177,-4.67941e-11,7.98354e-06,1.54119e-05,0.86822,0.5519822735281201,-4.679412413111095e-11,7.983571868486194e-06,0.5519822735281201,1.541201876387177e-05,-0.5832117583694248
672,0.553,1016.91,1017.43,0.693356,9.29603e-06,0.0260894,0.11979,0.440177,0.440177,-0.876456,-8.1236e-11,1.0669e-05,2.00503e-05,0.869494,0.5529820720128298,-8.123601791254487e-11,1.0669056913936714e-05,0.5529820720128298,2.005050100861716e-05,-0.5837444897761137
673,0.554,1017.04,1017.55,0.538893,8.96696e-06,0.00911506,0.0939449,0.440821,0.440821,-0.877743,-7.90764e-11,1.03896e-05,2.00714e-05,0.870775,0.5539825145751345,-7.907641208504401e-11,1.0389653972042723e-05,0.5539825145751345,2.0071601431803643e-05,-0.5842798660292546
674,0.555,1016.79,1017.3,0.00558231,8.16472e-06,-0.0370221,0.0211988,0.441464,0.441464,-0.879032,-6.61471e-11,9.29577e-06,1.87928e-05,0.872055,0.5549820466471296,-6.614708780716683e-11,9.295813205856263e-06,0.5549820466471296,1.8792976585801924e-05,-0.5848153840664201
675,0.556,1017.57,1018.08,0.508739,8.86227e-06,0.00946761,0.0939564,0.442107,0.442107,-0.880313,-7.99913e-11,1.02261e-05,2.06887e-05,0.873332,0.5559822216249188,-7.99913468796376e-11,1.0226152286740842e-05,0.5559822216249188,2.0688914012634285e-05,-0.5853468950539611
676,0.557,1017.0,1017.52,-0.340966,7.63076e-06,-0.069189,-0.0288167,0.44275,0.44275,-0.881602,-2.09401e-09,8.32975e-06,1.81737e-05,0.874612,0.5569830399220239,-2.094009965425414e-09,8.32978469245127e-06,0.5569830399220239,1.8173865142578904e-05,-0.5858810385767785
677,0.558,1017.13,1017.65,-0.487815,7.36243e-06,-0.0841528,-0.0516055,0.443392,0.443392,-0.882886,-4.97208e-11,7.56387e-06,1.74365e-05,0.875889,0.5579829439685091,-4.972078304632532e-11,7.563898606122166e-06,0.5579829439685091,1.7436652016700194e-05,-0.5864124260994501
678,0.559,1018.47,1018.98,0.571849,8.88507e-06,0.0146665,0.102635,0.444033,0.444033,-0.884162,-7.5082e-11,9.52514e-06,2.0939e-05,0.87716,0.5589819311767878,-7.508205168704762e-11,9.52518536423419e-06,0.5589819311767878,2.0939219222304573e-05,-0.5869398272902291
679,0.56,1017.5,1018.01,-0.678822,7.21206e-06,-0.100276,-0.0768604,0.444674,0.444674,-0.885451,-4.3338e-11,6.75633e-06,1.7064e-05,0.87844,0.5599815589411432,-4.3337999855452836e-11,6.7563528240999204e-06,0.5599815589411432,1.706414559077274e-05,-0.5874719188461707
680,0.561,1017.75,1018.26,-0.710356,7.08639e-06,-0.103916,-0.0820198,0.445315,0.445315,-0.886732,-3.77399e-11,6.09611e-06,1.64929e-05,0.879714,0.5609818276723035,-3.773992229838541e-11,6.096128581267735e-06,0.5609818276723035,1.6493036008702333e-05,-0.5880000289913634
681,0.562,1019.36,1019.88,0.629758,8.9475e-06,0.0204203,0.111991,0.445956,0.445956,-0.888004,-6.69761e-11,8.58388e-06,2.08165e-05,0.880982,0.5619827377812603,-6.697609133965443e-11,8.583916841553574e-06,0.5619827377812603,2.081671666487317e-05,-0.5885237597910821
682,0.563,1019.49,1020.0,0.479014,8.6406e-06,0.00390072,0.0868761,0.446596,0.446596,-0.889284,-6.45054e-11,8.28281e-06,2.08073e-05,0.882254,0.5629827266957599,-6.450540102065361e-11,8.282844302653913e-06,0.5629827266957599,2.0807516473375642e-05,-0.5890501124409888
683,0.564,1019.32,1019.83,0.0341507,7.98527e-06,-0.0343477,0.0266462,0.447235,0.447235,-0.890564,-5.43538e-11,7.34968e-06,1.97871e-05,0.883528,0.5639817918254324,-5.4353854750388564e-11,7.349707008996731e-06,0.5639817918254324,1.97872957659051e-05,-0.589575791790508
684,0.565,1020.0,1020.51,0.438228,8.51637e-06,0.00311304,0.0851461,0.447874,0.447874,-0.891839,-6.44435e-11,8.07977e-06,2.13708e-05,0.884797,0.564981495561736,-6.444345057587952e-11,8.079802641391964e-06,0.564981495561736,2.137102835719773e-05,-0.5900987491997822
685,0.566,1019.59,1020.1,-0.248123,7.53802e-06,-0.0606389,-0.0141045,0.448513,0.448513,-0.89312,-4.69767e-11,6.50741e-06,1.93704e-05,0.886069,0.5659818383128705,-4.6976644796359324e-11,6.507431173252698e-06,0.5659818383128705,1.9370587607481227e-05,-0.5906234965296351
686,0.567,1020.84,1021.35,0.726876,8.94673e-06,0.0294784,0.126542,0.449152,0.449152,-0.89439,-7.11584e-11,8.39914e-06,2.27652e-05,0.887334,0.5669828204872971,-7.115841249571986e-11,8.399175272844062e-06,0.5669828204872971,2.2765459129159282e-05,-0.5911430746870768
687,0.568,1019.67,1020.18,-0.716191,7.03558e-06,-0.104044,-0.0814756,0.44979,0.44979,-0.895673,-2.07428e-09,5.23635e-06,1.82892e-05,0.888608,0.567982874510079,-2.0742799700101955e-09,5.236363709748559e-06,0.567982874510079,1.8289367248458532e-05,-0.5916673017586765
688,0.569,1019.89,1020.4,-0.768967,6.87622e-06,-0.109686,-0.0897093,0.450427,0.450427,-0.896947,-2.94514e-11,4.50573e-06,1.7614e-05,0.889876,0.5689819977881216,-2.945144128574384e-11,4.505740150761994e-06,0.5689819977881216,1.7614155127354536e-05,-0.5921871863794149
689,0.57,1021.6,1022.11,0.667336,8.86223e-06,0.0237234,0.118052,0.451064,0.451064,-0.898212,-5.94402e-11,7.20518e-06,2.22621e-05,0.891137,0.5699817577104418,-5.944023051540626e-11,7.205205957427907e-06,0.5699817577104418,2.22623478023376e-05,-0.5927027434300598
690,0.571,1021.72,1022.23,0.514093,8.5435e-06,0.00690815,0.0925311,0.451701,0.451701,-0.899486,-5.69839e-11,6.91412e-06,2.22721e-05,0.892403,0.5709821546827116,-5.69838620734231e-11,6.914143902525538e-06,0.5709821546827116,2.2272348024987565e-05,-0.5932213097380523
691,0.572,1021.49,1022.0,0.0137682,7.80964e-06,-0.0365418,0.0243069,0.452337,0.452337,-0.90076,-4.56664e-11,5.86394e-06,2.1075e-05,0.89367,0.5719816171284577,-4.5666359582696714e-11,5.863957192930869e-06,0.5719816171284577,2.107522207928092e-05,-0.5937392158132261
692,0.573,1022.22,1022.73,0.474572,8.41715e-06,0.0062518,0.0909908,0.452973,0.452973,-0.902028,-5.66857e-11,6.72101e-06,2.28565e-05,0.894932,0.5729817154345014,-5.668565616900878e-11,6.721032586032294e-06,0.5729817154345014,2.285676121172031e-05,-0.5942540280276537
693,0.574,1021.72,1022.23,-0.299242,7.32721e-06,-0.0657614,-0.0209214,0.453609,0.453609,-0.903303,-3.75135e-11,4.95212e-06,2.05579e-05,0.896199,0.5739824500053785,-3.751354782366434e-11,4.952132261815123e-06,0.5739824500053785,2.0558111315072125e-05,-0.5947710244866389
694,0.575,1023.08,1023.6,0.795788,8.91477e-06,0.0357139,0.137109,0.454244,0.454244,-0.904566,-6.37691e-11,7.11225e-06,2.43664e-05,0.897457,0.5749822462628484,-6.37691011107222e-11,7.1122752920427246e-06,0.5749822462628484,2.436669686312065e-05,-0.5952825056143886
695,0.576,1023.01,1023.52,0.448661,8.30836e-06,0.000135468,0.0825571,0.454879,0.454879,-0.905836,-1.93421e-09,6.41822e-06,2.37545e-05,0.89872,0.5759826775925558,-1.934210014375992e-09,6.418240596772762e-06,0.5759826775925558,2.375478214045046e-05,-0.5957961705859605
696,0.577,1022.98,1023.5,0.153329,7.84701e-06,-0.0244818,0.0437347,0.455513,0.455513,-0.907105,-4.94194e-11,5.79785e-06,2.32292e-05,0.899982,0.576982167414944,-4.941935749513959e-11,5.7978668075442386e-06,0.576982167414944,2.3229469799934677e-05,-0.5963087799260701
697,0.578,1023.38,1023.89,0.28368,7.9875e-06,-0.0123164,0.062706,0.456147,0.456147,-0.908372,-5.22625e-11,5.9599e-06,2.3931e-05,0.901242,0.5779822911147976,-5.2262527638902156e-11,5.9599177602009945e-06,0.5779822911147976,2.3931286348588543e-05,-0.5968199328181676
698,0.579,1023.35,1023.86,-0.0170733,7.51224e-06,-0.0405416,0.0190081,0.45678,0.45678,-0.909639,-4.39061e-11,5.17843e-06,2.31708e-05,0.902503,0.5789814701118625,-4.390610097715353e-11,5.1784434080826e-06,0.5789814701118625,2.317106844507144e-05,-0.5973304384896517
699,0.58,1024.01,1024.53,0.380195,8.06107e-06,-0.00378099,0.0762786,0.457414,0.457414,-0.910902,-5.29444e-11,5.86752e-06,2.46935e-05,0.90376,0.5799828617715266,-5.294442662062693e-11,5.8675372138772275e-06,0.5799828617715266,2.469380488689943e-05,-0.5978386891180054
700,0.581,1023.69,1024.2,-0.21355,7.19152e-06,-0.0590049,-0.00939612,0.458046,0.458046,-0.91217,-3.73212e-11,4.4555e-06,2.2955e-05,0.90502,0.580981726548188,-3.73211461734968e-11,4.4555099256715636e-06,0.580981726548188,2.2955263468071863e-05,-0.5983483064945058
701,0.582,1024.81,1025.33,0.64492,8.46496e-06,0.0207371,0.114583,0.458679,0.458679,-0.913429,-5.79777e-11,6.12114e-06,2.59924e-05,0.906273,0.5819828047889295,-5.797773372506754e-11,6.121158734107013e-06,0.5819828047889295,2.5992737805458077e-05,-0.5988536677849436
702,0.583,1023.83,1024.35,-0.604681,6.74005e-06,-0.0954031,-0.0656603,0.459311,0.459311,-0.914699,-2.66343e-11,3.31331e-06,2.20901e-05,0.907534,0.5829829339290746,-2.6634250360757505e-11,3.31331548908409e-06,0.5829829339290746,2.209034398803489e-05,-0.5993628002593039
703,0.584,1024.04,1024.56,-0.658603,6.594e-06,-0.101304,-0.0742866,0.459942,0.459942,-0.915961,-2.0497e-11,2.62483e-06,2.14886e-05,0.90879,0.583982111367713,-2.0497048502932103e-11,2.624833444819785e-06,0.583982111367713,2.1488830881599696e-05,-0.599868085503326
704,0.585,1025.56,1026.08,0.595656,8.38763e-06,0.0159444,0.107593,0.460573,0.460573,-0.917215,-4.65075e-11,5.00133e-06,2.56242e-05,0.91004,0.5849819194862738,-4.650746454615273e-11,5.0013425065831285e-06,0.5849819194862738,2.5624528302570226e-05,-0.6003695364486505
705,0.586,1025.66,1026.18,0.429508,8.06158e-06,-0.00197315,0.0804115,0.461204,0.461204,-0.918476,-4.28835e-11,4.636e-06,2.55244e-05,0.911294,0.5859823586828414,-4.2883474549171297e-11,4.636010746184027e-06,0.5859823586828414,2.55247257503477e-05,-0.6008731528663032
706,0.587,1025.56,1026.08,0.0625372,7.50509e-06,-0.0334249,0.0311096,0.461834,0.461834,-0.919738,-3.4245e-11,3.82859e-06,2.47151e-05,0.912549,0.5869818423731161,-3.424505123916788e-11,3.828597329169625e-06,0.5869818423731161,2.4715405420705494e-05,-0.6013765332475566
707,0.588,1026.13,1026.64,0.366763,7.90602e-06,-0.00500898,0.075237,0.462464,0.462464,-0.920995,-4.088e-11,4.35355e-06,2.59814e-05,0.9138,0.5879819559365049,-4.087996607893274e-11,4.3535594766996866e-06,0.5879819559365049,2.598173751944266e-05,-0.6018772881548704
708,0.589,1025.87,1026.38,-0.157514,7.12701e-06,-0.0540787,-0.00068834,0.463094,0.463094,-0.922256,-2.72321e-11,3.08346e-06,2.447e-05,0.915053,0.5889826997699528,-2.7232105459518152e-11,3.0834647539723647e-06,0.5889826997699528,2.4470299392786998e-05,-0.6023790044958716
709,0.59,1026.86,1027.38,0.570886,8.18428e-06,0.0136665,0.104461,0.463723,0.463723,-0.923509,-4.38167e-11,4.48628e-06,2.70977e-05,0.916301,0.589982484287376,-4.38167280236712e-11,4.486290063443477e-06,0.589982484287376,2.7098067145958638e-05,-0.6028769115992947
710,0.591,1026.06,1026.57,-0.49376,6.69991e-06,-0.0855375,-0.049176,0.464352,0.464352,-0.924772,-1.75674e-11,2.05203e-06,2.37845e-05,0.917555,0.5909828978670797,-1.756739198555124e-11,2.0520321053485446e-06,0.5909828978670797,2.3784782853475406e-05,-0.6033781614540301
711,0.592,1026.25,1026.77,-0.563201,6.54091e-06,-0.0930452,-0.0602838,0.46498,0.46498,-0.926028,-1.15017e-11,1.37862e-06,2.32101e-05,0.918805,0.5919823489217242,-1.1501688490511697e-11,1.3786209502875124e-06,0.5919823489217242,2.3210369356485572e-05,-0.6038760057715651
712,0.593,1027.62,1028.14,0.546395,8.12055e-06,0.011156,0.101008,0.465608,0.465608,-0.927277,-3.37258e-11,3.48899e-06,2.69283e-05,0.920049,0.5929824278287559,-3.372579993055069e-11,3.488996086487006e-06,0.5929824278287559,2.6928662569813966e-05,-0.6043704557920401
713,0.594,1026.66,1027.17,-0.681727,6.49942e-06,-0.102815,-0.0754629,0.466235,0.466235,-0.928538,-5.45869e-12,6.61774e-07,2.30098e-05,0.921301,0.593981541000252,-5.45874456747697e-12,6.617742189796161e-07,0.593981541000252,2.3010064727380097e-05,-0.604869030230037
714,0.595,1026.94,1027.46,-0.661506,6.44347e-06,-0.10156,-0.0730492,0.466863,0.466863,-0.929791,-9.22166e-13,1.13826e-07,2.26302e-05,0.922548,0.5949828757942164,-9.22151244253655e-13,1.1382600639819884e-07,0.5949828757942164,2.2630456064876014e-05,-0.6053638192850805
715,0.596,1028.41,1028.93,0.549449,8.09616e-06,0.0119617,0.102574,0.467489,0.467489,-0.931037,-2.30455e-11,2.41889e-06,2.66484e-05,0.923789,0.5959816476574404,-2.3045454433656687e-11,2.418892925515337e-06,0.5959816476574404,2.6648755071745356e-05,-0.6058552297539523
716,0.597,1027.39,1027.9,-0.735767,6.47224e-06,-0.107376,-0.0820717,0.468116,0.468116,-0.932296,4.38454e-12,-5.45254e-07,2.25222e-05,0.925039,0.5969826419294326,4.384492768849668e-12,-5.452538514028049e-07,0.5969826419294326,2.2522453626550032e-05,-0.6063511457750512
717,0.598,1027.69,1028.21,-0.689832,6.43676e-06,-0.103598,-0.0757742,0.468742,0.468742,-0.933546,8.34326e-12,-1.05381e-06,2.22046e-05,0.926283,0.5979826660381693,8.343326030058051e-12,-1.053809444706566e-06,0.5979826660381693,2.2204846523932176e-05,-0.6068428994327659
718,0.599,1029.19,1029.71,0.548899,8.05251e-06,0.0125409,0.103775,0.469367,0.469367,-0.934789,-1.23048e-11,1.31308e-06,2.63165e-05,0.927522,0.598981717375465,-1.2304823826525535e-11,1.3130808620420709e-06,0.598981717375465,2.6316846282181672e-05,-0.6073312901110821
719,0.6,1028.15,1028.67,-0.749018,6.48107e-06,-0.108072,-0.0827082,0.469993,0.469993,-0.936046,1.32719e-11,-1.68564e-06,2.2141e-05,0.92877,0.5999829932972074,1.3271828080974046e-11,-1.6856385792740625e-06,0.5999829932972074,2.2141245113793673e-05,-0.6078245645914517
720,0.601,1028.47,1028.98,-0.693537,6.44916e-06,-0.103368,-0.0749898,0.470617,0.470617,-0.937295,1.68703e-11,-2.17345e-06,2.18565e-05,0.930012,0.6009816942473156,1.6870282948389104e-11,-2.1734476380874668e-06,0.6009816942473156,2.1856738855019486e-05,-0.6083140859405567
721,0.602,1029.96,1030.48,0.543733,7.98973e-06,0.0127119,0.104338,0.471242,0.471242,-0.938535,-1.84409e-12,2.0016e-07,2.59768e-05,0.931249,0.6019826205631116,-1.844080443902385e-12,2.0016002011402634e-07,0.6019826205631116,2.5977137400046146e-05,-0.6087994754702875
722,0.603,1028.93,1029.45,-0.744438,6.49583e-06,-0.107095,-0.0807647,0.471866,0.471866,-0.93979,2.15143e-11,-2.78248e-06,2.183e-05,0.932494,0.602982569670018,2.1514345860396134e-11,-2.7824761289485522e-06,0.602982569670018,2.1830238276177028e-05,-0.6092901241821069
723,0.604,1029.25,1029.76,-0.685749,6.46303e-06,-0.10209,-0.0725916,0.472489,0.472489,-0.941036,2.48415e-11,-3.25603e-06,2.15686e-05,0.933734,0.6039815389575447,2.4841462220592803e-11,-3.256024699194171e-06,0.6039815389575447,2.156883260395759e-05,-0.6097766455216371
724,0.605,1030.73,1031.24,0.535801,7.91447e-06,0.0126193,0.104489,0.473113,0.473113,-0.942274,8.18597e-12,-9.03249e-07,2.56548e-05,0.934968,0.6049827357787756,8.185896405166204e-12,-9.032485920323907e-07,0.6049827357787756,2.565512908714318e-05,-0.6102594431211041
725,0.606,1029.72,1030.23,-0.730957,6.50806e-06,-0.105294,-0.0775581,0.473736,0.473736,-0.943526,2.92576e-11,-3.84344e-06,2.15774e-05,0.936211,0.60598295155803,2.925770736794675e-11,-3.843432613948039e-06,0.60598295155803,2.1577632793867707e-05,-0.6107470929658143
726,0.607,1030.03,1030.55,-0.672211,6.47315e-06,-0.1003,-0.0694094,0.474358,0.474358,-0.94477,3.23666e-11,-4.30604e-06,2.13339e-05,0.937449,0.6069821836828744,3.2366553881502114e-11,-4.306030728984389e-06,0.6069821836828744,2.1334127569216932e-05,-0.6112310225155767
727,0.608,1031.48,1032.0,0.526505,7.83235e-06,0.0123816,0.104413,0.47498,0.47498,-0.946006,1.7744e-11,-1.98816e-06,2.53642e-05,0.938681,0.6079820375234339,1.7744028468769102e-11,-1.9881580236580376e-06,0.6079820375234339,2.536452167412051e-05,-0.6117112441336514
728,0.609,1030.5,1031.02,-0.713103,6.51536e-06,-0.103102,-0.0737544,0.475602,0.475602,-0.947256,3.6603e-11,-4.87278e-06,2.13763e-05,0.939921,0.6089825134665361,3.6602942898866786e-11,-4.872768127994753e-06,0.6089825134665361,2.137652847467031e-05,-0.6121963018542504
729,0.61,1030.81,1031.33,-0.655949,6.47823e-06,-0.0982806,-0.0658801,0.476223,0.476223,-0.948497,3.95309e-11,-5.32641e-06,2.11476e-05,0.941156,0.6099820019164421,3.953082305940825e-11,-5.326395814742035e-06,0.6099820019164421,2.1147823612066574e-05,-0.6126772677425885
730,0.611,1032.24,1032.75,0.516676,7.74723e-06,0.0120703,0.104221,0.476844,0.476844,-0.949731,2.68454e-11,-3.05013e-06,2.51117e-05,0.942386,0.6109821112414373,2.684541478004121e-11,-3.0501253484027657e-06,0.6109821112414373,2.5112015301420598e-05,-0.6131549292164512
731,0.612,1031.28,1031.8,-0.693354,6.51742e-06,-0.100752,-0.0697168,0.477465,0.477465,-0.950978,4.36299e-11,-5.87342e-06,2.1222e-05,0.943624,0.6119828418272049,4.362998851092925e-11,-5.873402751488399e-06,0.6119828418272049,2.122222518829986e-05,-0.6136370243709176
732,0.613,1031.59,1032.11,-0.638623,6.47834e-06,-0.0961853,-0.0622421,0.478085,0.478085,-0.952217,4.64047e-11,-6.31933e-06,2.10063e-05,0.944857,0.6129825810762801,4.640465789407244e-11,-6.319310033031655e-06,0.6129825810762801,2.1006520633859438e-05,-0.6141154316632034
733,0.614,1032.99,1033.5,0.506771,7.66156e-06,0.0117257,0.103974,0.478705,0.478705,-0.953449,3.55319e-11,-4.08728e-06,2.49002e-05,0.946085,0.6139829403558792,3.5531799724708435e-11,-4.087271647135182e-06,0.6139829403558792,2.490051001258209e-05,-0.6145905487191925
734,0.615,1032.06,1032.58,-0.67306,6.51468e-06,-0.0983724,-0.065643,0.479324,0.479324,-0.954694,5.04038e-11,-6.84757e-06,2.11111e-05,0.947321,0.6149823050674279,5.040390327337718e-11,-6.847546555444062e-06,0.6149823050674279,2.1111322840772218e-05,-0.6150700849128155
735,0.616,1032.37,1032.88,-0.621131,6.47401e-06,-0.0940974,-0.0586237,0.479943,0.479943,-0.955931,5.30479e-11,-7.28659e-06,2.09069e-05,0.948551,0.6159822885772315,5.3048010428824455e-11,-7.286563452835182e-06,0.6159822885772315,2.0907118550850257e-05,-0.6155459488352629
736,0.617,1033.74,1034.25,0.497028,7.57675e-06,0.0113691,0.103707,0.480562,0.480562,-0.957161,4.38556e-11,-5.0992e-06,2.47302e-05,0.949777,0.6169828912684443,4.3855585829533084e-11,-5.0991869990912875e-06,0.6169828912684443,2.4730505793879587e-05,-0.6160185366171282
737,0.618,1032.84,1033.35,-0.652938,6.50774e-06,-0.0960311,-0.0616368,0.48118,0.48118,-0.958403,5.69797e-11,-7.79697e-06,2.10407e-05,0.95101,0.6179824955411541,5.6979754248231984e-11,-7.796939603732511e-06,0.6179824955411541,2.1040921357018405e-05,-0.61649514555923
738,0.619,1033.14,1033.65,-0.60394,6.46585e-06,-0.0920597,-0.0550908,0.481798,0.481798,-0.959637,5.95121e-11,-8.22966e-06,2.08472e-05,0.952238,0.6189827177602301,5.951217296740197e-11,-8.229626136446733e-06,0.6189827177602301,2.084741730445927e-05,-0.6169680986775199
739,0.62,1034.48,1034.99,0.487562,7.49362e-06,0.0110114,0.103435,0.482415,0.482415,-0.960865,5.18706e-11,-6.08623e-06,2.4601e-05,0.953462,0.619981938324933,5.1870507888907014e-11,-6.0862114789062005e-06,0.619981938324933,2.4601302607063502e-05,-0.617438173167535
740,0.621,1033.61,1034.12,-0.63335,6.49718e-06,-0.0937615,-0.0577497,0.483032,0.483032,-0.962105,6.34055e-11,-8.72304e-06,2.10086e-05,0.954693,0.6209817755989597,6.340550307015747e-11,-8.72300195442488e-06,0.6209817755989597,2.100882068223342e-05,-0.6179122558408041
741,0.622,1033.91,1034.42,-0.587276,6.4544e-06,-0.0900927,-0.0516746,0.483649,0.483649,-0.963337,6.58425e-11,-9.14983e-06,2.08251e-05,0.955919,0.621982229962937,6.584244260920968e-11,-9.149788140483395e-06,0.621982229962937,2.0825316843886554e-05,-0.6183826980896788
742,0.623,1035.22,1035.73,0.478421,7.41254e-06,0.0106579,0.103168,0.484265,0.484265,-0.964562,5.96286e-11,-7.04909e-06,2.45114e-05,0.95714,0.6229816788152367,5.962852434038268e-11,-7.049065155251277e-06,0.6229816788152367,2.4511700406737447e-05,-0.6188498930691704
743,0.624,1034.38,1034.89,-0.614458,6.48352e-06,-0.0915784,-0.0540041,0.484881,0.484881,-0.9658,6.97226e-11,-9.62702e-06,2.10128e-05,0.958369,0.623981743517692,6.97226720802746e-11,-9.626973660359361e-06,0.623981743517692,2.1013020770510593e-05,-0.6193214649383344
744,0.625,1034.67,1035.18,-0.571238,6.44012e-06,-0.0882044,-0.0483875,0.485497,0.485497,-0.96703,7.20787e-11,-1.00482e-05,2.08387e-05,0.959592,0.624982424449783,7.207878738313411e-11,-1.004814951699462e-05,0.624982424449783,2.0838917127230516e-05,-0.6197894116902114
745,0.626,1035.96,1036.47,0.46962,7.33369e-06,0.0103107,0.102908,0.486112,0.486112,-0.968253,6.7178e-11,-7.98869e-06,2.44599e-05,0.960811,0.6259820960083156,6.717804090783375e-11,-7.988658090485323e-06,0.6259820960083156,2.4460199145703854e-05,-0.6202541250095958
746,0.627,1035.14,1035.65,-0.596323,6.46719e-06,-0.0894868,-0.0504074,0.486727,0.486727,-0.969488,7.59676e-11,-1.051e-05,2.10514e-05,0.962038,0.6269823825539456,7.596767659379111e-11,-1.0509944770142887e-05,0.6269823825539456,2.1051621582168778e-05,-0.6207228216854392
747,0.628,1035.43,1035.94,-0.555852,6.42342e-06,-0.0863968,-0.0452321,0.487341,0.487341,-0.970716,7.82556e-11,-1.09259e-05,2.08863e-05,0.963259,0.6279816564825362,7.825562420293863e-11,-1.092584031259225e-05,0.6279816564825362,2.0886518120377673e-05,-0.6211882882054732
748,0.629,1036.69,1037.2,0.461153,7.25709e-06,0.00997042,0.102656,0.487955,0.487955,-0.971937,7.45624e-11,-8.90599e-06,2.44449e-05,0.964476,0.6289815441537188,7.456235628922059e-11,-8.905950341753233e-06,0.6289815441537188,2.444519877897733e-05,-0.6216505350464498
749,0.63,1035.9,1036.41,-0.578949,6.44854e-06,-0.0874864,-0.0469589,0.488569,0.488569,-0.973169,8.21726e-11,-1.13729e-05,2.11229e-05,0.9657,0.6299820459444467,8.217249103381619e-11,-1.1372835328815611e-05,0.6299820459444467,2.1123123089994422e-05,-0.6221163745712035
750,0.631,1036.18,1036.7,-0.541111,6.40459e-06,-0.0846685,-0.0422059,0.489182,0.489182,-0.974395,8.44043e-11,-1.17838e-05,2.09664e-05,0.966919,0.6309815312495588,8.440426135791768e-11,-1.17837305713131e-05,0.6309815312495588,2.096661979655856e-05,-0.6225793760180984
751,0.632,1037.42,1037.93,0.45301,7.18271e-06,0.00963695,0.102412,0.489795,0.489795,-0.975614,8.18213e-11,-9.80196e-06,2.44648e-05,0.968134,0.6319816294269891,8.182121646882479e-11,-9.801911960982679e-06,0.6319816294269891,2.446509926556928e-05,-0.6230391714564761
752,0.633,1036.65,1037.17,-0.562314,6.42787e-06,-0.0855745,-0.043654,0.490408,0.490408,-0.976844,8.83661e-11,-1.22168e-05,2.12258e-05,0.969356,0.6329823408525435,8.836620324359501e-11,-1.2216725375213677e-05,0.6329823408525435,2.122602526899442e-05,-0.6235025482404424
753,0.634,1036.93,1037.45,-0.526994,6.38392e-06,-0.0830166,-0.0393042,0.49102,0.49102,-0.978067,9.0552e-11,-1.26229e-05,2.10775e-05,0.970573,0.6339820319194092,9.055201033447702e-11,-1.2622820331542606e-05,0.6339820319194092,2.1077722132112342e-05,-0.623962723169617
754,0.635,1038.15,1038.66,0.445174,7.11048e-06,0.00930981,0.102175,0.491632,0.491632,-0.979285,8.899e-11,-1.06776e-05,2.45181e-05,0.971785,0.6349823349844603,8.898992653882942e-11,-1.0677542994663725e-05,0.6349823349844603,2.4518400571160726e-05,-0.624420457755845
755,0.636,1037.4,1037.91,-0.546387,6.40544e-06,-0.0837473,-0.0404866,0.492243,0.492243,-0.980512,9.45734e-11,-1.30423e-05,2.13587e-05,0.973005,0.6359816144399217,9.457346017427426e-11,-1.3042214949576802e-05,0.6359816144399217,2.135892809862483e-05,-0.6248810112468306
756,0.637,1037.68,1038.19,-0.513468,6.36163e-06,-0.0814374,-0.0365213,0.492854,0.492854,-0.981733,9.67231e-11,-1.34438e-05,2.12182e-05,0.97422,0.6369815046416947,9.672307399455349e-11,-1.3443709632521283e-05,0.6369815046416947,2.12184251076053e-05,-0.6253387520244851
757,0.638,1038.87,1039.39,0.437628,7.0403e-06,0.00898841,0.101945,0.493465,0.493465,-0.982948,9.60999e-11,-1.15337e-05,2.46033e-05,0.97543,0.6379820059630585,9.609979478852892e-11,-1.1533633487159634e-05,0.6379820059630585,2.4603602663653135e-05,-0.6257936890105906
758,0.639,1038.14,1038.66,-0.531129,6.38147e-06,-0.0820005,-0.03745,0.494075,0.494075,-0.984173,1.00817e-10,-1.38504e-05,2.15202e-05,0.976647,0.6389814797952229,1.0081691037555629e-10,-1.3850304083629084e-05,0.6389814797952229,2.1520431561228293e-05,-0.6262518110844932
759,0.64,1038.42,1038.93,-0.500503,6.33791e-06,-0.0799275,-0.0338514,0.494685,0.494685,-0.985392,1.02939e-10,-1.42475e-05,2.13872e-05,0.97786,0.6399815634924146,1.0293899066482481e-10,-1.4247398504863007e-05,0.6399815634924146,2.1387428707830836e-05,-0.6267071325519643
760,0.641,1039.59,1040.11,0.430357,6.97209e-06,0.00867215,0.10172,0.495295,0.495295,-0.986605,1.03179e-10,-1.23712e-05,2.47189e-05,0.979068,0.6409822574267652,1.0317902088274877e-10,-1.237112347707292e-05,0.6409822574267652,2.4719205514500686e-05,-0.627159662285409
761,0.642,1038.88,1039.4,-0.516504,6.35614e-06,-0.08033,-0.0345375,0.495904,0.495904,-0.987828,1.07116e-10,-1.46418e-05,2.17092e-05,0.980283,0.6419819199878918,1.071160937726745e-10,-1.4641692809402862e-05,0.6419819199878918,2.1709435646277697e-05,-0.6276153672980178
762,0.643,1039.15,1039.67,-0.488066,6.31295e-06,-0.078483,-0.0312886,0.496513,0.496513,-0.989045,1.09218e-10,-1.50347e-05,2.15833e-05,0.981493,0.6429821915289333,1.0921796800289485e-10,-1.5034586979489895e-05,0.6429821915289333,2.1583532921143345e-05,-0.62806828374046
763,0.644,1040.31,1040.82,0.423345,6.90575e-06,0.00836044,0.101499,0.497122,0.497122,-0.990255,1.10252e-10,-1.31909e-05,2.48636e-05,0.982699,0.6439830724208722,1.1025202972803072e-10,-1.3190813000441004e-05,0.6439830724208722,2.4863909101835446e-05,-0.6285180489543045
764,0.645,1039.62,1040.14,-0.502475,6.32962e-06,-0.0787317,-0.0317426,0.49773,0.49773,-0.991476,1.13488e-10,-1.54173e-05,2.19243e-05,0.983912,0.644982918051175,1.1348810780020813e-10,-1.5417181154053772e-05,0.644982918051175,2.1924540339224308e-05,-0.6289713516189377
765,0.646,1039.89,1040.4,-0.476127,6.28689e-06,-0.0771006,-0.0288275,0.498337,0.498337,-0.99269,1.15577e-10,-1.58061e-05,2.18054e-05,0.98512,0.6459817257899134,1.1557710344334282e-10,-1.580597508421544e-05,0.6459817257899134,2.1805637739458206e-05,-0.6294215070984099
766,0.647,1041.02,1041.54,0.416577,6.8412e-06,0.00805274,0.101282,0.498945,0.498945,-0.993899,1.17342e-10,-1.39937e-05,2.50361e-05,0.986324,0.6469827869709546,1.1734191396328697e-10,-1.399360208864664e-05,0.6469827869709546,2.5036413405787883e-05,-0.6298692657716699
767,0.648,1040.35,1040.87,-0.489007,6.30207e-06,-0.0772019,-0.0290591,0.499552,0.499552,-0.995117,1.19948e-10,-1.61774e-05,2.21646e-05,0.987534,0.6479828089986266,1.1994805149129206e-10,-1.6177269146600004e-05,0.6479828089986266,2.216484563666299e-05,-0.6303198105684793
768,0.649,1040.62,1041.13,-0.464657,6.25988e-06,-0.0757771,-0.0264628,0.500158,0.500158,-0.996329,1.22031e-10,-1.65623e-05,2.20523e-05,0.98874,0.6489817892413214,1.2203105193009378e-10,-1.6562162845845663e-05,0.6489817892413214,2.2052543153794346e-05,-0.6307675915479829
769,0.65,1041.73,1042.25,0.410039,6.77835e-06,0.00774858,0.101068,0.500765,0.500765,-0.997536,1.24467e-10,-1.47801e-05,2.52352e-05,0.989942,0.6499830250317113,1.244671032907263e-10,-1.4779990774815843e-05,0.6499830250317113,2.5235518410271496e-05,-0.63121298621523
770,0.651,1041.08,1041.6,-0.47607,6.27363e-06,-0.0757368,-0.0264815,0.50137,0.50137,-0.998752,1.26509e-10,-1.69228e-05,2.24288e-05,0.99115,0.6509815667902799,1.265090254776169e-10,-1.6922656810192116e-05,0.6509815667902799,2.2429051527383947e-05,-0.6316611586799095
771,0.652,1041.34,1041.86,-0.45363,6.23204e-06,-0.0745094,-0.0241897,0.501976,0.501976,-0.999962,1.28593e-10,-1.7304e-05,2.23229e-05,0.992354,0.6519823648309337,1.285929140948383e-10,-1.730385028664294e-05,0.6519823648309337,2.2323149157843503e-05,-0.6321065791441809
772,0.653,1042.44,1042.95,0.40372,6.71713e-06,0.00744751,0.100856,0.502581,0.502581,-1.00117,1.31646e-10,-1.5551e-05,2.54597e-05,0.993554,0.652982116556059,1.3164602741255749e-10,-1.5550879083781055e-05,0.652982116556059,2.5460024100976142e-05,-0.632550726077816
773,0.654,1041.81,1042.32,-0.463633,6.2444e-06,-0.0743331,-0.0240042,0.503186,0.503186,-1.00238,1.33184e-10,-1.76542e-05,2.27161e-05,0.994759,0.6539824733139816,1.3318390834626825e-10,-1.7654044165538174e-05,0.6539824733139816,2.271635801265326e-05,-0.6329950708164813
774,0.655,1042.07,1042.58,-0.443022,6.20348e-06,-0.0732946,-0.0220038,0.50379,0.50379,-1.00359,1.35272e-10,-1.80319e-05,2.26162e-05,0.995961,0.6549817804882494,1.3527201581098325e-10,-1.803173742631614e-05,0.6549817804882494,2.2616455748192266e-05,-0.6334388782231641
775,0.656,1043.14,1043.66,0.397608,6.65746e-06,0.00714916,0.100646,0.504394,0.504394,-1.00479,1.38893e-10,-1.63071e-05,2.57085e-05,0.997159,0.6559816914263692,1.3889289718349573e-10,-1.6306967039914078e-05,0.6559816914263692,2.5708830466264487e-05,-0.6338784877508266
776,0.657,1042.53,1043.05,-0.451668,6.21451e-06,-0.0729878,-0.0216224,0.504998,0.504998,-1.006,1.39982e-10,-1.83722e-05,2.30254e-05,0.998362,0.6569822064931237,1.39982025970653e-10,-1.8372031232116726e-05,0.6569822064931237,2.302566508660675e-05,-0.6343212268694635
777,0.658,1042.78,1043.3,-0.432809,6.17429e-06,-0.0721301,-0.0199006,0.505601,0.505601,-1.00721,1.4208e-10,-1.87464e-05,2.29313e-05,0.999561,0.6579816680710204,1.420799033979847e-10,-1.8746224287324864e-05,0.6579816680710204,2.293156292432208e-05,-0.6347634305977432
778,0.659,1043.84,1044.36,0.391691,6.59928e-06,0.00685318,0.100437,0.506204,0.506204,-1.00841,1.46222e-10,-1.70489e-05,2.59805e-05,1.00076,0.6589817325059917,1.4622192345825624e-10,-1.704875466834732e-05,0.6589817325059917,2.598083749605351e-05,-0.6352014516158526
779,0.66,1043.25,1043.76,-0.440151,6.18406e-06,-0.0716979,-0.0193313,0.506807,0.506807,-1.00962,1.46912e-10,-1.90772e-05,2.33557e-05,1.00196,0.6599824001616701,1.4691203809036324e-10,-1.907701803138817e-05,0.6599824001616701,2.3355972746497144e-05,-0.6356425909162979
780,0.661,1043.5,1044.01,-0.422971,6.14458e-06,-0.0710134,-0.0178763,0.507409,0.507409,-1.01082,1.49025e-10,-1.94482e-05,2.32673e-05,1.00316,0.6609820104190662,1.4902501455082984e-10,-1.9448010884937084e-05,0.6609820104190662,2.326757068571439e-05,-0.6360795575747673
781,0.662,1044.54,1045.06,0.38596,6.54252e-06,0.00655929,0.100228,0.508011,0.508011,-1.01202,1.53644e-10,-1.7777e-05,2.62748e-05,1.00435,0.6619822226230052,1.5364398642248034e-10,-1.7776841990113645e-05,0.6619822226230052,2.6275145185605808e-05,-0.6365160001877367
782,0.663,1043.96,1044.48,-0.429058,6.15312e-06,-0.0704606,-0.0171266,0.508613,0.508613,-1.01322,1.53982e-10,-1.977e-05,2.37063e-05,1.00555,0.6629830371359677,1.5398193831117624e-10,-1.9769804574854e-05,0.6629830371359677,2.370658099648537e-05,-0.6369519193836836
783,0.664,1044.21,1044.73,-0.413487,6.11442e-06,-0.0699423,-0.0159272,0.509214,0.509214,-1.01443,1.56112e-10,-2.01378e-05,2.36232e-05,1.00674,0.6639827903370308,1.5611201220622206e-10,-2.0137597235847515e-05,0.6639827903370308,2.3623479030066008e-05,-0.6373909418990431
784,0.665,1045.24,1045.75,0.380406,6.48712e-06,0.0062672,0.100019,0.509815,0.509815,-1.01562,1.6117e-10,-1.84921e-05,2.65903e-05,1.00793,0.6649831445703596,1.6116996626180935e-10,-1.849192902214636e-05,0.6649831445703596,2.6590653525060404e-05,-0.6378221900346517
785,0.666,1044.67,1045.19,-0.418365,6.12178e-06,-0.0692734,-0.0150042,0.510415,0.510415,-1.01683,1.61198e-10,-2.04508e-05,2.40761e-05,1.00913,0.6659824342140162,1.611979438820299e-10,-2.0450590883847042e-05,0.6659824342140162,2.4076389831595435e-05,-0.6382601601593483
786,0.667,1044.92,1045.43,-0.404339,6.08388e-06,-0.0689144,-0.0140498,0.511015,0.511015,-1.01803,1.6335e-10,-2.08156e-05,2.39982e-05,1.01032,0.6669823236113672,1.633500001929633e-10,-2.0815383356853623e-05,0.6669823236113672,2.39984879590871e-05,-0.6386939876186222
787,0.668,1045.93,1046.44,0.375018,6.43303e-06,0.00597669,0.0998105,0.511615,0.511615,-1.01922,1.6881e-10,-1.91946e-05,2.69262e-05,1.01151,0.6679828131223726,1.6881007702806983e-10,-1.9194415784795638e-05,0.6679828131223726,2.6926562513462926e-05,-0.6391236860520801
788,0.669,1045.38,1045.89,-0.408054,6.09012e-06,-0.0681339,-0.0129603,0.512214,0.512214,-1.02042,1.68565e-10,-2.11203e-05,2.44645e-05,1.01271,0.66898223412414,1.685649397842326e-10,-2.1120076968084156e-05,0.66898223412414,2.4464799258216985e-05,-0.6395564779017728
789,0.67,1045.62,1046.14,-0.39551,6.05304e-06,-0.0679278,-0.0122407,0.512813,0.512813,-1.02162,1.70741e-10,-2.14822e-05,2.43914e-05,1.0139,0.6699822539584201,1.707409769124979e-10,-2.1481969259218303e-05,0.6699822539584201,2.43916974727032e-05,-0.6399887507127313
790,0.671,1046.62,1047.13,0.369791,6.3802e-06,0.00568756,0.0996014,0.513412,0.513412,-1.02281,1.76569e-10,-1.98852e-05,2.72816e-05,1.01509,0.6709828729840208,1.765689816579652e-10,-1.9885002290775944e-05,0.6709828729840208,2.7281972146298017e-05,-0.6404169092945008
791,0.672,1046.08,1046.6,-0.398104,6.0582e-06,-0.0670399,-0.0109913,0.51401,0.51401,-1.02401,1.76088e-10,-2.17789e-05,2.48705e-05,1.01628,0.6719824195767097,1.7608803304369758e-10,-2.1778662841476226e-05,0.6719824195767097,2.48708092733807e-05,-0.640848150207051
792,0.673,1046.32,1046.84,-0.386985,6.02196e-06,-0.0669807,-0.0104971,0.514608,0.514608,-1.02521,1.78292e-10,-2.2138e-05,2.48022e-05,1.01747,0.6729825640770175,1.7829204779218344e-10,-2.213775495629733e-05,0.6729825640770175,2.480250757708191e-05,-0.6412788739408753
793,0.674,1047.3,1047.82,0.364715,6.32858e-06,0.00539962,0.0993915,0.515205,0.515205,-1.0264,1.84457e-10,-2.05642e-05,2.76557e-05,1.01865,0.6739816328601302,1.84456894203322e-10,-2.0563988558319757e-05,0.6739816328601302,2.765608242238926e-05,-0.6417054981891128
794,0.675,1046.78,1047.29,-0.388498,6.02607e-06,-0.0659892,-0.00909379,0.515803,0.515803,-1.02759,1.8377e-10,-2.24271e-05,2.52936e-05,1.01984,0.6749829732475161,1.8377011024028889e-10,-2.242684851450072e-05,0.6749829732475161,2.5293919885704952e-05,-0.6421316150564463
795,0.676,1047.02,1047.53,-0.378748,5.99068e-06,-0.066071,-0.00881588,0.516399,0.516399,-1.02879,1.86005e-10,-2.27835e-05,2.52298e-05,1.02103,0.6759815606490578,1.8600498918885933e-10,-2.2783240458013054e-05,0.6759815606490578,2.5230118274155444e-05,-0.6425607995561766
796,0.677,1047.98,1048.5,0.359784,6.27811e-06,0.00511272,0.0991806,0.516996,0.516996,-1.02997,1.92477e-10,-2.12323e-05,2.80475e-05,1.02221,0.6769824203676651,1.9247692328860921e-10,-2.123207459636678e-05,0.6769824203676651,2.8047893334770535e-05,-0.6429823290613808
797,0.678,1047.47,1047.99,-0.379219,5.9938e-06,-0.0649799,-0.00726466,0.517592,0.517592,-1.03117,1.91615e-10,-2.30652e-05,2.57328e-05,1.0234,0.6779821997948787,1.9161494613229024e-10,-2.3064934000283088e-05,0.6779821997948787,2.573313109133224e-05,-0.6434104933165743
798,0.679,1048.81,1049.33,0.733613,6.52087e-06,0.0410915,0.153854,0.518188,0.518188,-1.03235,1.98892e-10,-2.05706e-05,2.99837e-05,1.02458,0.678982575268235,1.988920139694983e-10,-2.0570388426621733e-05,0.678982575268235,2.998414951571604e-05,-0.6438310207744655
799,0.68,1048.69,1049.21,0.381775,6.29824e-06,0.00463821,0.0991198,0.518783,0.518783,-1.03355,2.01412e-10,-2.13003e-05,2.93572e-05,1.02577,0.6799818671603763,2.0141199819079247e-10,-2.1300073150265497e-05,0.6799818671603763,2.93576309267074e-05,-0.6442581672104168
800,0.681,1048.69,1049.21,0.154129,6.14302e-06,-0.0148401,0.0691075,0.519378,0.519378,-1.03474,2.03809e-10,-2.178e-05,2.90856e-05,1.02695,0.6809817538081158,2.0380896970095819e-10,-2.17797628174754e-05,0.6809817538081158,2.9086022990121307e-05,-0.6446812482083157
801,0.682,1048.97,1049.48,0.204475,6.12777e-06,-0.0100848,0.076356,0.519973,0.519973,-1.03593,2.06904e-10,-2.17186e-05,2.96449e-05,1.02813,0.6819822355654381,2.069040494490082e-10,-2.1718364152878422e-05,0.6819822355654381,2.9645339414408056e-05,-0.6451038260392707
802,0.683,1049.03,1049.55,0.0409387,6.02075e-06,-0.0259993,0.0523322,0.520567,0.520567,-1.03711,2.09406e-10,-2.2186e-05,2.94049e-05,1.02931,0.6829816298040676,2.0940604805730345e-10,-2.2185753892567384e-05,0.6829816298040676,2.940533232820286e-05,-0.6455223565429836
803,0.684,1049.44,1049.96,0.229912,6.08477e-06,-0.00815205,0.0794979,0.521161,0.521161,-1.0383,2.12858e-10,-2.18349e-05,3.04049e-05,1.03049,0.6839816178592208,2.12857953485468e-10,-2.1834661620312446e-05,0.6839816178592208,3.040536223375412e-05,-0.645943934050331
804,0.685,1049.4,1049.92,-0.041042,5.93603e-06,-0.0341399,0.0401701,0.521755,0.521755,-1.03949,2.15115e-10,-2.2563e-05,2.97697e-05,1.03168,0.6849822000837298,2.1511503689453093e-10,-2.2562745457421762e-05,0.6849822000837298,2.977014312199877e-05,-0.6463650101788241
805,0.686,1049.99,1050.51,0.32398,6.10002e-06,0.000578163,0.0928891,0.522348,0.522348,-1.04067,2.18924e-10,-2.18025e-05,3.13893e-05,1.03285,0.685981690848102,2.1892399004741492e-10,-2.1802262327175193e-05,0.685981690848102,3.138979264916131e-05,-0.6467820533629436
806,0.687,1049.72,1050.23,-0.175902,5.85548e-06,-0.0472572,0.0204586,0.522941,0.522941,-1.04186,2.20686e-10,-2.30714e-05,2.99358e-05,1.03404,0.6869817744862672,2.2068591398749504e-10,-2.307113385724424e-05,0.6869817744862672,2.9936248080453254e-05,-0.6472021327226498
807,0.688,1050.62,1051.14,0.505071,6.20739e-06,0.0176676,0.118929,0.523534,0.523534,-1.04304,2.2496e-10,-2.15689e-05,3.26783e-05,1.03521,0.6879824513499038,2.2496005058769697e-10,-2.156866739300156e-05,0.6879824513499038,3.2678833941535146e-05,-0.6476181886847431
808,0.689,1049.92,1050.44,-0.4228,5.79486e-06,-0.0710319,-0.0153922,0.524126,0.524126,-1.04423,2.25781e-10,-2.38467e-05,2.96984e-05,1.03639,0.6889820328080212,2.257809494921048e-10,-2.3846415669659393e-05,0.6889820328080212,2.9698841001790655e-05,-0.6480372736352071
809,0.69,1050.14,1050.66,-0.421671,5.76006e-06,-0.0719256,-0.0163309,0.524718,0.524718,-1.04541,2.28316e-10,-2.42525e-05,2.95628e-05,1.03757,0.6899822061935554,2.283160327465339e-10,-2.4252205910513247e-05,0.6899822061935554,2.9563236983776164e-05,-0.6484523447122201
810,0.691,1051.17,1051.69,0.379062,6.13335e-06,0.00532896,0.100539,0.52531,0.52531,-1.04659,2.33857e-10,-2.25515e-05,3.26009e-05,1.03874,0.6909829718570306,2.338569338178331e-10,-2.2551245716817547e-05,0.6909829718570306,3.260143141514682e-05,-0.648866926294221
811,0.692,1050.6,1051.11,-0.418285,5.78511e-06,-0.0705429,-0.0143321,0.525901,0.525901,-1.04778,2.34344e-10,-2.45558e-05,3.00362e-05,1.03992,0.6919826381656953,2.3434409968103864e-10,-2.455549850877148e-05,0.6919826381656953,3.0036651091247535e-05,-0.6492845261307478
812,0.693,1050.85,1051.37,-0.385979,5.75876e-06,-0.068374,-0.0106673,0.526492,0.526492,-1.04896,2.37083e-10,-2.48754e-05,3.00307e-05,1.04109,0.692982895451765,2.370830198827889e-10,-2.4875090609777217e-05,0.692982895451765,3.0031150926035366e-05,-0.6496981263178119
813,0.694,1051.8,1052.32,0.344296,6.07498e-06,0.00224852,0.096082,0.527082,0.527082,-1.05013,2.42822e-10,-2.33293e-05,3.28328e-05,1.04227,0.6939820500817135,2.4282198474168126e-10,-2.3329027873941754e-05,0.6939820500817135,3.283333900228058e-05,-0.6501077398393833
814,0.695,1051.32,1051.83,-0.366069,5.76918e-06,-0.0653742,-0.00623299,0.527672,0.527672,-1.05132,2.43325e-10,-2.51307e-05,3.05768e-05,1.04344,0.6949817943868308,2.4332491577183646e-10,-2.5130384226579316e-05,0.6949817943868308,3.057726747512923e-05,-0.650523863986001
815,0.696,1052.6,1053.12,0.700291,6.31556e-06,0.0366666,0.148183,0.528262,0.528262,-1.05249,2.49278e-10,-2.27139e-05,3.46965e-05,1.04461,0.695982128715128,2.4927793162987655e-10,-2.271364204131654e-05,0.695982128715128,3.4697101930492025e-05,-0.6509325119594565
816,0.697,1051.42,1051.94,-0.70756,5.79443e-06,-0.0980277,-0.0554857,0.528852,0.528852,-1.05367,2.47649e-10,-2.61451e-05,2.99797e-05,1.04579,0.6969830534148211,2.476490124081465e-10,-2.614475821982598e-05,0.6969830534148211,2.9980149395703037e-05,-0.6513441686701191
817,0.698,1051.74,1052.26,-0.604491,5.75605e-06,-0.0887859,-0.0410952,0.529441,0.529441,-1.05485,2.50489e-10,-2.64262e-05,3.00344e-05,1.04696,0.6979828708506126,2.5048896290513767e-10,-2.6425850831013342e-05,0.6979828708506126,3.0034851037141763e-05,-0.6517553399123459
818,0.699,1052.99,1053.5,0.416123,6.16947e-06,0.00927837,0.10707,0.530029,0.530029,-1.05602,2.583e-10,-2.42425e-05,3.37982e-05,1.04813,0.6989815783699085,2.583000480171904e-10,-2.4242206152935708e-05,0.6989815783699085,3.3798771165605146e-05,-0.6521625479015225
819,0.7,1052.25,1052.77,-0.542937,5.80012e-06,-0.0821143,-0.0310629,0.530618,0.530618,-1.0572,2.5703e-10,-2.66562e-05,3.06209e-05,1.0493,0.6999825732836318,2.5702995287701924e-10,-2.6655844726608535e-05,0.6999825732836318,3.0621368824590434e-05,-0.6525727540257877
820,0.701,1052.56,1053.08,-0.45101,5.76486e-06,-0.0739908,-0.0184354,0.531206,0.531206,-1.05838,2.60091e-10,-2.6877e-05,3.0765e-05,1.05047,0.7009824569737186,2.600910598005157e-10,-2.6876638816619725e-05,0.7009824569737186,3.07654732474294e-05,-0.6529824763922997
821,0.702,1053.57,1054.09,0.343701,6.04841e-06,0.00278071,0.0974364,0.531794,0.531794,-1.05955,2.67338e-10,-2.51837e-05,3.37859e-05,1.05163,0.7019829287683013,2.6733792957145397e-10,-2.5183382893256834e-05,0.7019829287683013,3.378647075003016e-05,-0.6533882494713809
822,0.703,1053.05,1053.57,-0.396529,5.75988e-06,-0.067795,-0.00916472,0.532381,0.532381,-1.06073,2.66827e-10,-2.70706e-05,3.14055e-05,1.0528,0.7029822860301489,2.6682700493552147e-10,-2.707023359460603e-05,0.7029822860301489,3.1405993157873624e-05,-0.6537970101207916
823,0.704,1053.31,1053.83,-0.359468,5.72187e-06,-0.0651585,-0.00481776,0.532968,0.532968,-1.0619,2.69734e-10,-2.73595e-05,3.14471e-05,1.05397,0.7039822300869167,2.697340129032e-10,-2.7359125732262513e-05,0.7039822300869167,3.1447594465161544e-05,-0.6542018307527007
824,0.705,1054.21,1054.73,0.323877,5.95325e-06,0.00115489,0.0951689,0.533555,0.533555,-1.06307,2.76691e-10,-2.5897e-05,3.41175e-05,1.05514,0.7049827612831545,2.7669089242010614e-10,-2.5896664675562064e-05,0.7049827612831545,3.4118082008482986e-05,-0.6546061780214418
825,0.706,1053.78,1054.29,-0.33232,5.70576e-06,-0.0614648,0.000645835,0.534141,0.534141,-1.06424,2.76482e-10,-2.7579e-05,3.20479e-05,1.0563,0.7059821739805874,2.764819484468717e-10,-2.7578619702928187e-05,0.7059821739805874,3.2048413539431664e-05,-0.6550100524805262
826,0.707,1054.98,1055.49,0.649106,6.12224e-06,0.0326543,0.142743,0.534727,0.534727,-1.06541,2.84193e-10,-2.53346e-05,3.58994e-05,1.05746,0.7069821725054914,2.8419289144210325e-10,-2.533427908169017e-05,0.7069821725054914,3.5900044391246055e-05,-0.6554134546828176
827,0.708,1053.91,1054.43,-0.637583,5.72095e-06,-0.0907695,-0.0434401,0.535313,0.535313,-1.06659,2.81048e-10,-2.85041e-05,3.15892e-05,1.05863,0.7079827572012625,2.8104807370255003e-10,-2.8503693761949833e-05,0.7079827572012625,3.158969894401231e-05,-0.6558198269994724
828,0.709,1054.22,1054.73,-0.54746,5.67905e-06,-0.0828187,-0.0310449,0.535898,0.535898,-1.06776,2.84038e-10,-2.87759e-05,3.16584e-05,1.0598,0.7089822194284232,2.8403790430786557e-10,-2.8775485977794446e-05,0.7089822194284232,3.165890113243641e-05,-0.6562222823196107
829,0.71,1055.37,1055.89,0.388793,5.98953e-06,0.00746846,0.105034,0.536483,0.536483,-1.06892,2.93063e-10,-2.67504e-05,3.51759e-05,1.06096,0.7099822665120408,2.9306290727504347e-10,-2.675004221119881e-05,0.7099822665120408,3.5176518679236324e-05,-0.656620833267879
830,0.711,1054.71,1055.23,-0.486453,5.70245e-06,-0.0761446,-0.0210461,0.537068,0.537068,-1.07009,2.91082e-10,-2.89767e-05,3.22891e-05,1.06212,0.710982898794356,2.9108204735450727e-10,-2.89762801795046e-05,0.710982898794356,3.22896212985313e-05,-0.6570223519587182
831,0.712,1055.01,1055.53,-0.408804,5.66484e-06,-0.0694471,-0.0106248,0.537652,0.537652,-1.07126,2.94281e-10,-2.91996e-05,3.24301e-05,1.06328,0.71198240463455,2.942810439776622e-10,-2.919917369581526e-05,0.71198240463455,3.243062586144596e-05,-0.6574234011474014
832,0.713,1055.96,1056.48,0.324928,5.05206e-06,0.00169916,0.0965384,0.538236,0.538236,-1.07242,3.02446e-10,-2.76177e-05,3.52772e-05,1.06444,0.7129824943566316,3.0244606818996544e-10,-2.7617318634876042e-05,0.7129824943566316,3.5277822247659074e-05,-0.6578205596056299
833,0.714,1055.49,1056.01,-0.356716,4.9908e-06,-0.0634489,-0.00168345,0.538819,0.538819,-1.07359,3.0149e-10,-2.93735e-05,3.30996e-05,1.06561,0.7139814543193761,3.0148994412115826e-10,-2.9373068602955854e-05,0.7139814543193761,3.310014779778214e-05,-0.6582206754374865
834,0.715,1056.73,1057.25,0.668368,4.69295e-06,0.0350412,0.146798,0.539403,0.539403,-1.07475,3.10613e-10,-2.70054e-05,3.71317e-05,1.06676,0.7149827118274337,3.10613090803713e-10,-2.700503535746357e-05,0.7149827118274337,3.713238939018204e-05,-0.6586169095937374
835,0.716,1055.62,1056.13,-0.665841,4.61114e-06,-0.093147,-0.0462972,0.539986,0.539986,-1.07593,3.05983e-10,-3.03084e-05,3.26274e-05,1.06793,0.7159828382569557,3.0598301670181627e-10,-3.0307940705132097e-05,0.7159828382569557,3.2627932279316596e-05,-0.6590195040629656
836,0.717,1055.94,1056.46,-0.558574,3.96501e-06,-0.0834928,-0.0313374,0.540568,0.540568,-1.07709,3.092e-10,-3.0544e-05,3.27514e-05,1.06908,0.7169818309474958,3.091999989379701e-10,-3.054353353681982e-05,0.7169818309474958,3.275193633300866e-05,-0.659414812115255
837,0.718,1057.09,1057.61,0.382124,3.75309e-06,0.00733325,0.105325,0.541151,0.541151,-1.07825,3.19357e-10,-2.84931e-05,3.63012e-05,1.07024,0.7179831232032701,3.1935698530105583e-10,-2.849269407545485e-05,0.7179831232032701,3.630185889647031e-05,-0.6598096618760642
838,0.719,1056.44,1056.96,-0.483991,3.11986e-06,-0.0755463,-0.0194373,0.541732,0.541732,-1.07942,3.1667e-10,-3.07101e-05,3.34333e-05,1.0714,0.7189815614160657,3.16670023536858e-10,-3.0709628449754334e-05,0.7189815614160657,3.3433858898979096e-05,-0.6602074518191746
839,0.72,1056.74,1057.26,-0.400711,2.77975e-06,-0.0682849,-0.00816809,0.542314,0.542314,-1.08058,-1.04376e-09,-3.09115e-05,3.36067e-05,1.07255,0.7199822998714525,-1.0437599673451814e-09,-3.091102224450637e-05,0.7199822998714525,3.3607264711577045e-05,-0.6606013826510091
840,0.721,1057.67,1058.19,0.314916,2.71456e-06,0.0012382,0.0963229,0.542895,0.542895,-1.08174,3.28942e-10,-2.93564e-05,3.64083e-05,1.07371,0.7209818999433799,3.2894198476185466e-10,-2.9355969105138158e-05,0.7209818999433799,3.640896279022421e-05,-0.6609948567880128
841,0.722,1057.23,1057.75,-0.342569,2.3296e-06,-0.0617124,0.00162008,0.543476,0.543476,-1.0829,3.27651e-10,-3.10617e-05,3.43114e-05,1.07486,0.7219820809516946,3.276510174288205e-10,-3.1061217590444556e-05,0.7219820809516946,3.431198864278784e-05,-0.6613878747596449
842,0.723,1058.43,1058.94,0.644375,2.50846e-06,0.0332671,0.144523,0.544057,0.544057,-1.08406,3.37707e-10,-2.87652e-05,3.82284e-05,1.07601,0.7229828432340193,3.3770697349666534e-10,-2.8764786285551125e-05,0.7229828432340193,3.822913071460654e-05,-0.66178043709475
843,0.724,1057.36,1057.88,-0.633538,2.09939e-06,-0.0897348,-0.0404012,0.544637,0.544637,-1.08522,3.32366e-10,-3.19514e-05,3.39084e-05,1.07717,0.7239824631448464,3.3236591256979864e-10,-3.195088955942893e-05,0.7239824631448464,3.390897489619071e-05,-0.6621725443215603
844,0.725,1057.68,1058.2,-0.530472,1.96372e-06,-0.0804955,-0.0261229,0.545217,0.545217,-1.08638,3.35725e-10,-3.21766e-05,3.40477e-05,1.07833,0.7249826630033904,3.357250033531045e-10,-3.217608233874181e-05,0.7249826630033904,3.404827962949497e-05,-0.6625641969676951
845,0.726,1058.79,1059.31,0.366773,2.10744e-06,0.00633354,0.104299,0.545796,0.545796,-1.08753,3.4649e-10,-3.0205e-05,3.74728e-05,1.07947,0.7259817171635383,3.4648994784447495e-10,-3.020454383362292e-05,0.7259817171635383,3.747350211424916e-05,-0.6629520250972659
846,0.727,1058.18,1058.7,-0.454423,1.84477e-06,-0.0723829,-0.0139998,0.546376,0.546376,-1.0887,3.43567e-10,-3.23227e-05,3.47593e-05,1.08063,0.7269830769257528,3.4356695266524184e-10,-3.232217762716427e-05,0.7269830769257528,3.4759904111503204e-05,-0.6633461406253593
847,0.728,1058.47,1058.99,-0.377831,1.76511e-06,-0.0657886,-0.00375518,0.546954,0.546954,-1.08985,3.47073e-10,-3.25224e-05,3.49354e-05,1.08178,0.7279815616785115,3.470730369770081e-10,-3.2521871152435544e-05,0.7279815616785115,3.493601024828763e-05,-0.663733070036586
848,0.729,1059.36,1059.88,0.30371,1.87131e-06,0.000588418,0.0958312,0.547533,0.547533,-1.09101,3.56395e-10,-3.10292e-05,3.76398e-05,1.08293,0.7289823527037662,3.5639491358097075e-10,-3.1028718599390714e-05,0.7289823527037662,3.7640508386171945e-05,-0.6641229135224074
849,0.73,1058.95,1059.47,-0.320316,1.68535e-06,-0.0592623,0.00594086,0.548111,0.548111,-1.09216,3.55006e-10,-3.26597e-05,3.56591e-05,1.08408,0.7299819933719518,3.550060245771647e-10,-3.2659166677828644e-05,0.7299819933719518,3.565973579333637e-05,-0.6645089501582464
850,0.731,1060.09,1060.61,0.612181,1.93774e-06,0.0306092,0.140936,0.548689,0.548689,-1.09331,3.65646e-10,-3.04763e-05,3.94006e-05,1.08523,0.7309822119994576,3.6564595795596233e-10,-3.0475835602339352e-05,0.7309822119994576,3.940137621394335e-05,-0.6648945431071234
851,0.732,1059.1,1059.62,-0.589794,1.69202e-06,-0.0852905,-0.0330177,0.549267,0.549267,-1.09448,3.60055e-10,-3.34961e-05,3.53377e-05,1.08638,0.7319830089204409,3.6005509684855497e-10,-3.349553901188518e-05,0.7319830089204409,3.5338324383848985e-05,-0.6652863872181833
852,0.733,1059.41,1059.93,-0.495687,1.6429e-06,-0.0769413,-0.020108,0.549844,0.549844,-1.09563,3.63534e-10,-3.37184e-05,3.54813e-05,1.08753,0.732982651485734,3.6353409171852036e-10,-3.371783154115793e-05,0.732982651485734,3.548192946878359e-05,-0.6656710866283246
853,0.734,1060.46,1060.98,0.350627,1.8105e-06,0.00516571,0.103005,0.550421,0.550421,-1.09678,3.74613e-10,-3.18445e-05,3.87547e-05,1.08867,0.7339828710112242,3.746130072812548e-10,-3.1843992969293744e-05,0.7339828710112242,3.875545097309363e-05,-0.6660553438884291
854,0.735,1059.9,1060.42,-0.421224,1.63923e-06,-0.0689468,-0.00819079,0.550997,0.550997,-1.09793,3.71709e-10,-3.38504e-05,3.62135e-05,1.08982,0.7349819328471132,3.7170910793804524e-10,-3.3849827081655626e-05,0.7349819328471132,3.621415571664066e-05,-0.6664391595066772
855,0.736,1060.18,1060.7,-0.353574,1.60455e-06,-0.0632457,0.000694673,0.551573,0.551573,-1.09908,3.75313e-10,-3.40535e-05,3.63847e-05,1.09096,0.7359815703083841,3.753128918759785e-10,-3.405292018610062e-05,0.7359815703083841,3.638536193117936e-05,-0.6668225339906653
856,0.737,1061.03,1061.55,0.293067,1.71643e-06,-0.000103189,0.0952608,0.552149,0.552149,-1.10023,3.84893e-10,-3.26253e-05,3.89875e-05,1.09211,0.7369817837266923,3.8489300635546897e-10,-3.26247678006375e-05,0.7369817837266923,3.898826002246558e-05,-0.6672054678474058
857,0.738,1060.65,1061.17,-0.298178,1.58543e-06,-0.0569073,0.0100864,0.552725,0.552725,-1.10139,3.8355e-10,-3.41819e-05,3.7121e-05,1.09325,0.7379825734338847,3.835500805848824e-10,-3.4181315805459356e-05,0.7379825734338847,3.71216889929471e-05,-0.6675912856870928
858,0.739,1061.74,1062.26,0.580762,1.81184e-06,0.027923,0.137302,0.5533,0.5533,-1.10253,3.94527e-10,-3.21117e-05,4.06873e-05,1.09439,0.7389822007789291,3.9452707767395623e-10,-3.211118442492111e-05,0.7389822007789291,4.0688127739496593e-05,-0.6679700157042832
859,0.74,1060.82,1061.34,-0.547309,1.62953e-06,-0.0810424,-0.0259718,0.553875,0.553875,-1.10369,3.88972e-10,-3.49681e-05,3.68762e-05,1.09554,0.7399824030749795,3.889719657479418e-10,-3.49674886230833e-05,0.7399824030749795,3.6876879935476836e-05,-0.6683549471826451
860,0.741,1061.11,1061.63,-0.462428,1.59731e-06,-0.07361,-0.0144654,0.554449,0.554449,-1.10483,3.92563e-10,-3.51897e-05,3.70207e-05,1.09668,0.7409814396704175,3.9256309314339433e-10,-3.5189080849762355e-05,0.7409814396704175,3.7021385274504937e-05,-0.6687328071217694
861,0.742,1062.12,1062.64,0.335549,1.74166e-06,0.00400432,0.101709,0.555024,0.555024,-1.10598,4.03776e-10,-3.34096e-05,4.01485e-05,1.09782,0.7419827918593929,4.0377590160289856e-10,-3.3409041905518855e-05,0.7419827918593929,4.0149305961856285e-05,-0.6691135454270933
862,0.743,1061.6,1062.12,-0.390114,1.60931e-06,-0.06579,-0.00283736,0.555598,0.555598,-1.10713,4.01041e-10,-3.53105e-05,3.77689e-05,1.09897,0.7429829770075964,4.0104097820403695e-10,-3.5309876591615996e-05,0.7429829770075964,3.7769613253857415e-05,-0.6694938461350327
863,0.744,1062.89,1063.4,0.686895,1.89327e-06,0.0383147,0.153099,0.556171,0.556171,-1.10827,4.13855e-10,-3.27435e-05,4.20746e-05,1.1001,0.7439819924440105,4.138549503096556e-10,-3.274296393740439e-05,0.7439819924440105,4.207548514845172e-05,-0.6698704084691267
864,0.745,1062.74,1063.26,0.334052,1.75143e-06,0.00156594,0.0985856,0.556744,0.556744,-1.10942,4.16327e-10,-3.35283e-05,4.13779e-05,1.10124,0.7449815804803039,4.1632697289628595e-10,-3.3527737932859125e-05,0.7449815804803039,4.1378756077126155e-05,-0.6702498392848517
865,0.746,1062.77,1063.29,0.158588,1.65845e-06,-0.0134685,0.0756845,0.557317,0.557317,-1.11056,4.19449e-10,-3.39129e-05,4.12581e-05,1.10238,0.7459817414446701,4.194489200415319e-10,-3.3912324964080476e-05,0.7459817414446701,4.125895112716549e-05,-0.6706255402778125
866,0.747,1062.98,1063.49,0.156366,1.62652e-06,-0.0137614,0.0752665,0.55789,0.55789,-1.11171,4.23582e-10,-3.39694e-05,4.16381e-05,1.10352,0.7469824756654915,4.235820583176064e-10,-3.396882304651516e-05,0.7469824756654915,4.1638966877810546e-05,-0.6710041031910972
867,0.748,1063.1,1063.62,0.0754099,1.58304e-06,-0.0218912,0.0631951,0.558462,0.558462,-1.11285,4.27131e-10,-3.42472e-05,4.16892e-05,1.10466,0.7479820354884281,4.271309972381232e-10,-3.424661357132042e-05,0.7479820354884281,4.1690069006783403e-05,-0.6713789448131393
868,0.749,1063.38,1063.9,0.151714,1.58554e-06,-0.0146945,0.0740335,0.559034,0.559034,-1.11399,4.31744e-10,-3.4141e-05,4.2314e-05,1.1058,0.7489821672231347,4.317439739054407e-10,-3.414041720273264e-05,0.7489821672231347,4.2314895249973006e-05,-0.671753359359212
869,0.75,1063.48,1063.99,0.0400694,1.54227e-06,-0.0256385,0.0577256,0.559606,0.559606,-1.11514,4.351e-10,-3.45032e-05,4.22384e-05,1.10693,0.7499828711968384,4.3509995606427765e-10,-3.4502604771446954e-05,0.7499828711968384,4.223929205382504e-05,-0.6721306260260376
870,0.751,1063.82,1064.34,0.182705,1.57181e-06,-0.0119738,0.0782227,0.560177,0.560177,-1.11628,4.4012e-10,-3.4236e-05,4.31032e-05,1.10807,0.7509823967536811,4.4011994049242276e-10,-3.423541395486396e-05,0.7509823967536811,4.310412895636162e-05,-0.6725041841437844
871,0.752,1063.84,1064.36,-0.00662462,1.51342e-06,-0.0304298,0.0506877,0.560748,0.560748,-1.11742,4.43022e-10,-3.47942e-05,4.27349e-05,1.1092,0.7519824932025907,4.430220634787929e-10,-3.479359468883114e-05,0.7519824932025907,4.273581314895303e-05,-0.6728773166479229
872,0.753,1064.29,1064.81,0.241391,1.58184e-06,-0.00655338,0.0864408,0.561319,0.561319,-1.11856,4.48644e-10,-3.42663e-05,4.39888e-05,1.11034,0.7529831608696402,4.486440108308898e-10,-3.426571291709202e-05,0.7529831608696402,4.3989767521512846e-05,-0.6732500240233761
873,0.754,1064.17,1064.69,-0.0848725,1.49117e-06,-0.0382672,0.0391007,0.561889,0.561889,-1.1197,4.50771e-10,-3.51676e-05,4.31084e-05,1.11147,0.7539826460975647,4.5077097610146666e-10,-3.5166981627199334e-05,0.7539826460975647,4.310932918039079e-05,-0.6736223067545144
874,0.755,1064.8,1065.32,0.343203,1.62657e-06,0.00306214,0.100918,0.562459,0.562459,-1.12084,4.57339e-10,-3.41916e-05,4.50308e-05,1.11261,0.7549827011944665,4.573390555151491e-10,-3.4191015473861164e-05,0.7549827011944665,4.503181390158595e-05,-0.6739941653251569
875,0.756,1064.45,1064.96,-0.218629,1.48062e-06,-0.0514666,0.0195093,0.563028,0.563028,-1.12198,4.58161e-10,-3.56828e-05,4.32704e-05,1.11374,0.7559815705028148,4.5816106464258155e-10,-3.568216337646035e-05,0.7559815705028148,4.32713361773196e-05,-0.6743656002185705
876,0.757,1065.39,1065.9,0.518292,1.74176e-06,0.0198155,0.126038,0.563598,0.563598,-1.12311,4.66193e-10,-3.39354e-05,4.63429e-05,1.11487,0.7569827653114145,4.661930841365347e-10,-3.3934824200776426e-05,0.7569827653114145,4.6343973848728126e-05,-0.6747333592673284
877,0.758,1064.62,1065.14,-0.447178,1.51367e-06,-0.0738098,-0.0137285,0.564167,0.564167,-1.12425,4.64796e-10,-3.64375e-05,4.30749e-05,1.116,0.7579827729800781,4.647959794823464e-10,-3.643683616239013e-05,0.7579827729800781,4.3075827736771544e-05,-0.6751039519597937
878,0.759,1064.88,1065.4,-0.390028,1.50707e-06,-0.0691205,-0.00637424,0.564735,0.564735,-1.12539,4.68602e-10,-3.66923e-05,4.31697e-05,1.11713,0.7589815908325472,4.686020460553664e-10,-3.6691626845830605e-05,0.7589815908325472,4.317063182490699e-05,-0.6754741224173092
879,0.76,1065.78,1066.3,0.306781,1.70183e-06,-0.000927239,0.0952979,0.565304,0.565304,-1.12652,4.77188e-10,-3.5127e-05,4.59658e-05,1.11826,0.7599827361565648,4.771880668386075e-10,-3.51263830541404e-05,0.7599827361565648,4.596685644364662e-05,-0.675840629543452
880,0.761,1065.35,1065.87,-0.327295,1.54053e-06,-0.0621203,0.00396926,0.565872,0.565872,-1.12766,4.77242e-10,-3.68332e-05,4.38856e-05,1.11939,0.7609826903107975,4.772420236776043e-10,-3.683252166597484e-05,0.7609826903107975,4.388656298703886e-05,-0.6762099606670335
881,0.762,1066.48,1067.0,0.601804,1.85904e-06,0.0279772,0.138439,0.566439,0.566439,-1.12879,4.86559e-10,-3.4607e-05,4.76683e-05,1.12052,0.7619814506179932,4.865590153002586e-10,-3.460640118468916e-05,0.7619814506179932,4.766943615153174e-05,-0.6765756367655731
882,0.763,1065.51,1066.03,-0.575804,1.60674e-06,-0.0862566,-0.0319373,0.567007,0.567007,-1.12993,4.83632e-10,-3.76544e-05,4.35909e-05,1.12165,0.7629825403645176,4.836320233181368e-10,-3.765369108199579e-05,0.7629825403645176,4.3591850097168816e-05,-0.6769441304583477
883,0.764,1065.82,1066.34,-0.463404,1.58821e-06,-0.076033,-0.016338,0.567574,0.567574,-1.13106,4.87804e-10,-3.78213e-05,4.38167e-05,1.12278,0.7639824349082196,4.878040194000732e-10,-3.782058478363215e-05,0.7639824349082196,4.381765996552822e-05,-0.6773089774135772
884,0.765,1066.8,1067.32,0.313768,1.77898e-06,-0.000125114,0.0967514,0.568141,0.568141,-1.13219,4.97326e-10,-3.60696e-05,4.68881e-05,1.1239,0.7649828965528855,4.973259581930733e-10,-3.606894949981232e-05,0.7649828965528855,4.6889199264210646e-05,-0.6776734123245962
885,0.766,1066.32,1066.84,-0.367705,1.61063e-06,-0.0659369,-0.00137296,0.568707,0.568707,-1.13333,4.96821e-10,-3.7907e-05,4.46148e-05,1.12503,0.7659821596371106,4.968210287614738e-10,-3.790628153876874e-05,0.7659821596371106,4.461579525494308e-05,-0.678040655266297
886,0.767,1067.53,1068.05,0.640556,1.93342e-06,0.0319608,0.144579,0.569273,0.569273,-1.13445,5.07019e-10,-3.54725e-05,4.87038e-05,1.12615,0.7669819884643316,5.070190933764707e-10,-3.5471870858283516e-05,0.7669819884643316,4.8704986049363796e-05,-0.6784010478748649
887,0.768,1066.46,1066.98,-0.629725,1.68626e-06,-0.0913575,-0.0391691,0.569839,0.569839,-1.13559,5.03083e-10,-3.87647e-05,4.42656e-05,1.12728,0.7679823833548496,5.030829086649646e-10,-3.876394865875987e-05,0.7679823833548496,4.42665797362185e-05,-0.6787674617846764
888,0.769,1066.8,1067.31,-0.492474,1.65543e-06,-0.0786423,-0.0198734,0.570404,0.570404,-1.13672,5.07492e-10,-3.88879e-05,4.45564e-05,1.12841,0.7689815756466869,5.07492048384961e-10,-3.8887143875454555e-05,0.7689815756466869,4.455739265107894e-05,-0.6791302495391747
889,0.77,1067.8,1068.32,0.313971,1.82733e-06,0.000114103,0.0973522,0.57097,0.57097,-1.13785,5.17659e-10,-3.70625e-05,4.77347e-05,1.12953,0.7699831026239004,5.176590267552683e-10,-3.7061813194072535e-05,0.7699831026239004,4.7735839318940876e-05,-0.6794926275750451
890,0.771,1067.31,1067.83,-0.380915,1.66353e-06,-0.0670489,-0.00268788,0.571534,0.571534,-1.13898,5.16805e-10,-3.89419e-05,4.5401e-05,1.13065,0.7709816546589845,5.168050432047266e-10,-3.89411417740515e-05,0.7709816546589845,4.5402030641072955e-05,-0.6798545963550082
891,0.772,1068.54,1069.06,0.650128,1.96674e-06,0.033163,0.146561,0.572099,0.572099,-1.1401,5.27661e-10,-3.64384e-05,4.95884e-05,1.13177,0.77198254201792,5.276610259841163e-10,-3.6437736129601994e-05,0.77198254201792,4.958962952494872e-05,-0.6802129584868359
892,0.773,1067.44,1067.96,-0.643409,1.73914e-06,-0.0925245,-0.040534,0.572663,0.572663,-1.14124,5.23084e-10,-3.98015e-05,4.50493e-05,1.1329,0.7729822220548892,5.230840205427967e-10,-3.9800707930859325e-05,0.7729822220548892,4.5050314734895736e-05,-0.680577307995482
893,0.774,1067.79,1068.31,-0.496868,1.70016e-06,-0.078873,-0.0198666,0.573227,0.573227,-1.14236,5.27655e-10,-3.99026e-05,4.53725e-05,1.13402,0.773982466070426,5.276550307797834e-10,-3.990180390189835e-05,0.773982466070426,4.5373529347525476e-05,-0.680934861143388
894,0.775,1068.79,1069.31,0.3098,1.84922e-06,-4.16754e-05,0.0973555,0.57379,0.57379,-1.14348,5.38243e-10,-3.80686e-05,4.85603e-05,1.13514,0.7749814994003175,5.382430057210286e-10,-3.8067875400060736e-05,0.7749814994003175,4.8561479070396985e-05,-0.681292014055942
895,0.776,1068.3,1068.82,-0.378541,1.69668e-06,-0.0666315,-0.00173336,0.574354,0.574354,-1.14461,5.37209e-10,-3.99376e-05,4.62443e-05,1.13626,0.7759828713263179,5.372089439958927e-10,-3.9936802504692004e-05,0.7759828713263179,4.624536928421463e-05,-0.6816519506775672
896,0.777,1069.52,1070.04,0.642896,1.97063e-06,0.0327362,0.146111,0.574917,0.574917,-1.14573,5.48526e-10,-3.74462e-05,5.04094e-05,1.13737,0.7769830312014612,5.485258913751068e-10,-3.744549889983517e-05,0.7769830312014612,5.0410670575207206e-05,-0.6820083008994337
897,0.778,1068.44,1068.96,-0.634168,1.76815e-06,-0.0914675,-0.0385933,0.575479,0.575479,-1.14686,5.43605e-10,-4.07795e-05,4.5919e-05,1.1385,0.7779819763422884,5.436049388407582e-10,-4.077866852747469e-05,0.7779819763422884,4.592005429349122e-05,-0.682367428574067
898,0.779,1068.79,1069.31,-0.487425,1.72526e-06,-0.077788,-0.0179088,0.576041,0.576041,-1.14799,5.48283e-10,-4.08719e-05,4.62546e-05,1.13962,0.7789814830480699,5.482829745773188e-10,-4.0871064755254594e-05,0.7789814830480699,4.625566976046436e-05,-0.6827261506636266
899,0.78,1069.78,1070.29,0.303384,1.85235e-06,-0.00042135,0.0970189,0.576603,0.576603,-1.14911,5.5912e-10,-3.90659e-05,4.93975e-05,1.14073,0.7799815516344935,5.591200835652899e-10,-3.9065136937632694e-05,0.7799815516344935,4.9398720076698766e-05,-0.6830812984549954
900,0.781,1069.3,1069.82,-0.367718,1.71405e-06,-0.0654035,0.000416964,0.577165,0.577165,-1.15023,5.58035e-10,-4.08961e-05,4.71413e-05,1.14185,0.7809821824174252,5.580349515810212e-10,-4.089526376593877e-05,0.7809821824174252,4.7142411168543674e-05,-0.6834360487035035
901,0.782,1070.49,1071.01,0.626733,1.95687e-06,0.0314193,0.144333,0.577726,0.577726,-1.15135,5.69645e-10,-3.8461e-05,5.12186e-05,1.14296,0.7819815937304233,5.696449978387363e-10,-3.8460260385231315e-05,0.7819815937304233,5.1219911694877496e-05,-0.6837904018541494
902,0.783,1069.45,1069.97,-0.612816,1.78016e-06,-0.0892522,-0.0349407,0.578287,0.578287,-1.15248,5.64611e-10,-4.17105e-05,4.68568e-05,1.14408,0.7829815658704653,5.64611024600481e-10,-4.170963012917195e-05,0.7829815658704653,4.685789779701466e-05,-0.6841475168920579
903,0.784,1069.79,1070.31,-0.470866,1.73649e-06,-0.0760446,-0.0149824,0.578848,0.578848,-1.1536,5.69359e-10,-4.18019e-05,4.71932e-05,1.1452,0.7839820991522635,5.693590043875929e-10,-4.1801026312793255e-05,0.7839820991522635,4.719431361666082e-05,-0.6845010736443989
904,0.785,1070.75,1071.27,0.296001,1.84432e-06,-0.000920071,0.0965001,0.579408,0.579408,-1.15471,5.80318e-10,-4.00429e-05,5.02632e-05,1.14631,0.7849814089084053,5.803180158636678e-10,-4.0042098293779915e-05,0.7849814089084053,5.026446321587663e-05,-0.6848510831614345
905,0.786,1070.3,1070.82,-0.352798,1.72084e-06,-0.0638014,0.00311193,0.579969,0.579969,-1.15584,5.79277e-10,-4.18204e-05,4.80871e-05,1.14742,0.7859830644169026,5.792770707557793e-10,-4.181952553927726e-05,0.7859830644169026,4.808825620306045e-05,-0.6852070003064026
906,0.787,1071.45,1071.97,0.606404,1.93439e-06,0.0296627,0.141902,0.580528,0.580528,-1.15695,5.91044e-10,-3.94635e-05,5.20444e-05,1.14853,0.7869817080448012,5.910441025491764e-10,-3.9462721326377626e-05,0.7869817080448012,5.2045754333374106e-05,-0.6855562266795685
907,0.788,1070.46,1070.97,-0.585871,1.78164e-06,-0.0865194,-0.0305328,0.581088,0.581088,-1.15807,5.86068e-10,-4.26035e-05,4.7849e-05,1.14965,0.787982698052349,5.860680829528064e-10,-4.260259248378695e-05,0.787982698052349,4.785014478159155e-05,-0.6859082065601607
908,0.789,1070.78,1071.3,-0.451196,1.73918e-06,-0.0740327,-0.0116689,0.581647,0.581647,-1.15919,5.90863e-10,-4.26983e-05,4.81797e-05,1.15076,0.7889824597879316,5.908629141515576e-10,-4.269738844053794e-05,0.7889824597879316,4.8180860660496094e-05,-0.686259792443966
909,0.79,1071.72,1072.24,0.28837,1.83079e-06,-0.00147701,0.0958902,0.582206,0.582206,-1.1603,6.01852e-10,-4.09945e-05,5.11646e-05,1.15187,0.7899827805465565,6.018519016492974e-10,-4.099365973697644e-05,0.7899827805465565,5.1165908930395076e-05,-0.6866078508661919
910,0.791,1071.29,1071.81,-0.336318,1.72138e-06,-0.0620781,0.00597539,0.582764,0.582764,-1.16142,6.00924e-10,-4.27142e-05,4.90761e-05,1.15298,0.7909818696580402,6.009239772453157e-10,-4.2713287761508845e-05,0.7909818696580402,4.9077304251410325e-05,-0.6869586535870276
911,0.792,1072.4,1072.92,0.584652,1.90894e-06,0.0277284,0.139206,0.583322,0.583322,-1.16253,6.12743e-10,-4.04439e-05,5.2901e-05,1.15409,0.7919815164168174,6.127429674762652e-10,-4.044308215644943e-05,0.7919815164168174,5.290239928257279e-05,-0.6873059367037588
912,0.793,1071.46,1071.97,-0.557073,1.77735e-06,-0.0836357,-0.0259154,0.58388,0.58388,-1.16366,6.07946e-10,-4.34652e-05,4.88854e-05,1.1552,0.7929817211341417,6.079459158314648e-10,-4.34642554019149e-05,0.7929817211341417,4.888659491064651e-05,-0.6876590814309351
913,0.794,1071.78,1072.29,-0.430681,1.73718e-06,-0.0719716,-0.00829448,0.584438,0.584438,-1.16477,6.12774e-10,-4.35657e-05,4.9207e-05,1.15631,0.7939824841214413,6.127740537209547e-10,-4.3564751028624116e-05,0.7939824841214413,4.9208210684215103e-05,-0.6880055875040988
914,0.795,1072.68,1073.2,0.280868,1.81538e-06,-0.00205851,0.0952397,0.584995,0.584995,-1.16588,6.23731e-10,-4.19194e-05,5.21035e-05,1.15742,0.7949820107074093,6.237310667955853e-10,-4.191852139423524e-05,0.7949820107074093,5.2104857410917305e-05,-0.6883517091689072
915,0.796,1072.27,1072.79,-0.319675,1.71867e-06,-0.0603715,0.00880299,0.585552,0.585552,-1.167,6.2296e-10,-4.35809e-05,5.0103e-05,1.15853,0.7959820941847653,6.229599058826807e-10,-4.357995036641249e-05,0.7959820941847653,5.010425517637529e-05,-0.6887005598617835
916,0.797,1073.35,1073.87,0.562966,1.88382e-06,0.0257606,0.136461,0.586109,0.586109,-1.1681,6.34754e-10,-4.13984e-05,5.3794e-05,1.15963,0.7969827348637848,6.347540271178786e-10,-4.139754309806509e-05,0.7969827348637848,5.379544692307725e-05,-0.6890428009788119
917,0.798,1072.45,1072.97,-0.528443,1.77032e-06,-0.0807981,-0.021381,0.586665,0.586665,-1.16922,6.30218e-10,-4.43007e-05,4.99581e-05,1.16074,0.797982135071881,6.302180999284701e-10,-4.429971873842753e-05,0.797982135071881,4.995934792662027e-05,-0.689390878082152
918,0.799,1072.76,1073.28,-0.410522,1.73294e-06,-0.0699762,-0.00502938,0.587221,0.587221,-1.17033,6.35073e-10,-4.44079e-05,5.02692e-05,1.16185,0.7989820911009968,6.350731052151559e-10,-4.440691398377439e-05,0.7989820911009968,5.027046351746556e-05,-0.6897354629275114
919,0.8,1073.64,1074.15,0.273676,1.80015e-06,-0.0026469,0.0945751,0.587777,0.587777,-1.17144,6.45952e-10,-4.28183e-05,5.30786e-05,1.16295,0.7999826032602548,6.459519585888529e-10,-4.2817383309690094e-05,0.7999826032602548,5.308000869375107e-05,-0.6900796654958954
920,0.801,1073.25,1073.77,-0.303581,1.71454e-06,-0.0587504,0.0114931,0.588332,0.588332,-1.17255,6.4537e-10,-4.44234e-05,5.11632e-05,1.16405,0.8009818708761776,6.453699796793444e-10,-4.442241329538632e-05,0.8009818708761776,5.116450885878088e-05,-0.690423486211396
921,0.802,1074.29,1074.81,0.542087,1.86063e-06,0.0238331,0.133775,0.588887,0.588887,-1.17366,6.57082e-10,-4.23263e-05,5.47241e-05,1.16515,0.8019816932395558,6.570819444107201e-10,-4.232540425475051e-05,0.8019816932395558,5.472559739083671e-05,-0.690766925497635
922,0.803,1073.44,1073.96,-0.500982,1.76234e-06,-0.0781028,-0.0170719,0.589442,0.589442,-1.17477,6.52863e-10,-4.51139e-05,5.10613e-05,1.16626,0.802982070658359,6.528630969171445e-10,-4.5112882383291364e-05,0.802982070658359,5.106260365028703e-05,-0.6911099837777637
923,0.804,1073.74,1074.26,-0.391295,1.7279e-06,-0.0681002,-0.00195284,0.589997,0.589997,-1.17588,6.57741e-10,-4.52281e-05,5.13614e-05,1.16736,0.8039830034407287,6.577409727981376e-10,-4.522707722487418e-05,0.8039830034407287,5.1362719019287795e-05,-0.6914526614744643
924,0.805,1074.59,1075.1,0.266862,1.78613e-06,-0.00323352,0.0939093,0.590551,0.590551,-1.17698,6.68511e-10,-4.36928e-05,5.40875e-05,1.16846,0.8049826869113881,6.685110243154213e-10,-4.369184548347338e-05,0.8049826869113881,5.408896275516106e-05,-0.6917918769441298
925,0.806,1074.22,1074.74,-0.288355,1.71005e-06,-0.0572441,0.0140028,0.591105,0.591105,-1.17809,6.68138e-10,-4.52445e-05,5.22524e-05,1.16957,0.8059829243601278,6.681379893791473e-10,-4.524347648304783e-05,0.8059829243601278,5.225376518036562e-05,-0.6921337981593405
926,0.807,1075.22,1075.74,0.522334,1.84005e-06,0.0219796,0.1312,0.591658,0.591658,-1.17919,6.79727e-10,-4.32286e-05,5.56897e-05,1.17066,0.8069819091111243,6.797269413993945e-10,-4.322766565756364e-05,0.8069819091111243,5.5691250700151684e-05,-0.6924722647905894
927,0.808,1074.41,1074.93,-0.475115,1.75437e-06,-0.0755895,-0.0130457,0.592211,0.592211,-1.18031,6.75859e-10,-4.59078e-05,5.21904e-05,1.17177,0.8079814464534658,6.758589243816004e-10,-4.5906746253043806e-05,0.8079814464534658,5.219176194271036e-05,-0.6928165030446173
928,0.809,1074.71,1075.23,-0.373231,1.72283e-06,-0.0663635,0.000906418,0.592764,0.592764,-1.18141,6.80759e-10,-4.60288e-05,5.24795e-05,1.17287,0.8089815366928192,6.80759004723086e-10,-4.6027740691068075e-05,0.8089815366928192,5.2480877072991206e-05,-0.6931542191133774
929,0.81,1075.53,1076.05,0.260441,1.77371e-06,-0.00381455,0.0932481,0.593317,0.593317,-1.18251,6.914e-10,-4.45448e-05,5.51268e-05,1.17396,0.8099821801350215,6.914000483249083e-10,-4.454380789509216e-05,0.8099821801350215,5.512831951004493e-05,-0.6934915638987051
930,0.811,1075.18,1075.7,-0.274106,1.70574e-06,-0.0558608,0.0163207,0.593869,0.593869,-1.18362,6.91248e-10,-4.60467e-05,5.33669e-05,1.17506,0.810981566103607,6.912479477705347e-10,-4.604563986698729e-05,0.810981566103607,5.336832403823877e-05,-0.6938315995081011
931,0.812,1076.15,1076.67,0.503801,1.82217e-06,0.0202122,0.128751,0.594421,0.594421,-1.18472,7.02683e-10,-4.41072e-05,5.66879e-05,1.17616,0.8119815038855336,7.026830228795689e-10,-4.4106227291784705e-05,0.8119815038855336,5.668950678927587e-05,-0.6941681995846596
932,0.813,1075.38,1075.9,-0.45096,1.74688e-06,-0.0732673,-0.00931532,0.594973,0.594973,-1.18583,6.9919e-10,-4.66847e-05,5.33416e-05,1.17726,0.8129819937854865,6.991900391994932e-10,-4.6683610286368804e-05,0.8129819937854865,5.3343022688334685e-05,-0.6945074845451316
933,0.814,1075.67,1076.19,-0.356375,1.71811e-06,-0.0647682,0.00354603,0.595525,0.595525,-1.18693,7.04111e-10,-4.68124e-05,5.36201e-05,1.17836,0.8139830361083187,7.041109917338417e-10,-4.681130431671843e-05,0.8139830361083187,5.362153758325938e-05,-0.6948433415569099
934,0.815,1076.47,1076.99,0.254395,1.76299e-06,-0.00438858,0.0925935,0.596076,0.596076,-1.18803,7.14608e-10,-4.53766e-05,5.61933e-05,1.17945,0.8149828161753283,7.146079283870677e-10,-4.5375570497663276e-05,0.8149828161753283,5.619487887309482e-05,-0.6951788293290941
935,0.816,1076.14,1076.66,-0.26083,1.70186e-06,-0.0545978,0.0184512,0.596627,0.596627,-1.18913,7.14684e-10,-4.68318e-05,5.45035e-05,1.18055,0.81598314727295,7.146840896865569e-10,-4.68307034083848e-05,0.81598314727295,5.450498534265158e-05,-0.6955139482676249
936,0.817,1077.07,1077.59,0.486464,1.80685e-06,0.0185317,0.12643,0.597177,0.597177,-1.19023,7.25946e-10,-4.49639e-05,5.77154e-05,1.18164,0.8169822127217636,7.259459700037496e-10,-4.496288913902191e-05,0.8169822127217636,5.7717065565787706e-05,-0.6958486987779957
937,0.818,1076.35,1076.87,-0.428478,1.74005e-06,-0.0711306,-0.0058713,0.597727,0.597727,-1.19133,7.22838e-10,-4.74466e-05,5.45117e-05,1.18274,0.8179818278077107,7.228380116686139e-10,-4.7445474427920686e-05,0.8179818278077107,5.4513185789639707e-05,-0.696183081265255
938,0.819,1076.62,1077.14,-0.340686,1.71388e-06,-0.0633078,0.0059762,0.598277,0.598277,-1.19243,7.2778e-10,-4.75807e-05,5.47802e-05,1.18383,0.8189819928331743,7.277800584404304e-10,-4.7579568056455024e-05,0.8189819928331743,5.4781700462580574e-05,-0.6965170961340057
939,0.82,1077.4,1077.92,0.248701,1.75388e-06,-0.00495534,0.0919461,0.598827,0.598827,-1.19352,7.38123e-10,-4.61902e-05,5.72839e-05,1.18492,0.8199827081007047,7.381228961378383e-10,-4.618913324916374e-05,0.8199827081007047,5.728554075390413e-05,-0.6968477122806858
940,0.821,1077.09,1077.61,-0.248477,1.6985e-06,-0.0534477,0.0204062,0.599376,0.599376,-1.19462,7.3843e-10,-4.76019e-05,5.56593e-05,1.18601,0.820982152929955,7.384299838264496e-10,-4.76007670475731e-05,0.820982152929955,5.566084900765489e-05,-0.6971809964572738
941,0.822,1077.99,1078.51,0.470252,1.79384e-06,0.0169342,0.124232,0.599925,0.599925,-1.19572,7.49505e-10,-4.58011e-05,5.8769e-05,1.1871,0.8219821466050607,7.495049025862954e-10,-4.580005114562802e-05,0.8219821466050607,5.877072693150076e-05,-0.6975139142228306
942,0.823,1077.3,1077.82,-0.407567,1.73396e-06,-0.0691672,-0.00269461,0.600474,0.600474,-1.19682,7.46788e-10,-4.81954e-05,5.56982e-05,1.1882,0.8229826894274213,7.467879648004327e-10,-4.819423862034711e-05,0.8229826894274213,5.569975117358794e-05,-0.6978464659801866
943,0.824,1077.57,1078.09,-0.326082,1.7102e-06,-0.0619723,0.00821229,0.601022,0.601022,-1.19792,7.51752e-10,-4.83355e-05,5.5957e-05,1.18929,0.8239819577157312,7.517519939881367e-10,-4.833433185857938e-05,0.8239819577157312,5.595856562212731e-05,-0.6981786521317297
944,0.825,1078.32,1078.84,0.243327,1.74622e-06,-0.005515,0.0913055,0.60157,0.60157,-1.19901,7.61935e-10,-4.69874e-05,5.83954e-05,1.19038,0.8249817737531333,7.619349595699987e-10,-4.698629610944138e-05,0.8249817737531333,5.839710504451645e-05,-0.6985074581690611
945,0.826,1078.03,1078.55,-0.236973,1.69566e-06,-0.0524012,0.0221998,0.602118,0.602118,-1.2001,7.62474e-10,-4.83586e-05,5.68316e-05,1.19147,0.8259821378398753,7.624740838707567e-10,-4.835743074171894e-05,0.8259821378398753,5.683321494598381e-05,-0.6988359060030682
946,0.827,1078.91,1079.43,0.455075,1.78286e-06,0.0154135,0.122145,0.602666,0.602666,-1.2012,7.73351e-10,-4.66205e-05,5.98456e-05,1.19255,0.8269830502763709,7.733509388430093e-10,-4.6619413281323574e-05,0.8269830502763709,5.984739078357393e-05,-0.6991670043689779
947,0.828,1078.25,1078.77,-0.388099,1.72858e-06,-0.0673625,0.000236844,0.603213,0.603213,-1.20229,7.71026e-10,-4.89323e-05,5.68987e-05,1.19364,0.8279826833796009,7.710259097848393e-10,-4.893110283454849e-05,0.8279826833796009,5.690031876182111e-05,-0.6994947336892883
948,0.829,1078.51,1079.03,-0.312473,1.70704e-06,-0.0607509,0.0102709,0.60376,0.60376,-1.20339,7.76012e-10,-4.90782e-05,5.71483e-05,1.19473,0.8289828634317151,7.760119213884309e-10,-4.907699568479362e-05,0.8289828634317151,5.714993299510418e-05,-0.6998251077431876
949,0.83,1079.25,1079.77,0.238246,1.73984e-06,-0.00606788,0.0906714,0.604306,0.604306,-1.20448,7.86031e-10,-4.77699e-05,5.95253e-05,1.19582,0.829981760749301,7.860310180518582e-10,-4.7768759036448394e-05,0.829981760749301,5.95270716658991e-05,-0.7001521201216243
950,0.831,1078.97,1079.49,-0.226246,1.69333e-06,-0.0514488,0.0238463,0.604853,0.604853,-1.20557,7.868e-10,-4.91033e-05,5.80181e-05,1.1969,0.830983034595862,7.867999585187135e-10,-4.910209445274649e-05,0.830983034595862,5.8019783082619014e-05,-0.7004787762507597
951,0.832,1079.82,1080.34,0.440843,1.77364e-06,0.0139633,0.120162,0.605399,0.605399,-1.20666,7.97475e-10,-4.74242e-05,6.09423e-05,1.19799,0.8319830243050994,7.974749749450893e-10,-4.7423075490438116e-05,0.8319830243050994,6.0944157019626743e-05,-0.700805076518694
952,0.833,1079.19,1079.71,-0.369945,1.72387e-06,-0.0657022,0.00294511,0.605944,0.605944,-1.20775,7.95538e-10,-4.96588e-05,5.81111e-05,1.19908,0.8329817271751578,7.955380798563283e-10,-4.965756702224322e-05,0.8329817271751578,5.81127884826671e-05,-0.7011310213131043
953,0.834,1079.44,1079.96,-0.299768,1.70437e-06,-0.059633,0.0121683,0.60649,0.60649,-1.20884,8.00547e-10,-4.98102e-05,5.83519e-05,1.20016,0.8339828084685186,8.005469620542272e-10,-4.980895949258102e-05,0.8339828084685186,5.8353602505167856e-05,-0.701456611021246
954,0.835,1080.16,1080.68,0.233432,1.73459e-06,-0.00661429,0.0900432,0.607035,0.607035,-1.20993,8.104e-10,-4.85394e-05,6.0671e-05,1.20124,0.8349826015179929,8.103999693531705e-10,-4.8538221982363794e-05,0.8349826015179929,6.0672840522357774e-05,-0.7017818460299521
955,0.836,1079.89,1080.41,-0.216224,1.69146e-06,-0.0505818,0.0253593,0.60758,0.60758,-1.21102,8.11397e-10,-4.98374e-05,5.92169e-05,1.20233,0.8359829396031879,8.113969496292839e-10,-4.9836158137361863e-05,0.8359829396031879,5.92186533552308e-05,-0.7021067267256345
956,0.837,1080.72,1081.24,0.427469,1.76593e-06,0.0125775,0.118272,0.608124,0.608124,-1.21211,8.21865e-10,-4.82137e-05,6.20564e-05,1.20341,0.8369819860383247,8.218650204838696e-10,-4.821253773823475e-05,0.8369819860383247,6.205832553818347e-05,-0.7024312534942838
957,0.838,1080.12,1080.64,-0.352984,1.71977e-06,-0.0641727,0.00545079,0.608668,0.608668,-1.2132,8.2031e-10,-5.0376e-05,5.93336e-05,1.20449,0.8379815761025757,8.203100421155796e-10,-5.037473115065971e-05,0.8379815761025757,5.9335360272916304e-05,-0.7027554267214704
958,0.839,1080.37,1080.89,-0.287885,1.70215e-06,-0.0586088,0.0139194,0.609212,0.609212,-1.21428,8.25343e-10,-5.05326e-05,5.95659e-05,1.20557,0.8389817100917558,8.253429051308103e-10,-5.053132324972509e-05,0.8389817100917558,5.956767408354935e-05,-0.7030762775699663
959,0.84,1081.07,1081.59,0.22886,1.7303e-06,-0.00715448,0.0894208,0.609756,0.609756,-1.21537,8.3503e-10,-4.92972e-05,6.18304e-05,1.20665,0.8399823883018409,8.350300451098747e-10,-4.9295984912989255e-05,0.8399823883018409,6.183231153866764e-05,-0.7033997481039477
960,0.841,1080.82,1081.34,-0.206842,1.68999e-06,-0.049792,0.0267512,0.610299,0.610299,-1.21646,8.36251e-10,-5.0562e-05,6.04259e-05,1.20773,0.8409817700462769,8.362510683923574e-10,-5.0560721763570626e-05,0.8409817700462769,6.042772568148891e-05,-0.703722866247135
961,0.842,1081.62,1082.14,0.414875,1.75951e-06,0.0112504,0.116468,0.610842,0.610842,-1.21754,8.46513e-10,-4.89905e-05,6.31856e-05,1.20881,0.8419816946023602,8.465130818535727e-10,-4.8989299985091606e-05,0.8419816946023602,6.318759625201231e-05,-0.7040426728249509
962,0.843,1081.05,1081.57,-0.337108,1.71623e-06,-0.0627619,0.00777255,0.611385,0.611385,-1.21863,8.45332e-10,-5.10851e-05,6.05644e-05,1.20989,0.8429821622649172,8.453320265999764e-10,-5.1083795178485936e-05,0.8429821622649172,6.05662340602553e-05,-0.7043650905619829
963,0.844,1081.29,1081.81,-0.276747,1.70034e-06,-0.0576695,0.0155377,0.611928,0.611928,-1.21971,8.50389e-10,-5.12466e-05,6.07886e-05,1.21097,0.8439831733289356,8.50389092477144e-10,-5.1245286915468924e-05,0.8439831733289356,6.0790447664382796e-05,-0.7046842039119492
964,0.845,1081.97,1082.49,0.224509,1.72685e-06,-0.0076886,0.088804,0.61247,0.61247,-1.22079,8.59911e-10,-5.00446e-05,6.30014e-05,1.21205,0.844982883105756,8.599110312701441e-10,-5.00433477899076e-05,0.844982883105756,6.30033846298339e-05,-0.7050029728055374
965,0.846,1081.73,1082.25,-0.198043,1.68889e-06,-0.049072,0.0280332,0.613012,0.613012,-1.22188,8.61351e-10,-5.12782e-05,6.16435e-05,1.21313,0.8459831348721416,8.61350990533083e-10,-5.127688529560359e-05,0.8459831348721416,6.164539999953256e-05,-0.7053243443858497
966,0.847,1082.51,1083.03,0.402992,1.75421e-06,0.00997735,0.114742,0.613553,0.613553,-1.22296,8.71409e-10,-4.97561e-05,6.43279e-05,1.2142,0.8469820819389247,8.714089450023721e-10,-4.975486218583569e-05,0.8469820819389247,6.432996908367627e-05,-0.7056424223009217
967,0.848,1081.97,1082.49,-0.322217,1.7132e-06,-0.0614587,0.00992712,0.614094,0.614094,-1.22404,8.70591e-10,-5.17868e-05,6.1802e-05,1.21528,0.8479815695822834,8.705909326778283e-10,-5.1785459086794994e-05,0.8479815695822834,6.180390978305361e-05,-0.7059601568772815
968,0.849,1083.06,1083.58,0.593416,1.85445e-06,0.028526,0.142008,0.614635,0.614635,-1.22512,8.82762e-10,-4.94109e-05,6.57371e-05,1.21635,0.8489815980947495,8.827620856521889e-10,-4.9409679301559706e-05,0.8489815980947495,6.573926073061287e-05,-0.7062775484855351
969,0.85,1082.11,1082.63,-0.54589,1.82128e-06,-0.0836582,-0.0225577,0.615176,0.615176,-1.22621,8.78775e-10,-5.25554e-05,6.15792e-05,1.21743,0.8499821677690114,8.787750527261551e-10,-5.255401898918155e-05,0.8499821677690114,6.158109603782158e-05,-0.7065975315352429
970,0.851,1082.44,1082.96,-0.392814,1.7854e-06,-0.0691875,-0.00104087,0.615716,0.615716,-1.22729,8.84577e-10,-5.25535e-05,6.20426e-05,1.21851,0.8509814279155643,8.845770782528461e-10,-5.255211908905544e-05,0.8509814279155643,6.204452468194788e-05,-0.7069142351504489
971,0.852,1083.24,1083.76,0.233423,1.8091e-06,-0.0070582,0.0899711,0.616257,0.616257,-1.22836,8.95221e-10,-5.10469e-05,6.4699e-05,1.21958,0.8519830797904686,8.952210084345325e-10,-5.1045597129206755e-05,0.8519830797904686,6.470109302547655e-05,-0.7072276692017163
972,0.853,1082.93,1083.45,-0.257037,1.76157e-06,-0.0551061,0.0195038,0.616796,0.616796,-1.22944,8.96105e-10,-5.24803e-05,6.30494e-05,1.22065,0.8529815677388042,8.96104968006739e-10,-5.247892293314127e-05,0.8529815677388042,6.305138765516638e-05,-0.7075436926356067
973,0.854,1083.83,1084.35,0.45693,1.83353e-06,0.0151707,0.122549,0.617336,0.617336,-1.23052,9.07015e-10,-5.06487e-05,6.61826e-05,1.22172,0.8539824479987319,9.070149076251255e-10,-5.064741737625944e-05,0.8539824479987319,6.618479011666345e-05,-0.707859374948427
974,0.855,1083.15,1083.67,-0.395404,1.79059e-06,-0.0688343,-0.000557998,0.617875,0.617875,-1.2316,9.05274e-10,-5.30341e-05,6.31397e-05,1.2228,0.854982013897013,9.052740779225132e-10,-5.303269371692565e-05,0.854982013897013,6.314169335275288e-05,-0.7081747165083891
975,0.856,1083.42,1083.94,-0.303183,1.76289e-06,-0.0605004,0.0119333,0.618414,0.618414,-1.23268,9.10689e-10,-5.31304e-05,6.34578e-05,1.22387,0.8559821187065373,9.1068907970282e-10,-5.3128988605322114e-05,0.8559821187065373,6.345981348876428e-05,-0.7084897176833076
976,0.857,1084.12,1084.64,0.218844,1.77741e-06,-0.00844873,0.0880805,0.618953,0.618953,-1.23375,9.20401e-10,-5.18705e-05,6.57495e-05,1.22494,0.8569827627178555,9.204010886776359e-10,-5.1869154748862556e-05,0.8569827627178555,6.575166154565437e-05,-0.7088014668698281
977,0.858,1083.88,1084.4,-0.204677,1.73639e-06,-0.0499883,0.0272129,0.619491,0.619491,-1.23483,9.21989e-10,-5.31201e-05,6.43697e-05,1.22601,0.8579820882386586,9.219889296474548e-10,-5.311868915247597e-05,0.8579820882386586,6.43717717736525e-05,-0.7091157915197455
978,0.859,1084.66,1085.18,0.401657,1.7902e-06,0.0096969,0.114658,0.620029,0.620029,-1.2359,9.32071e-10,-5.15703e-05,6.70874e-05,1.22708,0.8589819515412425,9.320710869786808e-10,-5.15689702749178e-05,0.8589819515412425,6.70896504100238e-05,-0.7094268711655292
979,0.86,1084.12,1084.64,-0.323032,1.75128e-06,-0.0618084,0.00996958,0.620567,0.620567,-1.23698,9.31485e-10,-5.36181e-05,6.45407e-05,1.22815,0.859982352915011,9.314848892216787e-10,-5.361666257541753e-05,0.859982352915011,6.454278279588443e-05,-0.7097405207434115
980,0.861,1085.2,1085.72,0.587351,1.87752e-06,0.0278148,0.14123,0.621104,0.621104,-1.23805,9.43545e-10,-5.12347e-05,6.84768e-05,1.22922,0.8609814316671627,9.435450198935769e-10,-5.1233387525218e-05,0.8609814316671627,6.84791445895172e-05,-0.7100509322864248
981,0.862,1084.26,1084.78,-0.53824,1.85117e-06,-0.0832122,-0.0212833,0.621642,0.621642,-1.23913,9.39978e-10,-5.43704e-05,6.43396e-05,1.23029,0.8619829090506599,9.399780953600612e-10,-5.4368921956537974e-05,0.8619829090506599,6.434166983648737e-05,-0.7103639082421181
982,0.863,1084.59,1085.11,-0.381815,1.81173e-06,-0.0683742,0.000716674,0.622179,0.622179,-1.2402,9.45931e-10,-5.43504e-05,6.48268e-05,1.23136,0.8629830623899575,9.459308891734963e-10,-5.434892304378991e-05,0.8629830623899575,6.482890130232732e-05,-0.7106736531172386
983,0.864,1085.37,1085.89,0.223631,1.82483e-06,-0.00818608,0.0886891,0.622715,0.622715,-1.24127,9.56366e-10,-5.28831e-05,6.74185e-05,1.23242,0.8639818889730093,9.56366097426553e-10,-5.288170171346973e-05,0.8639818889730093,6.74207726780729e-05,-0.710983066742593
984,0.865,1085.08,1085.6,-0.243197,1.78003e-06,-0.0539951,0.0216504,0.623252,0.623252,-1.24234,9.57648e-10,-5.4264e-05,6.58478e-05,1.23349,0.8649831160527985,9.576479609307853e-10,-5.4262527735771116e-05,0.8649831160527985,6.584996801395349e-05,-0.7112921494724289
985,0.866,1085.94,1086.46,0.435214,1.8373e-06,0.0128895,0.119508,0.623788,0.623788,-1.24341,9.6824e-10,-5.25121e-05,6.88565e-05,1.23455,0.8659830149519689,9.682399326749191e-10,-5.251072126377654e-05,0.8659830149519689,6.885887066321317e-05,-0.7116009016606151
986,0.867,1085.31,1085.83,-0.368788,1.79947e-06,-0.066495,0.00342558,0.624323,0.624323,-1.24449,9.67155e-10,-5.47871e-05,6.59801e-05,1.23562,0.8669815829580918,9.671550227352554e-10,-5.4785599214235425e-05,0.8669815829580918,6.598227673459967e-05,-0.7119122045530012
987,0.868,1085.57,1086.09,-0.283157,1.77239e-06,-0.0588069,0.0149382,0.624859,0.624859,-1.24556,9.72644e-10,-5.48865e-05,6.62913e-05,1.23669,0.8679825533226506,9.726439653690022e-10,-5.488499376360423e-05,0.8679825533226506,6.62934973167939e-05,-0.7122202936370752
988,0.869,1086.24,1086.76,0.209571,1.78029e-06,-0.00954312,0.0868417,0.625394,0.625394,-1.24662,9.82072e-10,-5.36887e-05,6.84858e-05,1.23775,0.8689821913680118,9.82071979294119e-10,-5.36872587875159e-05,0.8689821913680118,6.848814520599156e-05,-0.7125251785082909
989,0.87,1086.02,1086.54,-0.187791,1.74333e-06,-0.0485855,0.0297562,0.625929,0.625929,-1.2477,9.84077e-10,-5.48764e-05,6.7198e-05,1.23881,0.8699823643628135,9.84077042076592e-10,-5.487489431788006e-05,0.8699823643628135,6.720025783613082e-05,-0.7128354837205255
990,0.871,1086.76,1087.28,0.377995,1.78618e-06,0.00719014,0.111298,0.626464,0.626464,-1.24876,9.93799e-10,-5.34227e-05,6.9768e-05,1.23988,0.8709830725933305,9.937990430586296e-10,-5.342127303298305e-05,0.8709830725933305,6.977043384348569e-05,-0.7131397168357444
991,0.872,1086.26,1086.78,-0.293998,1.75249e-06,-0.0592379,0.0142541,0.626998,0.626998,-1.24983,9.93893e-10,-5.53446e-05,6.74092e-05,1.24094,0.8719824443626096,9.93892967926513e-10,-5.534306851584514e-05,0.8719824443626096,6.741147205113762e-05,-0.7134464931841147
992,0.873,1087.28,1087.8,0.545177,1.85612e-06,0.0234998,0.135169,0.627532,0.627532,-1.2509,1.00534e-09,-5.31346e-05,7.10823e-05,1.242,0.8729823499389273,1.005340033444213e-09,-5.313318838218173e-05,0.8729823499389273,7.108482640649783e-05,-0.7137529414573438
993,0.874,1086.42,1086.94,-0.486205,1.83338e-06,-0.0784189,-0.0136879,0.628066,0.628066,-1.25197,1.00287e-09,-5.60405e-05,6.72878e-05,1.24307,0.8739827896074128,1.002870009259027e-09,-5.603892976047131e-05,0.8739827896074128,6.729006387473646e-05,-0.7140590620062843
994,0.875,1086.73,1087.25,-0.346953,1.79987e-06,-0.0652878,0.0057622,0.628599,0.628599,-1.25303,1.00879e-09,-5.60406e-05,6.77428e-05,1.24413,0.8749818886705212,1.0087899404709333e-09,-5.603902975492847e-05,0.8749818886705212,6.774509459539502e-05,-0.7143619988156837
995,0.876,1087.47,1087.99,0.212455,1.80915e-06,-0.0095048,0.0871081,0.629132,0.629132,-1.2541,1.01874e-09,-5.46753e-05,7.01785e-05,1.24518,0.8759815203953718,1.0187399812622289e-09,-5.467380533297206e-05,0.8759815203953718,7.018096256850015e-05,-0.7146674680217814
996,0.877,1087.21,1087.73,-0.217996,1.77039e-06,-0.0518181,0.0253171,0.629665,0.629665,-1.25516,1.02056e-09,-5.59658e-05,6.87416e-05,1.24625,0.8769816850659493,1.0205600808887993e-09,-5.596423394382821e-05,0.8769816850659493,6.874396275802219e-05,-0.714969760262486
997,0.878,1088.01,1088.53,0.403257,1.81729e-06,0.00951566,0.114863,0.630198,0.630198,-1.25623,1.03062e-09,-5.43544e-05,7.15373e-05,1.2473,0.8779823829663893,1.0306200337595328e-09,-5.4352922826406136e-05,0.8779823829663893,7.153985885355318e-05,-0.7152745795116247
998,0.879,1087.45,1087.97,-0.328694,1.78435e-06,-0.0628874,0.00921865,0.63073,0.63073,-1.25729,1.03042e-09,-5.64517e-05,6.89249e-05,1.24836,0.8789817353983043,1.0304199715704954e-09,-5.645010663279937e-05,0.8789817353983043,6.89272753755521e-05,-0.7155762285551048
999,0.88,1088.53,1089.05,0.583481,1.89848e-06,0.0271488,0.140631,0.631262,0.631262,-1.25835,1.04223e-09,-5.40301e-05,7.29008e-05,1.24942,0.8799816196271584,1.042230080017248e-09,-5.402864040038313e-05,0.8799816196271584,7.290345732791081e-05,-0.7158775580200056
