,Time,S11,S22,S33,S12,S13,S23,LE11,LE22,LE33,LE12,LE13,LE23,SDV_EPBAR,E11,E12,E13,E22,E23,E33
0,1e-05,2.97724,2.97724,-3.9968e-15,0.0,0.0,-2.2373e-38,9.99995e-06,9.99995e-06,-8.57139e-06,0.0,0.0,0.0,0.0,9.999999999621423e-06,0.0,0.0,9.999999999621423e-06,0.0,-8.571353265707238e-06
1,2e-05,5.95444,5.95444,-3.10862e-15,0.0,0.0,-4.47459e-38,1.99998e-05,1.99998e-05,-1.71427e-05,0.0,0.0,0.0,0.0,1.9999999997244444e-05,0.0,0.0,1.9999999997244444e-05,0.0,-1.714255306473067e-05
2,3.5e-05,10.4202,10.4202,-1.73195e-14,0.0,0.0,-8.38973e-38,3.49994e-05,3.49994e-05,-2.99995e-05,0.0,0.0,0.0,0.0,3.5000012486241516e-05,0.0,0.0,3.5000012486241516e-05,0.0,-2.9999050019546836e-05
3,5.75e-05,17.1187,17.1187,-7.9492e-14,0.0,0.0,-1.88766e-37,5.74983e-05,5.74983e-05,-4.92843e-05,0.0,0.0,0.0,0.0,5.749995305892597e-05,0.0,0.0,5.749995305892597e-05,0.0,-4.928308554885685e-05
4,9.125e-05,27.1662,27.1662,-4.11671e-13,0.0,0.0,-4.24714e-37,9.12458e-05,9.12458e-05,-7.82107e-05,0.0,0.0,0.0,0.0,9.124996302456445e-05,0.0,0.0,9.124996302456445e-05,0.0,-7.820764162291827e-05
5,0.00014188,42.2368,42.2368,-2.06724e-12,0.0,0.0,-9.55574e-37,0.000141865,0.000141865,-0.000121599,0.0,0.0,0.0,0.0,0.00014187506331508892,0.0,0.0,0.00014187506331508892,0.0,-0.00012159160714120265
6,0.00021781,64.8412,64.8412,-1.04623e-11,0.0,0.0,-2.14993e-36,0.000217789,0.000217789,-0.000186676,0.0,0.0,0.0,0.0,0.0002178127177461242,0.0,0.0,0.0002178127177461242,0.0,-0.00018665857711963607
7,0.00033172,98.7446,98.7446,-5.30096e-11,0.0,0.0,-4.83696e-36,0.000331664,0.000331664,-0.000284283,0.0,0.0,0.0,0.0,0.0003317190065854625,0.0,0.0,0.0003317190065854625,0.0,-0.00028424259541681707
8,0.00050258,149.593,149.593,-2.68283e-10,0.0,0.0,-1.08819e-35,0.000502452,0.000502452,-0.000430673,0.0,0.0,0.0,0.0,0.0005025782501502096,0.0,0.0,0.0005025782501502096,0.0,-0.00043058027369557994
9,0.00075887,225.848,225.848,-1.35751e-09,0.0,0.0,-2.44799e-35,0.000758579,0.000758579,-0.000650211,0.0,0.0,0.0,0.0,0.0007588667938165372,0.0,0.0,0.0007588667938165372,0.0,-0.0006499996586357693
10,0.0011433,340.195,340.195,-6.86638e-09,0.0,0.0,-5.50653e-35,0.00114265,0.00114265,-0.000979412,0.0,0.0,0.0,0.0,0.0011433030732321825,0.0,0.0,0.0011433030732321825,0.0,-0.0009789325326119425
11,0.00172,374.169,374.329,-0.247768,0.0168529,0.129076,-0.223311,0.00171847,0.00171847,-0.00200099,5.79069e-10,-2.22029e-06,1.94013e-06,0.00092552,0.001719947415747436,5.790690149609645e-10,-2.2202875351595708e-06,0.001719947415747436,1.940131882038898e-06,-0.001998989354156544
12,0.0022966,389.982,390.209,-0.258027,0.0250123,0.155894,-0.23458,0.00229397,0.00229397,-0.00309134,5.70124e-12,-5.06411e-06,5.83444e-06,0.00197303,0.0022966031622606575,5.701217276055104e-12,-5.0640971773763255e-06,0.0022966031622606575,5.83445702040386e-06,-0.003086566728370821
13,0.0028733,403.498,403.723,-0.399466,0.0257921,0.120415,-0.302821,0.00286913,0.00286913,-0.00419018,-4.56966e-11,-7.67764e-06,6.76312e-06,0.00303431,0.0028732498927055428,-4.569655764896652e-11,-7.677610527001555e-06,0.0028732498927055428,6.763142869958827e-06,-0.004181413444539928
14,0.0034499,415.899,416.097,-0.0140107,0.0237893,0.176142,-0.224842,0.00344396,0.00344396,-0.00529164,-3.52236e-11,-7.91685e-06,9.06518e-06,0.00410346,0.0034498972441614484,-3.522360181307249e-11,-7.916818661857228e-06,0.0034498972441614484,9.065221088899733e-06,-0.005277663936021915
15,0.0043149,432.187,432.381,0.527171,0.0273062,0.272597,-0.120878,0.0043056,0.0043056,-0.00695158,-4.02053e-11,-9.30461e-06,1.6639e-05,0.00572219,0.0043148824130179175,-4.020528354686803e-11,-9.304566712220463e-06,0.0043148824130179175,1.6639138428864442e-05,-0.006927473659148142
16,0.0053149,447.983,448.151,0.607349,0.0281139,0.288142,-0.136224,0.0053008,0.0053008,-0.00888152,-1.27851e-10,-1.16199e-05,2.3066e-05,0.00761021,0.005314874097322786,-1.2785095204748131e-10,-1.161983248920695e-05,0.005314874097322786,2.3066266022331305e-05,-0.008842195806894826
17,0.0063149,461.714,461.841,0.605136,0.0248142,0.292139,-0.151465,0.00629502,0.00629502,-0.0108175,-1.32909e-10,-1.23926e-05,2.70081e-05,0.00950904,0.0063148752796626795,-1.3290901712537107e-10,-1.2392523212056972e-05,0.0063148752796626795,2.7008464722033665e-05,-0.010759201251808292
18,0.0073149,472.803,472.892,-0.551263,0.0207372,0.166627,-0.354879,0.00728825,0.00728825,-0.0127639,-2.46083e-10,-1.53027e-05,2.47172e-05,0.0114197,0.007314873935360344,-2.4608304283191273e-10,-1.5302582914267226e-05,0.007314873935360344,2.4717505472615642e-05,-0.0126827869016497
19,0.0083149,484.964,485.021,0.605801,0.0171044,0.296685,-0.156593,0.0082805,0.0082805,-0.0146996,-1.67057e-10,-1.27496e-05,2.88364e-05,0.0133275,0.008314878164073836,-1.670570348721867e-10,-1.274951872420882e-05,0.008314878164073836,2.883681577303676e-05,-0.014592088317499918
20,0.0093149,493.845,493.877,-0.599836,0.0140816,0.159448,-0.372788,0.00927176,0.00927176,-0.0166505,-4.78616e-11,-1.47003e-05,2.46228e-05,0.0152482,0.009314875917206145,-4.7861603569288036e-11,-1.4700191951155794e-05,0.009314875917206145,2.462310314355065e-05,-0.016512646594691094
21,0.010315,502.997,503.008,-0.716718,0.0116655,0.145017,-0.38913,0.010262,0.010262,-0.0185963,-5.65218e-11,-1.49232e-05,2.22683e-05,0.0171681,0.010314834897913627,-5.652178725057411e-11,-1.492308864958769e-05,0.010314834897913627,2.2268547940518246e-05,-0.01842445568468587
22,0.011315,513.014,513.009,0.726491,0.00980733,0.3109,-0.124526,0.0112513,0.0112513,-0.0205337,-9.8372e-11,-1.07587e-05,2.60736e-05,0.0190845,0.011314833932041024,-9.837197723072677e-11,-1.0758642125408002e-05,0.011314833932041024,2.607393991915785e-05,-0.02032431915223687
23,0.012315,521.005,520.988,0.692249,0.0083449,0.301884,-0.132216,0.0122397,0.0122397,-0.0224798,7.49243e-12,-8.71343e-06,2.61264e-05,0.0210082,0.012314911670900486,7.492451103985331e-12,-8.71339203822874e-06,0.012314911670900486,2.6126741297316514e-05,-0.022229012032190187
24,0.013315,527.748,527.721,-0.106371,0.00716307,0.222762,-0.249805,0.013227,0.013227,-0.0244303,-6.15968e-11,-8.28583e-06,2.33065e-05,0.022936,0.013314863728300042,-6.159683874074062e-11,-8.285795672580143e-06,0.013314863728300042,2.3306771598674558e-05,-0.024134295612363466
25,0.014315,535.66,535.624,0.718966,0.00621886,0.300753,-0.121497,0.0142134,0.0142134,-0.0263711,-1.08008e-10,-4.9423e-06,2.47885e-05,0.0248586,0.014314890642071143,-1.0800804695065835e-10,-4.942287786802169e-06,0.014314890642071143,2.4788807237330346e-05,-0.026026419060922068
26,0.015315,540.989,540.946,-0.685896,0.00543638,0.134457,-0.366339,0.0151988,0.0151988,-0.0283242,6.92367e-10,-6.36023e-06,1.88574e-05,0.0267901,0.015314889153658973,6.923670525793568e-10,-6.360209773736969e-06,0.015314889153658973,1.8857577801956182e-05,-0.02792683041104116
27,0.016315,548.817,548.769,0.784011,0.00480835,0.302486,-0.10486,0.0161832,0.0161832,-0.0302602,3.67117e-11,-1.7457e-06,2.19328e-05,0.0287111,0.016314857234079883,3.671174475528005e-11,-1.7456984762187489e-06,0.016314857234079883,2.193304052555689e-05,-0.029806943530628627
28,0.017315,553.423,553.37,-0.699592,0.00427469,0.116727,-0.375555,0.0171667,0.0171667,-0.0322123,5.39952e-10,-3.45437e-06,1.54369e-05,0.0306432,0.01731489458392743,5.399520830451365e-10,-3.4543640337059145e-06,0.01731489458392743,1.5437019149633358e-05,-0.03169901004380182
29,0.018315,560.663,560.606,0.758044,0.003839,0.29487,-0.102811,0.0181492,0.0181492,-0.0341468,-2.26846e-10,1.28193e-06,1.85083e-05,0.0325642,0.018314897638914474,-2.2684598643962772e-10,1.2819308217171255e-06,0.018314897638914474,1.8508471279599092e-05,-0.03357037764495985
30,0.019315,566.289,566.228,0.833962,0.00347255,0.301464,-0.086683,0.0191307,0.0191307,-0.0360881,-6.64067e-10,3.96967e-06,1.84746e-05,0.0344901,0.01931486436434171,-6.640670235924517e-10,3.969677879078759e-06,0.01931486436434171,1.8474770656418116e-05,-0.035444687583261913
31,0.020315,570.605,570.541,-0.185045,0.00314983,0.192459,-0.245861,0.0201113,0.0201113,-0.0380347,-5.16947e-10,4.12351e-06,1.4579e-05,0.0364196,0.020314894755104174,-5.169470407295762e-10,4.123518501764067e-06,0.020314894755104174,1.4579106274226206e-05,-0.037320464668259556
32,0.021315,576.672,576.605,0.773457,0.00287482,0.289003,-0.0925409,0.0210909,0.0210909,-0.0399688,-1.03341e-09,7.8388e-06,1.60994e-05,0.0383412,0.021314884941232126,-1.0334100242204158e-09,7.838830723416734e-06,0.021314884941232126,1.6099529596136364e-05,-0.039180583749534925
33,0.022315,580.129,580.06,-0.710653,0.00262724,0.106093,-0.356182,0.0220695,0.0220695,-0.0419157,-4.75156e-10,6.24608e-06,9.73506e-06,0.0402713,0.02231483288236258,-4.751560256366361e-10,6.2460995067237235e-06,0.02231483288236258,9.735107385777653e-06,-0.041049383297818154
34,0.023315,586.218,586.147,0.638834,0.00241863,0.265736,-0.113611,0.0230472,0.0230472,-0.0438451,-9.52318e-10,1.05364e-05,1.2092e-05,0.04219,0.023314838867739107,-9.523180022341649e-10,1.0536455508081133e-05,0.023314838867739107,1.2092073108593837e-05,-0.04289779887776657
35,0.024315,590.8,590.727,0.630317,0.00223692,0.262725,-0.112298,0.024024,0.024024,-0.0457811,-1.04441e-09,1.27721e-05,1.14162e-05,0.0441129,0.024314901153248858,-1.0444100029260994e-09,1.2772181563702745e-05,0.024314901153248858,1.1416265164987394e-05,-0.04474895624061903
36,0.025315,594.664,594.589,0.0501592,0.00207204,0.209245,-0.189261,0.0249998,0.0249998,-0.0477189,-8.56636e-10,1.38606e-05,8.98855e-06,0.0460371,0.02531491546142517,-8.566359843698024e-10,1.3860696058465294e-05,0.02531491546142517,8.988590397107643e-06,-0.0465982493544328
37,0.026315,599.723,599.646,0.816473,0.00193125,0.320656,-0.0252742,0.0259746,0.0259746,-0.0496477,3.51062e-10,1.80903e-05,1.11429e-05,0.0479552,0.026314879744425257,3.510620683044863e-10,1.809046363043798e-05,0.026314879744425257,1.114296208237775e-05,-0.04843539833504362
38,0.027315,602.444,602.366,-0.642455,0.00179307,0.113134,-0.317657,0.0269485,0.0269485,-0.0515879,5.70956e-11,1.63378e-05,4.75684e-06,0.0498808,0.0273148946840418,5.709566153200285e-11,1.6337933462562404e-05,0.0273148946840418,4.756851313736377e-06,-0.05027983410945347
39,0.028315,606.396,606.316,-0.736811,0.00166836,0.072998,-0.363029,0.0279214,0.0279214,-0.0535188,5.19343e-11,1.63066e-05,1.03594e-06,0.0518,0.028314855697239905,5.19342346905205e-11,1.6306732953275116e-05,0.028314855697239905,1.0359405366866525e-06,-0.05211187946037488
40,0.029315,610.241,610.16,-0.822882,0.00155865,0.0649771,-0.369975,0.0288934,0.0288934,-0.0554482,2.23163e-10,1.66121e-05,-2.26605e-06,0.0537182,0.02931486366211611,2.231630436000387e-10,1.6612237981661337e-05,0.02931486366211611,-2.266047432475382e-06,-0.0539389716375287
41,0.030315,615.471,615.389,0.595463,0.00146886,0.246587,-0.101702,0.0298645,0.0298645,-0.0573675,-4.82152e-11,2.10037e-05,4.00493e-07,0.0556294,0.03031491682344023,-4.821520960263115e-11,2.1003920579243385e-05,0.03031491682344023,4.0049308025480457e-07,-0.05575300517511561
42,0.031315,617.775,617.692,-0.830868,0.00137899,0.0630748,-0.361723,0.0308346,0.0308346,-0.0593016,6.35137e-10,1.9111e-05,-5.99118e-06,0.0575502,0.03131491029265909,6.351370540613743e-10,1.9111182616216027e-05,0.03131491029265909,-5.9911620529096155e-06,-0.05757750833327757
43,0.032315,621.514,621.43,-0.715899,0.00129733,0.0688049,-0.346,0.0318037,0.0318037,-0.0612254,9.26072e-10,1.96496e-05,-8.7688e-06,0.059464,0.032314842010880085,9.260721078874212e-10,1.9649793054687947e-05,0.032314842010880085,-8.768761554200921e-06,-0.059388797884693756
44,0.033315,625.084,624.999,-0.679122,0.00122423,0.076859,-0.330248,0.032772,0.032772,-0.063148,-5.41366e-10,2.02978e-05,-1.13954e-05,0.0613767,0.033314916580362564,-5.413659520669967e-10,2.029800600178433e-05,0.033314916580362564,-1.1395335072661439e-05,-0.06119547966217109
45,0.034315,628.526,628.44,-0.684347,0.00115766,0.0755584,-0.326993,0.0337393,0.0337393,-0.0650694,1.49022e-09,2.0822e-05,-1.41433e-05,0.0632883,0.034314925675596575,1.4902199474420286e-09,2.0822216779237124e-05,0.034314925675596575,-1.4143199984051336e-05,-0.06299756684798008
46,0.035315,631.876,631.789,-0.700157,0.00109667,0.0722609,-0.326508,0.0347056,0.0347056,-0.0669893,-3.05132e-11,2.12956e-05,-1.69155e-05,0.0651987,0.035314867232233205,-3.051314756419288e-11,2.1295826752920632e-05,0.035314867232233205,-1.6915356933711045e-05,-0.06479479202103366
47,0.036315,635.158,635.071,-0.706027,0.00104059,0.0702942,-0.324205,0.035671,0.035671,-0.0689076,2.04416e-09,2.17722e-05,-1.96375e-05,0.0671076,0.036314842815608595,2.0441599524190224e-09,2.1772437016176482e-05,0.036314842815608595,-1.963730718557155e-05,-0.06658707655217655
48,0.037315,638.381,638.292,-0.697862,0.00098892,0.0701985,-0.319314,0.0366355,0.0366355,-0.0708242,1.1699e-09,2.22749e-05,-2.22762e-05,0.0690151,0.037314850657763854,1.1698999546894129e-09,2.2275148087391727e-05,0.037314850657763854,-2.2275951887307244e-05,-0.06837434247721541
49,0.038315,641.541,641.452,-0.681526,0.000941191,0.0712082,-0.312941,0.0375991,0.0375991,-0.0727392,-9.31883e-10,2.28038e-05,-2.48324e-05,0.0709212,0.03831488898894575,-9.318830151983093e-10,2.280406000854107e-05,0.03831488898894575,-2.483209167847278e-05,-0.0701566984608255
50,0.039315,644.635,644.545,-0.664261,0.000896977,0.0723676,-0.306457,0.0385617,0.0385617,-0.0746525,1.86158e-09,2.33476e-05,-2.73227e-05,0.0728259,0.03931485210612107,1.8615800012611317e-09,2.3347872557311078e-05,0.03931485210612107,-2.7322326738410396e-05,-0.0719340667880467
51,0.040315,647.662,647.572,-0.649992,0.000855904,0.0731472,-0.300612,0.0395234,0.0395234,-0.0765643,-3.26219e-10,2.38958e-05,-2.97626e-05,0.0747292,0.04031484196744484,-3.26219051771659e-10,2.389608550701361e-05,0.04031484196744484,-2.9762157098267572e-05,-0.07370664828860929
52,0.041315,650.624,650.534,-0.639014,0.000817653,0.0734991,-0.295467,0.0404842,0.0404842,-0.0784745,1.20262e-10,2.44436e-05,-3.21592e-05,0.076631,0.04131485679780256,1.2026202256265606e-10,2.4443898747117387e-05,0.04131485679780256,-3.2158682898519864e-05,-0.07547436496533733
53,0.042315,653.526,653.435,-0.629838,0.000781957,0.073617,-0.290737,0.0414441,0.0414441,-0.0803831,-5.77474e-10,2.49912e-05,-3.45131e-05,0.0785314,0.042314894820304705,-5.774739575414856e-10,2.4991512282745987e-05,0.042314894820304705,-3.451250442976228e-05,-0.07723723175344777
54,0.043315,656.372,656.28,-0.621014,0.000748587,0.0736955,-0.286141,0.042403,0.042403,-0.08229,-6.68329e-12,2.55403e-05,-3.6822e-05,0.0804304,0.043314849924801946,-6.683320563638517e-12,2.554062615622854e-05,0.043314849924801946,-3.68213220784952e-05,-0.07899517143593193
55,0.044315,660.65,660.558,0.882338,0.000721703,0.300904,0.0342759,0.0433611,0.043361,-0.0841868,1.59841e-09,3.09112e-05,-3.23797e-05,0.0823221,0.0443149288938427,1.5984100709687254e-09,3.0911677756151335e-05,0.04431482446235502,-3.237917578313709e-05,-0.08074047762308523
56,0.045315,663.191,663.098,0.690212,0.000694274,0.247906,-0.0316088,0.0443182,0.0443182,-0.0860916,4.73705e-10,3.23031e-05,-3.33633e-05,0.0842189,0.04531492118226055,4.737050751657534e-10,3.230362175066226e-05,0.04531492118226055,-3.336274345133727e-05,-0.08248981656198162
57,0.046315,665.326,665.233,0.141274,0.000666672,0.192371,-0.109914,0.0452744,0.0452744,-0.0879968,4.14477e-11,3.31792e-05,-3.51807e-05,0.0861155,0.0463149293376004,4.1447734133726044e-11,3.317975043581889e-05,0.0463149293376004,-3.5180081166430455e-05,-0.0842361928371802
58,0.047315,668.485,668.391,0.668938,0.000642328,0.277171,0.0099198,0.0462296,0.0462296,-0.0898943,-2.40385e-10,3.6538e-05,-3.34824e-05,0.0880064,0.047314846842676284,-2.4038504520262904e-10,3.65386675209578e-05,0.047314846842676284,-3.3481839470717034e-05,-0.08597220709686526
59,0.048315,670.075,669.981,-0.334027,0.000615707,0.124634,-0.198456,0.047184,0.047184,-0.0917988,-8.07637e-10,3.56076e-05,-3.76927e-05,0.0899017,0.04831488127302386,-8.076369573117859e-10,3.5608233958095425e-05,0.04831488127302386,-3.7691989639099255e-05,-0.08771131643591801
60,0.049315,673.506,673.411,0.557591,0.000593177,0.21988,-0.0547122,0.0481375,0.0481375,-0.0936909,-4.59598e-10,3.85958e-05,-3.62493e-05,0.0917883,0.04931492620797351,-4.595980263033539e-10,3.8596544827518287e-05,0.04931492620797351,-3.62486430021125e-05,-0.08943582586745713
61,0.050315,675.038,674.943,-0.416379,0.000569352,0.0932831,-0.230264,0.04909,0.04909,-0.095592,2.94755e-10,3.77211e-05,-4.03103e-05,0.0936804,0.050314874825114764,2.9475510920917714e-10,3.772181144956477e-05,0.050314874825114764,-4.0309487550738154e-05,-0.09116525498917638
62,0.051315,678.469,678.374,0.560404,0.000549924,0.21724,-0.0508945,0.0500416,0.0500416,-0.0974802,-3.3596e-10,4.10382e-05,-3.83888e-05,0.0955636,0.05131483016328975,-3.3596003756741766e-10,4.10390420784168e-05,0.05131483016328975,-3.838806315947796e-05,-0.09287969764002413
63,0.052315,679.859,679.763,-0.475115,0.000528509,0.082344,-0.238157,0.0509924,0.0509924,-0.0993783,-2.88405e-10,3.99645e-05,-4.26554e-05,0.0974529,0.05231489565960601,-2.8840496657522863e-10,3.9965298591182474e-05,0.05231489565960601,-4.2654490271409884e-05,-0.09459986964024614
64,0.053315,683.289,683.193,0.578387,0.000511563,0.216942,-0.0440283,0.0519422,0.0519422,-0.101263,1.95711e-10,4.34033e-05,-4.04924e-05,0.0993326,0.053314859154993455,1.957110029593423e-10,4.340424193682857e-05,0.053314859154993455,-4.049158019381327e-05,-0.09630467024245337
65,0.054315,684.531,684.435,-0.528822,0.000492067,0.0704259,-0.247051,0.0528912,0.0528912,-0.103158,-3.60225e-10,4.20816e-05,-4.50231e-05,0.101219,0.054314929414614355,-3.602249609713226e-10,4.208248544301796e-05,0.054314929414614355,-4.50220864754991e-05,-0.09801555132053774
66,0.055315,687.961,687.865,0.597665,0.000477222,0.21696,-0.0369164,0.0538392,0.0538392,-0.105039,-3.14574e-10,4.56613e-05,-4.26007e-05,0.103095,0.05531489387596489,-3.145740334886682e-10,4.566234249292478e-05,0.05531489387596489,-4.2599792603015274e-05,-0.09971058938542732
67,0.056315,689.061,688.964,-0.581483,0.000459332,0.0589743,-0.255516,0.0547863,0.0547863,-0.106931,-7.1326e-10,4.40985e-05,-4.73887e-05,0.104979,0.05631485606930431,-7.132600066128703e-10,4.409947235317624e-05,0.05631485606930431,-4.738757717326347e-05,-0.10141232659926858
68,0.057315,692.494,692.396,0.615867,0.000446297,0.216965,-0.0300126,0.0557326,0.0557326,-0.108808,3.07168e-10,4.78133e-05,-4.4717e-05,0.106852,0.057314919923186824,3.0716806875830116e-10,4.781444307400129e-05,0.057314919923186824,-4.471600020983235e-05,-0.10309739373201199
69,0.058315,693.459,693.362,-0.631519,0.000429778,0.0479731,-0.263498,0.0566779,0.0566779,-0.110697,-7.25156e-10,4.60197e-05,-4.97489e-05,0.108733,0.058314872270004425,-7.251560463217288e-10,4.60207589225714e-05,0.058314872270004425,-4.974766254395302e-05,-0.10479004354417809
70,0.059315,696.893,696.795,0.631851,0.000418318,0.216777,-0.0235497,0.0576224,0.0576224,-0.112571,-4.43002e-10,4.98602e-05,-4.6843e-05,0.110602,0.05931492286641382,-4.430019684420472e-10,4.986144304042206e-05,0.05931492286641382,-4.6841902883842934e-05,-0.10646609605087021
71,0.060315,697.735,697.637,-0.676841,0.000402993,0.0377715,-0.270517,0.0585659,0.0585659,-0.114457,-1.16582e-09,4.78557e-05,-5.20926e-05,0.11248,0.06031485814142634,-1.1658199960962179e-09,4.7856845102334233e-05,0.06031485814142634,-5.2091243204044346e-05,-0.10814971284403085
72,0.061315,701.167,701.068,0.644467,0.000392906,0.216219,-0.0177626,0.0595086,0.0595086,-0.116327,-2.81055e-10,5.18047e-05,-4.89788e-05,0.114346,0.06131488824832809,-2.810549570853027e-10,5.180604188659288e-05,0.06131488824832809,-4.897760055810885e-05,-0.10981591449692207
73,0.062315,701.9,701.801,-0.714967,0.000378637,0.0287507,-0.276045,0.0604504,0.0604504,-0.11821,-9.67629e-10,4.96192e-05,-5.44063e-05,0.116221,0.062314905444261104,-9.67628976944468e-10,4.962043105294356e-05,0.062314905444261104,-5.440482000407254e-05,-0.11149055396205532
74,0.063315,705.32,705.221,0.652483,0.000369742,0.215096,-0.0129071,0.0613913,0.0613913,-0.120076,-2.0146e-09,5.36505e-05,-5.11226e-05,0.118084,0.06331490791618188,-2.0146000423437727e-09,5.365193921380573e-05,0.06331490791618188,-5.112129326212411e-05,-0.11314696667467161
75,0.064315,705.962,705.862,-0.743174,0.000356424,0.0213371,-0.279495,0.0623313,0.0623313,-0.121956,-3.99108e-10,5.13249e-05,-5.66731e-05,0.119956,0.06431489384937938,-3.991079688958621e-10,5.132621714531993e-05,0.06431489384937938,-5.667149411014982e-05,-0.1148126841123226
76,0.065315,709.359,709.259,0.654622,0.000348555,0.213204,-0.00925205,0.0632704,0.0632704,-0.123819,-9.72999e-10,5.54028e-05,-5.32705e-05,0.121815,0.06531486142747966,-9.729990146922773e-10,5.5404334763364815e-05,0.06531486142747966,-5.326908115210749e-05,-0.11646025289497275
77,0.066315,709.93,709.831,-0.758608,0.000336107,0.0159796,-0.280254,0.0642087,0.0642087,-0.125696,-1.66033e-09,5.29898e-05,-5.88731e-05,0.123684,0.06631491546393709,-1.660329984609632e-09,5.2991203984165125e-05,0.06631491546393709,-5.887136701310247e-05,-0.11811710156137456
78,0.067315,713.287,713.187,0.649632,0.000329112,0.210339,-0.00706578,0.065146,0.065146,-0.127555,-1.6662e-09,5.70689e-05,-5.54156e-05,0.12554,0.06731484097608709,-1.6661999557854301e-09,5.707052846060101e-05,0.06731484097608709,-5.541406458398068e-05,-0.11975499897223041
79,0.068315,713.814,713.714,-0.758433,0.000317476,0.0131283,-0.277709,0.0660825,0.0660825,-0.129429,-1.20054e-09,5.46325e-05,-6.09839e-05,0.127406,0.06831484950556854,-1.2005400007453204e-09,5.4633992382147056e-05,0.06831484950556854,-6.098204051974143e-05,-0.12140303341357717
80,0.069315,717.109,717.009,0.636361,0.000311213,0.206307,-0.00660046,0.0670181,0.0670181,-0.131285,-1.24211e-09,5.86577e-05,-5.75486e-05,0.129259,0.06931483259791227,-1.2421099704340577e-09,5.865942039662286e-05,0.06931483259791227,-5.754694411108652e-05,-0.12303219705203527
81,0.070315,717.621,717.521,-0.739993,0.000300347,0.0132083,-0.271286,0.0679529,0.0679529,-0.133155,-1.14111e-09,5.62732e-05,-6.29816e-05,0.131121,0.07031489545998082,-1.1411099842817407e-09,5.627478336611702e-05,0.07031489545998082,-6.297961670065355e-05,-0.12467059446452466
82,0.071315,720.83,720.729,0.613834,0.000294686,0.20094,-0.00807567,0.0688867,0.0688868,-0.135008,-7.57673e-10,6.01807e-05,-5.96571e-05,0.132971,0.07131482230254438,-7.576730354230676e-10,6.018251089456861e-05,0.07131492943403206,-5.9655320550633384e-05,-0.12629107801130024
83,0.072315,721.358,721.257,-0.700985,0.000284564,0.0165931,-0.260484,0.0698197,0.0698197,-0.136874,-2.15336e-09,5.79325e-05,-6.48411e-05,0.13483,0.0723148254606849,-2.1533600458312208e-09,5.79341781197229e-05,0.0723148254606849,-6.48389978613606e-05,-0.1279198986974075
84,0.073315,724.453,724.351,0.581332,0.000279382,0.194104,-0.0116627,0.0707519,0.0707519,-0.138724,-1.75571e-09,6.16511e-05,-6.17256e-05,0.136678,0.07331490340488722,-1.7557100218112964e-09,6.165300046823141e-05,0.07331490340488722,-6.172369501433739e-05,-0.1295317554575992
85,0.074315,725.032,724.93,-0.639615,0.000269992,0.0235785,-0.244913,0.0716831,0.0716831,-0.140587,-1.76004e-09,5.96313e-05,-6.65372e-05,0.138533,0.07431483974103936,-1.760040002629637e-09,5.9633077981402494e-05,0.07431483974103936,-6.653498644959566e-05,-0.13115192813772647
86,0.075315,727.981,727.879,0.538448,0.000265175,0.18571,-0.0174708,0.0726135,0.0726135,-0.142434,-2.33866e-09,6.30841e-05,-6.37364e-05,0.140377,0.07531484739935945,-2.338660043399443e-09,6.308608984362252e-05,0.07531484739935945,-6.373436887885386e-05,-0.13275520944038577
87,0.076315,728.647,728.545,-0.55475,0.00025652,0.0343588,-0.224323,0.0735431,0.0735431,-0.144293,-1.76195e-09,6.13895e-05,-6.8046e-05,0.142229,0.07631492484548041,-1.7619500303212021e-09,6.13913843738878e-05,0.07631492484548041,-6.80436849234134e-05,-0.13436591988680746
88,0.077315,731.419,731.317,0.485139,0.000251959,0.175724,-0.0255365,0.0744717,0.0744717,-0.146137,-1.3992e-09,6.44965e-05,-6.56693e-05,0.14407,0.07731485508044678,-1.399199978102672e-09,6.449857994406116e-05,0.07731485508044678,-6.566714381872618e-05,-0.13596067831137593
89,0.078315,732.208,732.106,-0.446022,0.000244056,0.0490086,-0.198629,0.0753995,0.0753995,-0.147992,-1.86474e-09,6.32254e-05,-6.93458e-05,0.145918,0.07831485162965546,-1.8647400290561222e-09,6.322739876774008e-05,0.07831485162965546,-6.934339563557934e-05,-0.13756198558143717
90,0.079315,733.635,733.533,-0.718446,0.000237066,0.00229245,-0.259145,0.0763265,0.0763265,-0.149841,-1.6194e-09,6.26106e-05,-7.20507e-05,0.147762,0.07931491295392479,-1.6193999474722887e-09,6.261256008444072e-05,0.07931491295392479,-7.204810441063803e-05,-0.13915516012633478
91,0.080315,735.435,735.333,-0.597991,0.000231085,0.0176734,-0.23467,0.0772526,0.0772526,-0.151686,-2.42111e-09,6.29029e-05,-7.34824e-05,0.149602,0.08031492948099128,-2.421109979167113e-09,6.290487842885994e-05,0.08031492948099128,-7.347970023452444e-05,-0.14074195458788696
92,0.081315,738.377,738.274,0.686008,0.000228657,0.224669,0.0480431,0.0781778,0.0781778,-0.153522,-2.0495e-09,6.72059e-05,-6.94757e-05,0.151437,0.08131489936848624,-2.049500014145167e-09,6.720815836702698e-05,0.08131489936848624,-6.947328661943697e-05,-0.1423181050104224
93,0.082315,738.614,738.511,-0.726825,0.000221095,0.00837578,-0.244527,0.0791022,0.0791022,-0.155373,-2.21789e-09,6.44807e-05,-7.50118e-05,0.15328,0.08231492900394843,-2.2178899827807186e-09,6.448277892512344e-05,0.08231492900394843,-7.500898668522105e-05,-0.14390420580890084
94,0.083315,741.522,741.419,0.557499,0.000218117,0.18154,-0.00145551,0.0800257,0.0800257,-0.157206,-2.04694e-09,6.80206e-05,-7.18833e-05,0.155111,0.08331490851035106,-2.0469399508726838e-09,6.802291345353595e-05,0.08331490851035106,-7.188071645747307e-05,-0.14547199208456585
95,0.084315,741.966,741.863,-0.61345,0.000211152,0.0150209,-0.227806,0.0809483,0.0809483,-0.159052,-2.75294e-09,6.59774e-05,-7.64431e-05,0.15695,0.08431483604058498,-2.752939987082925e-09,6.597957655651854e-05,0.08431483604058498,-7.644017830066296e-05,-0.14704799568830385
96,0.085315,744.651,744.548,0.480109,0.000208138,0.168049,-0.0146124,0.0818702,0.0818702,-0.160883,-1.76929e-09,6.91551e-05,-7.37922e-05,0.158779,0.08531492680893904,-1.7692900478039064e-09,6.915749126901183e-05,0.08531492680893904,-7.378947742253672e-05,-0.1486083218936335
97,0.086315,745.284,745.181,-0.46924,0.000201816,0.0367108,-0.193314,0.0827911,0.0827911,-0.162725,-2.83826e-09,6.77218e-05,-7.74789e-05,0.160614,0.08631485367069458,-2.8382599603915537e-09,6.772409317279404e-05,0.08631485367069458,-7.747589858753123e-05,-0.15017514188048386
98,0.087315,746.618,746.515,-0.699732,0.000196448,-0.0038106,-0.245306,0.0837112,0.0837112,-0.16456,-2.11239e-09,6.71404e-05,-7.99358e-05,0.162445,0.0873148319370114,-2.112390040664991e-09,6.714265396712271e-05,0.0873148319370114,-7.993260521910184e-05,-0.15173314059413578
99,0.088315,748.315,748.211,-0.550801,0.000191937,0.0160097,-0.215054,0.0846305,0.0846305,-0.166392,-2.7892e-09,6.74772e-05,-8.11123e-05,0.164273,0.08831486005450717,-2.7891999820894853e-09,6.747947663754417e-05,0.08831486005450717,-8.110901048630215e-05,-0.1532857428626493
100,0.089315,751.019,750.915,0.623905,0.000190287,0.208229,0.0462078,0.0855489,0.0855489,-0.168216,-2.96108e-09,7.14459e-05,-7.73907e-05,0.166095,0.08931482753676323,-2.9610800478252486e-09,7.144845231898955e-05,0.08931482753676323,-7.738770541698692e-05,-0.1548287420246387
101,0.090315,751.294,751.19,-0.624063,0.000184365,0.0157913,-0.212957,0.0864665,0.0864665,-0.170053,-2.36543e-09,6.90719e-05,-8.22425e-05,0.167925,0.09031484155877734,-2.36542996301381e-09,6.907428551850003e-05,0.09031484155877734,-8.223911817828444e-05,-0.15637989645398964
102,0.091315,753.892,753.788,0.473374,0.000182116,0.162323,-0.00728024,0.0873833,0.0873833,-0.171874,-2.54167e-09,7.21119e-05,-7.9626e-05,0.169744,0.09131490056251823,-2.5416699855895786e-09,7.211450012545306e-05,0.09131490056251823,-7.962282993423386e-05,-0.15791473077176943
103,0.092315,754.451,754.347,-0.460714,0.000176779,0.0311738,-0.184985,0.0882992,0.0882992,-0.173706,-2.63472e-09,7.06326e-05,-8.32245e-05,0.171569,0.09231489375692115,-2.634719997729462e-09,7.063509454074968e-05,0.09231489375692115,-8.322103693736427e-05,-0.1594560187341464
104,0.093315,755.719,755.614,-0.669996,0.000172333,-0.0055524,-0.231985,0.0892143,0.0892143,-0.175531,-3.10064e-09,7.0087e-05,-8.54956e-05,0.17339,0.0933149286123598,-3.100639967001939e-09,7.00894561511678e-05,0.0933149286123598,-8.549194535534266e-05,-0.16098861258269526
105,0.094315,757.335,757.23,-0.516084,0.00016862,0.0152894,-0.200591,0.0901285,0.0901285,-0.177353,-3.44191e-09,7.04316e-05,-8.65281e-05,0.175209,0.09431489413469318,-3.441909979251534e-09,7.043408036344623e-05,0.09431489413469318,-8.652435655187585e-05,-0.16251589954963352
106,0.095315,759.885,759.781,0.588198,0.000167336,0.198003,0.0468903,0.0910419,0.0910419,-0.179168,-3.65095e-09,7.41897e-05,-8.29745e-05,0.177021,0.09531489799123172,-3.6509499867776185e-09,7.419245212392234e-05,0.09531489799123172,-8.297105771137847e-05,-0.16403455459559746
107,0.096315,760.175,760.07,-0.562263,0.000162371,0.0196597,-0.192566,0.0919544,0.0919544,-0.180994,-3.94835e-09,7.20169e-05,-8.74118e-05,0.178841,0.09631482898478128,-3.94834998029836e-09,7.201949327928503e-05,0.09631482898478128,-8.74079796999716e-05,-0.16555963467703838
108,0.097315,761.407,761.302,-0.75484,0.000158449,-0.0215251,-0.243796,0.0928662,0.0928662,-0.182814,-3.51493e-09,7.12971e-05,-8.98093e-05,0.180656,0.09731490471108639,-3.5149300137149453e-09,7.129964169871883e-05,0.09731490471108639,-8.980526726554139e-05,-0.16707693497982523
109,0.098315,763.044,762.939,-0.528143,0.000155217,0.00999681,-0.197861,0.0937771,0.0937771,-0.184629,-3.93806e-09,7.17399e-05,-9.06214e-05,0.182468,0.0983149042384277,-3.938059989216924e-09,7.174247336805273e-05,0.0983149042384277,-9.061729400494656e-05,-0.16858731925447878
110,0.099315,765.517,765.411,0.549202,0.000154027,0.18865,0.0437387,0.0946871,0.0946871,-0.186437,-3.50864e-09,7.53698e-05,-8.71633e-05,0.184274,0.09931482569654504,-3.5086400451689315e-09,7.537264037482672e-05,0.09931482569654504,-8.715950138993289e-05,-0.17008915531236224
111,0.1003,765.834,765.729,-0.522967,0.000149747,0.0222217,-0.17931,0.0955964,0.0955964,-0.188257,-3.54232e-09,7.33633e-05,-9.12869e-05,0.186088,0.10031488727664195,-3.542319992888565e-09,7.336599115270737e-05,0.10031488727664195,-9.128273347769333e-05,-0.17159821938483588
112,0.1013,767.029,766.923,-0.703635,0.000146308,-0.0173847,-0.228364,0.0965048,0.0965048,-0.190069,-3.66597e-09,7.26946e-05,-9.35302e-05,0.187896,0.10131486744247087,-3.6659699720331673e-09,7.269724231639962e-05,0.10131486744247087,-9.352582618715743e-05,-0.1730979242683488
113,0.1023,768.597,768.492,-0.497466,0.000143416,0.0113186,-0.186466,0.0974124,0.0974124,-0.191878,-3.95023e-09,7.31114e-05,-9.4298e-05,0.189701,0.10231487455074206,-3.95023003196826e-09,7.311407270349513e-05,0.10231487455074206,-9.429355408330231e-05,-0.17459243792817813
114,0.1033,770.978,770.873,0.534826,0.000142288,0.183973,0.0464736,0.0983192,0.0983192,-0.19368,-4.00828e-09,7.66236e-05,-9.09279e-05,0.191502,0.10331490702518242,-4.008280041212231e-09,7.662653566309352e-05,0.10331490702518242,-9.09237661838036e-05,-0.17607848302627394
115,0.1043,771.297,771.191,-0.490132,0.000138531,0.0242928,-0.167138,0.0992251,0.0992251,-0.195493,-3.54082e-09,7.47134e-05,-9.48368e-05,0.193309,0.10431485285653674,-3.540819970559994e-09,7.471619111565353e-05,0.10431485285653674,-9.483230313278579e-05,-0.17757089945226323
116,0.1053,772.451,772.345,-0.665457,0.000135482,-0.0150815,-0.215759,0.10013,0.10013,-0.197299,-3.9249e-09,7.40647e-05,-9.69711e-05,0.195111,0.1053145996340965,-3.92489996059453e-09,7.406744285765043e-05,0.1053145996340965,-9.696639845480082e-05,-0.1790548659827289
117,0.1063,775.254,775.148,0.822953,0.000135308,0.228435,0.112544,0.101035,0.101035,-0.199094,-4.05717e-09,7.88011e-05,-9.18994e-05,0.196905,0.10631536212348758,-4.057170044369229e-09,7.88042048882609e-05,0.10631536212348758,-9.189517737950847e-05,-0.18052714073638965
118,0.1073,776.219,776.113,0.479643,0.000132438,0.152846,0.016666,0.101938,0.101938,-0.200898,-4.36346e-09,7.88918e-05,-9.29707e-05,0.198705,0.10731481608103333,-4.3634600377373545e-09,7.889491203982857e-05,0.10731481608103333,-9.29663783584278e-05,-0.18200413712319696
119,0.1083,777.312,777.206,0.274932,0.000129771,0.141717,0.000101741,0.102841,0.102841,-0.2027,-4.44692e-09,7.97297e-05,-9.31403e-05,0.200502,0.10831517295310711,-4.4469200544128284e-09,7.973287849694088e-05,0.10831517295310711,-9.313596257687351e-05,-0.183476838365768
120,0.1093,778.601,778.495,0.277713,0.000127421,0.14756,0.00849462,0.103743,0.103743,-0.204498,-4.55277e-09,8.08253e-05,-9.29288e-05,0.202297,0.10931532423953039,-4.5527700498482204e-09,8.08285664526398e-05,0.10931532423953039,-9.2924482252843e-05,-0.1849436279713773
121,0.1103,779.773,779.666,0.172138,0.000124908,0.127618,-0.0157804,0.104644,0.104644,-0.206296,-4.62833e-09,8.14442e-05,-9.33115e-05,0.204091,0.11031526775357703,-4.628330052547369e-09,8.14475166688311e-05,0.11031526775357703,-9.330714661737183e-05,-0.1864077826587771
122,0.1113,781.157,781.051,0.290728,0.000122898,0.144085,0.00876543,0.105544,0.105544,-0.208091,-3.86803e-09,8.26474e-05,-9.28902e-05,0.205883,0.11131500130717242,-3.8680300074034335e-09,8.265081539038377e-05,0.11131500130717242,-9.288588583900026e-05,-0.18786687076556052
123,0.1123,782.234,782.127,0.11022,0.000120341,0.113213,-0.0303374,0.106443,0.106443,-0.209886,-4.52529e-09,8.30189e-05,-9.35677e-05,0.207674,0.11231452271090081,-4.5252900315873035e-09,8.302234616430759e-05,0.11231452271090081,-9.35633226792909e-05,-0.18932334215839575
124,0.1133,783.732,783.625,0.361652,0.000118778,0.152786,0.0247294,0.107342,0.107342,-0.211677,-4.04485e-09,8.45777e-05,-9.26395e-05,0.209462,0.11331494308839907,-4.0448500104872664e-09,8.458127679444871e-05,0.11331494308839907,-9.263520909397194e-05,-0.19077396463240337
125,0.1143,784.61,784.503,0.00143502,0.000115923,0.0930411,-0.0530767,0.10824,0.10824,-0.21347,-4.18491e-09,8.44297e-05,-9.39778e-05,0.211251,0.11431514893250228,-4.184909974114248e-09,8.443326428753117e-05,0.11431514893250228,-9.397338422489909e-05,-0.1922236069211406
126,0.1153,786.346,786.239,0.51036,0.000115166,0.174555,0.0579826,0.109137,0.109137,-0.215257,-4.34154e-09,8.66798e-05,-9.20918e-05,0.213035,0.11531513804916349,-4.34154001638376e-09,8.668355680230277e-05,0.11531513804916349,-9.208755968037607e-05,-0.1936658143394525
127,0.1163,786.844,786.737,-0.211455,0.000111553,0.0558668,-0.0985821,0.110033,0.110033,-0.217048,-4.43421e-09,8.55036e-05,-9.47697e-05,0.214822,0.1163149082430166,-4.434209999182315e-09,8.550725553702065e-05,0.1163149082430166,-9.476520949380784e-05,-0.19510866640626068
128,0.1173,789.071,788.964,0.808276,0.000112447,0.220834,0.12377,0.110928,0.110928,-0.218829,-4.31637e-09,8.91535e-05,-9.09829e-05,0.216601,0.11731445731738277,-4.316370039170181e-09,8.915747429139032e-05,0.11731445731738277,-9.097876118147052e-05,-0.19654090208693453
129,0.1183,788.837,788.73,-0.630328,0.000107256,-0.0147683,-0.188955,0.111823,0.111823,-0.220622,-4.44481e-09,8.59627e-05,-9.63193e-05,0.218388,0.118314901388622,-4.444809964532226e-09,8.59663948986622e-05,0.118314901388622,-9.631466144510714e-05,-0.19798021352119444
130,0.1193,791.074,790.966,0.417218,0.000107488,0.128206,0.00915154,0.112717,0.112717,-0.222399,-5.0804e-09,8.8676e-05,-9.36472e-05,0.220163,0.11931512194243332,-5.080399989587647e-09,8.867993183270251e-05,0.11931512194243332,-9.364281523782658e-05,-0.1994041371509252
131,0.1203,791.445,791.338,-0.396512,0.000103753,0.0111917,-0.147652,0.11361,0.11361,-0.224185,-5.14465e-09,8.72013e-05,-9.66713e-05,0.221944,0.12031511677756801,-5.144650039312637e-09,8.720510214388355e-05,0.12031511677756801,-9.666662748042398e-05,-0.2008327252530564
132,0.1213,792.486,792.378,-0.531234,0.000101367,-0.0152998,-0.180589,0.114502,0.114502,-0.225965,-5.06442e-09,8.67145e-05,-9.83164e-05,0.223722,0.12131488369148746,-5.064419994482705e-09,8.671825981099168e-05,0.12131488369148746,-9.83115671011614e-05,-0.20225397771215936
133,0.1223,794.87,794.762,0.689987,0.00010292,0.190602,0.094731,0.115393,0.115393,-0.227737,-5.23539e-09,9.06763e-05,-9.40436e-05,0.225492,0.12231442048036989,-5.235390010405183e-09,9.068041121995662e-05,0.12231442048036989,-9.403917803929573e-05,-0.20366633194823613
134,0.1233,794.68,794.573,-0.660795,9.82421e-05,-0.0263623,-0.193623,0.116284,0.116284,-0.229521,-5.62338e-09,8.76383e-05,-9.90952e-05,0.227271,0.12331484825340566,-5.623379983887844e-09,8.764214034795437e-05,0.12331484825340566,-9.909029023280613e-05,-0.20508572473721953
135,0.1243,796.884,796.776,0.395571,9.87724e-05,0.121243,0.00975264,0.117174,0.117174,-0.231291,-5.11885e-09,9.03603e-05,-9.63431e-05,0.229039,0.12431504348920996,-5.118850010532583e-09,9.036438261489366e-05,0.12431504348920996,-9.633845915257844e-05,-0.20649147854530736
136,0.1253,797.242,797.134,-0.389746,9.53509e-05,0.00813744,-0.141593,0.118063,0.118063,-0.233069,-4.53229e-09,8.89097e-05,-9.92505e-05,0.230812,0.1253150039794524,-4.532289987757565e-09,8.891365258456574e-05,0.1253150039794524,-9.92455748320964e-05,-0.20790108318658096
137,0.1263,798.256,798.148,-0.509497,9.3243e-05,-0.0162809,-0.171687,0.118951,0.118951,-0.234842,-5.23564e-09,8.84424e-05,-0.000100787,0.232582,0.12631472751454176,-5.235640032630329e-09,8.844631114435231e-05,0.12631472751454176,-0.00010078192116091955,-0.20930423030859802
138,0.1273,800.55,800.442,0.661271,9.48329e-05,0.182358,0.0933771,0.119839,0.119839,-0.236605,-5.50305e-09,9.22489e-05,-9.66512e-05,0.234344,0.1273153391984101,-5.503050015676081e-09,9.225315506067311e-05,0.1273153391984101,-9.664652942320551e-05,-0.21069699886433546
139,0.1283,800.392,800.284,-0.617384,9.05062e-05,-0.023719,-0.17999,0.120725,0.120725,-0.238382,-4.95955e-09,8.93636e-05,-0.000101412,0.236115,0.12831458318866074,-4.95954999291115e-09,8.936759304534192e-05,0.12831458318866074,-0.00010140685797699334,-0.21209834483270473
140,0.1293,801.422,801.313,-0.698808,8.85229e-05,-0.0473494,-0.207603,0.121611,0.121611,-0.24015,-5.93797e-09,8.86921e-05,-0.000103157,0.23788,0.12931471290140384,-5.937970004588067e-09,8.869603326067121e-05,0.12931471290140384,-0.00010315167949959125,-0.21349012426348557
141,0.1303,803.959,803.851,0.739539,9.0786e-05,0.191966,0.11201,0.122496,0.122496,-0.241907,-6.18388e-09,9.30923e-05,-9.81798e-05,0.239637,0.13031459880657326,-6.1838799636504405e-09,9.309663322265571e-05,0.13031459880657326,-9.817498052111517e-05,-0.21487080882857745
142,0.1313,804.722,804.614,0.4057,8.84441e-05,0.118817,0.0196497,0.123381,0.123381,-0.243674,-5.56809e-09,9.29173e-05,-9.92066e-05,0.2414,0.1313153700024523,-5.5680899890830915e-09,9.292161694607337e-05,0.1313153700024523,-9.920167918797684e-05,-0.21625690713087742
143,0.1323,805.686,805.577,0.281202,8.68706e-05,0.118519,0.0176487,0.124264,0.124264,-0.245437,-5.89977e-09,9.36887e-05,-9.90686e-05,0.24316,0.13231476264107966,-5.899770005868277e-09,9.369308892326345e-05,0.13231476264107966,-9.90636928682731e-05,-0.2176374289160774
144,0.1333,806.695,806.587,0.209427,8.53348e-05,0.111599,0.00891346,0.125147,0.125147,-0.247199,-5.1408e-09,9.43245e-05,-9.90785e-05,0.244919,0.13331503813312962,-5.140800007907842e-09,9.43289486954324e-05,0.13331503813312962,-9.907359188754405e-05,-0.21901473800068594
145,0.1343,807.784,807.675,0.224169,8.4048e-05,0.111542,0.0109436,0.126029,0.126029,-0.248959,-4.97334e-09,9.5048e-05,-9.89341e-05,0.246676,0.13431506294287554,-4.973339962077716e-09,9.505251720431929e-05,0.13431506294287554,-9.892920618337353e-05,-0.2203880631811449
146,0.1353,808.804,808.696,0.177666,8.26223e-05,0.101487,-0.000260575,0.12691,0.12691,-0.250718,-5.06081e-09,9.55708e-05,-9.90392e-05,0.248431,0.13531483484818718,-5.060809993295834e-09,9.557536703441727e-05,0.13531483484818718,-9.9034295780287e-05,-0.22175819519362938
147,0.1363,809.919,809.81,0.232111,8.15422e-05,0.109131,0.0117858,0.12779,0.12779,-0.252474,-6.42528e-09,9.63756e-05,-9.87582e-05,0.250185,0.13631435162573347,-6.425279974742182e-09,9.63802442772721e-05,0.13631435162573347,-9.875332356945599e-05,-0.2231235886365731
148,0.1373,810.893,810.784,0.152959,8.00854e-05,0.0949492,-0.00519153,0.12867,0.12867,-0.25423,-6.15317e-09,9.6797e-05,-9.89726e-05,0.251937,0.13731474836517044,-6.1531699735439815e-09,9.68016849807185e-05,0.13731474836517044,-9.896770237383112e-05,-0.2244865865525194
149,0.1383,812.045,811.936,0.258652,7.9246e-05,0.111399,0.0184332,0.129549,0.129549,-0.255983,-6.51514e-09,9.77298e-05,-9.84949e-05,0.253688,0.13831488752574894,-6.51513998306541e-09,9.773457571249367e-05,0.13831488752574894,-9.849004953654816e-05,-0.225844870682418
150,0.1393,812.938,812.829,0.112348,7.76198e-05,0.0860265,-0.0133706,0.130427,0.130427,-0.257736,-6.09489e-09,9.79412e-05,-9.89593e-05,0.255438,0.13931476687980027,-6.094890037111611e-09,9.79459963958984e-05,0.13931476687980027,-9.89544036900103e-05,-0.2272007758260277
151,0.1403,814.169,814.06,0.31055,7.71677e-05,0.117849,0.0305864,0.131304,0.131304,-0.259485,-5.95446e-09,9.91168e-05,-9.81327e-05,0.257185,0.14031438419847864,-5.954460036150522e-09,9.912171223236399e-05,0.14031438419847864,-9.812788514407256e-05,-0.22855122036111108
152,0.1413,814.925,814.816,0.0390543,7.51528e-05,0.0716494,-0.0287964,0.132181,0.132181,-0.261236,-6.28605e-09,9.89549e-05,-9.90636e-05,0.258932,0.14131487856607516,-6.28605001384841e-09,9.89597961975619e-05,0.14131487856607516,-9.905869336357398e-05,-0.22990084523285437
153,0.1423,816.313,816.203,0.407326,7.53953e-05,0.131835,0.052645,0.133057,0.133057,-0.262982,-6.42777e-09,0.000100595,-9.75959e-05,0.260675,0.1423151084364196,-6.427769982941811e-09,0.0001006000598466894,0.1423151084364196,-9.759113767504601e-05,-0.23124426521015118
154,0.1433,816.826,816.717,-0.0943177,7.26001e-05,0.0472899,-0.0574717,0.133932,0.133932,-0.264731,-6.47309e-09,9.97617e-05,-9.93876e-05,0.262421,0.14331507157637535,-6.473089952940825e-09,9.976667636379943e-05,0.14331507157637535,-9.93826612161186e-05,-0.23258764386321684
155,0.1443,818.512,818.403,0.585624,7.4148e-05,0.159525,0.0927195,0.134806,0.134806,-0.266472,-6.38248e-09,0.00010227,-9.67464e-05,0.26416,0.1443147657516508,-6.382479988964462e-09,0.00010227522975481129,0.1443147657516508,-9.674172021800764e-05,-0.23392254640540477
156,0.1453,818.594,818.484,-0.33641,6.98786e-05,0.00484493,-0.110139,0.13568,0.13568,-0.26822,-6.10192e-09,0.000100225,-0.000100114,0.265904,0.14531533404156805,-6.1019199693035375e-09,0.0001002300226931041,0.14531533404156805,-0.00010010898876078311,-0.23526048009956768
157,0.1463,819.438,819.329,-0.487564,6.80594e-05,-0.0340961,-0.157447,0.136552,0.136552,-0.269963,-6.02543e-09,9.94413e-05,-0.00010175,0.267643,0.14631448457917506,-6.025430043798963e-09,9.94462444499078e-05,0.14631448457917506,-0.00010174482364433413,-0.23659226009931666
158,0.1473,821.547,821.437,0.633718,7.1339e-05,0.158393,0.0976973,0.137424,0.137424,-0.271696,-6.51804e-09,0.000102996,-9.7691e-05,0.269376,0.14731450675603042,-6.518039996628033e-09,0.00010300130427021159,0.14731450675603042,-9.768622838968177e-05,-0.23791410000746183
159,0.1483,821.331,821.222,-0.567732,6.63152e-05,-0.0376979,-0.160839,0.138296,0.138296,-0.273442,-6.34668e-09,0.000100115,-0.000102135,0.271117,0.14831540133253518,-6.3466799593570045e-09,0.00010012001167392093,0.14831540133253518,-0.00010212978439849696,-0.2392435410490843
160,0.1493,822.265,822.156,-0.611202,6.48751e-05,-0.0553032,-0.180497,0.139166,0.139166,-0.275179,-6.41047e-09,9.94707e-05,-0.000103555,0.272851,0.14931487043771363,-6.410470043682892e-09,9.947564737422532e-05,0.14931487043771363,-0.0001035496383661183,-0.24056382801708964
161,0.1503,824.485,824.375,0.638851,6.85502e-05,0.157106,0.101084,0.140036,0.140036,-0.276908,-6.21827e-09,0.00010328,-9.91207e-05,0.27458,0.1503152094593725,-6.218270010016624e-09,0.0001032853335627415,0.1503152094593725,-9.911578770571694e-05,-0.2418757586675725
162,0.1513,824.186,824.077,-0.62815,6.34703e-05,-0.0505356,-0.172422,0.140905,0.140905,-0.278649,-7.00453e-09,0.000100156,-0.000103842,0.276316,0.15131526783882476,-7.00452995605616e-09,0.00010016101577958736,0.15131526783882476,-0.00010383660860613375,-0.24319450467023473
163,0.1523,825.139,825.029,-0.63599,6.21873e-05,-0.0610909,-0.182963,0.141773,0.141773,-0.280382,-7.44922e-09,9.95669e-05,-0.000105153,0.278046,0.15231504333110135,-7.44922001860715e-09,9.957185694831061e-05,0.15231504333110135,-0.00010514747161705085,-0.24450491279703823
164,0.1533,827.356,827.246,0.629053,6.5829e-05,0.153855,0.101762,0.14264,0.14264,-0.282106,-6.74872e-09,0.000103389,-0.000100666,0.27977,0.15331453369013115,-6.748720027260902e-09,0.00010339434482675713,0.15331453369013115,-0.0001006609333482622,-0.24580626424011176
165,0.1543,827.051,826.941,-0.628234,6.09335e-05,-0.0526776,-0.170023,0.143507,0.143507,-0.283843,-7.25819e-09,0.000100261,-0.00010535,0.281502,0.15431489098306383,-7.258190048986535e-09,0.00010026602630208714,0.15431489098306383,-0.00010534445088361544,-0.2471151616526268
166,0.1553,827.997,827.887,-0.626308,5.97385e-05,-0.0614489,-0.178254,0.144373,0.144373,-0.285571,-7.31749e-09,9.96943e-05,-0.000106594,0.283227,0.15531496064631867,-7.317489947311628e-09,9.969926964181752e-05,0.15531496064631867,-0.00010658831906140698,-0.24841502324942433
167,0.1563,830.174,830.063,0.61462,6.32201e-05,0.149984,0.101538,0.145238,0.145238,-0.287291,-6.09278e-09,0.000103446,-0.000102169,0.284947,0.15631474042969584,-6.0927799472310085e-09,0.00010345135072187261,0.15631474042969584,-0.00010216378092542389,-0.24970663830206397
168,0.1573,829.887,829.776,-0.608143,5.85754e-05,-0.0512269,-0.162993,0.146103,0.146103,-0.289023,-6.97262e-09,0.000100393,-0.000106713,0.286674,0.1573153853967233,-6.9726200369046865e-09,0.00010039803954597915,0.1573153853967233,-0.00010670730637030168,-0.25100502167994265
169,0.1583,830.817,830.707,-0.60568,5.74458e-05,-0.0600705,-0.171313,0.146966,0.146966,-0.290747,-6.89851e-09,9.98358e-05,-0.000107907,0.288395,0.15831457966463325,-6.898509985475698e-09,9.98407837593529e-05,0.15831457966463325,-0.0001079011782491035,-0.2522951765894872
170,0.1593,832.942,832.832,0.599346,6.07437e-05,0.146005,0.101099,0.147829,0.147829,-0.292462,-7.55003e-09,0.000103492,-0.000103577,0.29011,0.15931463660938783,-7.550030045599954e-09,0.00010349735548187411,0.15931463660938783,-0.00010357163608776254,-0.2535763914059027
171,0.1603,832.68,832.57,-0.58249,5.6354e-05,-0.0487649,-0.154726,0.148691,0.148691,-0.29419,-7.23457e-09,0.000100537,-0.000107952,0.291833,0.1603143966608218,-7.2345700541376345e-09,0.00010054205401366367,0.1603143966608218,-0.00010794617339249246,-0.2548650976386969
172,0.1613,833.593,833.482,-0.582541,5.5281e-05,-0.0582819,-0.163912,0.149553,0.149553,-0.29591,-7.57121e-09,9.99828e-05,-0.000109104,0.29355,0.16131501887695987,-7.571209992285333e-09,9.998779844666572e-05,0.16131501887695987,-0.00010909804837500037,-0.2561456280988691
173,0.1623,835.665,835.554,0.58447,5.84037e-05,0.142086,0.100669,0.150414,0.150414,-0.297621,-6.92538e-09,0.000103539,-0.000104875,0.295261,0.1623153416853853,-6.925380047206886e-09,0.00010354436034720749,0.1623153416853853,-0.0001048695008094569,-0.2574172747252721
174,0.1633,835.429,835.318,-0.556344,5.42528e-05,-0.0461904,-0.1464,0.151274,0.151274,-0.299344,-7.49904e-09,0.000100683,-0.000109082,0.296979,0.1633153628266908,-7.499039944569574e-09,0.00010068806870333624,0.1633153628266908,-0.00010907605077492555,-0.2586956431302787
175,0.1643,836.323,836.212,-0.559727,5.32318e-05,-0.0565307,-0.156645,0.152133,0.152133,-0.301059,-7.96772e-09,0.00010013,-0.000110196,0.298692,0.1643150800404296,-7.967720039303572e-09,0.00010013501317573947,0.1643150800404296,-0.00011018992864375576,-0.25996589055380437
176,0.1653,838.343,838.232,0.570324,5.61956e-05,0.13827,0.100309,0.152991,0.152991,-0.302766,-7.7977e-09,0.000103589,-0.000106066,0.300399,0.16531449106512297,-7.797700041223266e-09,0.00010359436552564993,0.16531449106512297,-0.00010606037520066725,-0.2612280512180233
177,0.1663,838.132,838.021,-0.531299,5.22628e-05,-0.0437879,-0.138385,0.153849,0.153849,-0.304484,-7.62564e-09,0.000100827,-0.000110111,0.302113,0.16631475995244593,-7.62564000833521e-09,0.00010083208321276516,0.16631475995244593,-0.00011010493800633903,-0.2624961717985448
178,0.1673,839.008,838.897,-0.538076,5.12904e-05,-0.0549491,-0.149687,0.154706,0.154706,-0.306195,-7.54995e-09,0.000100274,-0.00011119,0.303821,0.16731472012345683,-7.549949998519878e-09,0.00010027902760567642,0.16731472012345683,-0.00011118381862107451,-0.26375696193505316
179,0.1683,840.979,840.868,0.556947,5.41122e-05,0.134564,0.100028,0.155562,0.155562,-0.307898,-7.46946e-09,0.000103641,-0.000107152,0.305523,0.1683143693126956,-7.469460050479881e-09,0.00010364637091409001,0.1683143693126956,-0.00010714625942953582,-0.2650097168053349
180,0.1693,840.79,840.679,-0.507749,5.03772e-05,-0.0416284,-0.13077,0.156418,0.156418,-0.309612,-7.75238e-09,0.000100966,-0.000111044,0.307233,0.16931487456798444,-7.75237996020195e-09,0.00010097109723816722,0.16931487456798444,-0.0001110378348432306,-0.26626841114153554
181,0.1703,841.649,841.538,-0.517749,4.94502e-05,-0.0535628,-0.143067,0.157273,0.157273,-0.311318,-8.09754e-09,0.000100413,-0.00011209,0.308937,0.17031506630677784,-8.097539971885226e-09,0.000100418041554029,0.17031506630677784,-0.00011208371815063511,-0.2675190900996417
182,0.1713,843.574,843.463,0.544295,5.21455e-05,0.130961,0.0998203,0.158127,0.158127,-0.313017,-7.74302e-09,0.000103691,-0.000108139,0.310635,0.17131494225966692,-7.743020002948242e-09,0.00010369637609763949,0.17131494225966692,-0.0001081331531891383,-0.2687625185739666
183,0.1723,843.406,843.294,-0.4857,4.85896e-05,-0.0397142,-0.123556,0.15898,0.15898,-0.314727,-8.30472e-09,0.000101099,-0.000111888,0.31234,0.17231450015625005,-8.304720022778156e-09,0.00010110411067620895,0.17231450015625005,-0.00011188174077114699,-0.27001186617057527
184,0.1733,844.248,844.137,-0.4987,4.77052e-05,-0.0523646,-0.136774,0.159833,0.159833,-0.316429,-8.08826e-09,0.000100544,-0.000112902,0.31404,0.17331491103946606,-8.088259950689292e-09,0.00010054905471745812,0.17331491103946606,-0.00011289562680905085,-0.2712532492576756
185,0.1743,846.128,846.017,0.532309,5.02877e-05,0.127455,0.0996779,0.160685,0.160685,-0.318123,-8.31991e-09,0.000103739,-0.000109033,0.315734,0.17431500132163436,-8.319909983178775e-09,0.00010374438107607631,0.17431500132163436,-0.00010902705611848251,-0.2724867012246539
186,0.1753,845.979,845.868,-0.465053,4.68944e-05,-0.0380285,-0.116717,0.161536,0.161536,-0.319828,-8.00463e-09,0.000101222,-0.000112647,0.317435,0.17531476872845464,-8.004629958868748e-09,0.00010122712311955162,0.17531476872845464,-0.00011264065556493286,-0.27372605455012
187,0.1763,846.806,846.695,-0.480832,4.60499e-05,-0.0513391,-0.130785,0.162387,0.162387,-0.321526,-8.50014e-09,0.000100666,-0.00011363,0.31913,0.17631538729945717,-8.500140036282744e-09,0.00010067106699174211,0.17631538729945717,-0.00011362354435606736,-0.27495822130387093
188,0.1773,848.644,848.533,0.520931,4.85316e-05,0.124039,0.099593,0.163236,0.163236,-0.323217,-7.82194e-09,0.000103781,-0.000109837,0.32082,0.17731450312792996,-7.821939984609116e-09,0.0001037863854342902,0.17731450312792996,-0.00010983096813754756,-0.276183230914113
189,0.1783,848.513,848.402,-0.44569,4.52861e-05,-0.0365507,-0.110224,0.164085,0.164085,-0.324917,-8.1294e-09,0.000101336,-0.000113324,0.322516,0.17831446756592495,-8.129400042022894e-09,0.0001013411346659776,0.17831446756592495,-0.00011331757907806495,-0.27741267409876125
190,0.1793,849.324,849.213,-0.464043,4.44789e-05,-0.05047,-0.125075,0.164934,0.164934,-0.326611,-8.34461e-09,0.000100777,-0.000114278,0.324208,0.17931528133421737,-8.34461000298603e-09,0.00010078207817243445,0.17931528133421737,-0.00011427147051812359,-0.27863570083272415
191,0.1803,851.122,851.011,0.51011,4.68703e-05,0.120706,0.0995585,0.165781,0.165781,-0.328297,-8.25774e-09,0.000103816,-0.000110558,0.325894,0.18031458452266524,-8.257740047312723e-09,0.00010382138906739335,0.18031458452266524,-0.00011055188868958066,-0.2798508963434455
192,0.1813,851.008,850.896,-0.427498,4.37596e-05,-0.0352614,-0.104049,0.166628,0.166628,-0.329993,-8.09955e-09,0.000101437,-0.000113925,0.327585,0.18131473447946966,-8.09955003067131e-09,0.00010144214490637182,0.18131473447946966,-0.00011391851079356474,-0.2810712340843261
193,0.1823,851.804,851.693,-0.448237,4.29874e-05,-0.0497424,-0.119623,0.167474,0.167474,-0.331682,-8.61805e-09,0.000100876,-0.000114851,0.329272,0.18231454960700622,-8.618050051367732e-09,0.0001008810881548694,0.18231454960700622,-0.00011484440487641301,-0.28228447989544925
194,0.1833,853.564,853.452,0.4998,4.52979e-05,0.117451,0.0995684,0.16832,0.16832,-0.333365,-8.21415e-09,0.000103843,-0.000111198,0.330954,0.18331521093603342,-8.21415002683068e-09,0.00010384839187094208,0.18331521093603342,-0.00011119181773155962,-0.2834913792251219
195,0.1843,853.465,853.353,-0.410376,4.23103e-05,-0.0341428,-0.0981659,0.169164,0.169164,-0.335056,-8.52769e-09,0.000101526,-0.000114451,0.332642,0.1843143505516711,-8.527689998594212e-09,0.00010153115393873868,0.1843143505516711,-0.00011444445073416354,-0.2847019714586466
196,0.1853,854.247,854.136,-0.433331,4.15709e-05,-0.0491428,-0.114408,0.170008,0.170008,-0.336741,-9.17946e-09,0.000100961,-0.000115351,0.334325,0.18531433379710593,-9.179459969921311e-09,0.00010096609673326817,0.18531433379710593,-0.00011534434732918264,-0.28590623376081825
197,0.1863,855.97,855.859,0.489959,4.38085e-05,0.114268,0.0996175,0.170852,0.170852,-0.338419,-8.32767e-09,0.000103859,-0.000111763,0.336002,0.1863151613846621,-8.327669998031695e-09,0.00010386439353271548,0.1863151613846621,-0.00011175675474861535,-0.287103478331451
198,0.1873,855.885,855.773,-0.394233,4.09337e-05,-0.0331793,-0.0925526,0.171694,0.171694,-0.340107,-8.49414e-09,0.0001016,-0.000114908,0.337686,0.1873144593959719,-8.49413994696846e-09,0.0001016051614548541,0.1873144593959719,-0.00011490139832859292,-0.28830583258754194
199,0.1883,856.654,856.542,-0.41925,4.0225e-05,-0.0486593,-0.109413,0.172536,0.172536,-0.341787,-8.56397e-09,0.000101032,-0.000115781,0.339364,0.18831459917053994,-8.563969977615216e-09,0.0001010371039043001,0.18831459917053994,-0.00011577429763864888,-0.28950047500818166
200,0.1893,858.342,858.23,0.480551,4.2397e-05,0.111154,0.0997011,0.173377,0.173377,-0.343462,-8.93015e-09,0.000103864,-0.000112254,0.341038,0.18931439210244227,-8.930149952846023e-09,0.00010386939405204743,0.18931439210244227,-0.00011224769975548554,-0.29068956557118464
201,0.1903,858.27,858.158,-0.37899,3.96257e-05,-0.0323569,-0.0871887,0.174218,0.174218,-0.345144,-8.76978e-09,0.000101659,-0.000115297,0.342717,0.19031502621386687,-8.769780013295758e-09,0.00010166416745116535,0.19031502621386687,-0.00011529035355628547,-0.29188162292062325
202,0.1913,859.026,858.914,-0.405927,3.89457e-05,-0.0482814,-0.104621,0.175058,0.175058,-0.346821,-9.14489e-09,0.000101088,-0.000116146,0.344391,0.19131531089663656,-9.144889956402835e-09,0.00010109310956396556,0.19131531089663656,-0.00011613925531450686,-0.293068142264442
203,0.1923,860.68,860.568,0.471544,4.10584e-05,0.108105,0.0998154,0.175897,0.175897,-0.348491,-9.36551e-09,0.000103856,-0.000112676,0.346061,0.19231524385569898,-9.36551003416497e-09,0.00010386139322116072,0.19231524385569898,-0.00011266965229794756,-0.2942477332342538
204,0.1933,860.621,860.509,-0.364574,3.83824e-05,-0.0316633,-0.0820561,0.176735,0.176735,-0.35017,-8.72622e-09,0.000101702,-0.000115621,0.347736,0.19331482279513001,-8.72621996883538e-09,0.00010170717182367284,0.19331482279513001,-0.00011561431614981466,-0.2954316970743729
205,0.1943,861.364,861.251,-0.393301,3.77293e-05,-0.0479995,-0.100019,0.177573,0.177573,-0.351842,-9.26781e-09,0.000101127,-0.000116446,0.349406,0.19431523973278453,-9.267809963908746e-09,0.00010113211350737394,0.19431523973278453,-0.00011643922042769983,-0.2966087509855819
206,0.1953,862.986,862.874,0.462909,3.97885e-05,0.105117,0.0999566,0.17841,0.17841,-0.353508,-8.9941e-09,0.000103835,-0.000113031,0.351072,0.1953153000553014,-8.994100020309759e-09,0.00010384039104027742,0.1953153000553014,-0.00011302461223716698,-0.29777962519740264
207,0.1963,862.938,862.826,-0.350921,3.72003e-05,-0.0310871,-0.0771384,0.179246,0.179246,-0.355183,-9.00179e-09,0.000101729,-0.000115884,0.352742,0.19631500146311232,-9.001789980089825e-09,0.0001017341745701561,0.19631500146311232,-0.00011587728570860989,-0.2989548597914522
208,0.1973,863.668,863.556,-0.381321,3.65723e-05,-0.0478053,-0.0955932,0.180081,0.180081,-0.356851,-9.69416e-09,0.00010115,-0.000116686,0.354408,0.19731434165580053,-9.694160030271348e-09,0.0001011551158336399,0.19731434165580053,-0.000116679192453506,-0.30012322839501604
209,0.1983,865.26,865.148,0.454619,3.8583e-05,0.102187,0.100122,0.180916,0.180916,-0.358513,-9.91831e-09,0.000103799,-0.000113323,0.35607,0.1983145166460294,-9.918309951117976e-09,0.00010380438730250852,0.1983145166460294,-0.00011331657919133598,-0.3012854575094994
210,0.1993,865.223,865.11,-0.337975,3.6076e-05,-0.0306186,-0.0724208,0.18175,0.18175,-0.360183,-9.11333e-09,0.000101738,-0.000116088,0.357736,0.19931432781621816,-9.113329979548723e-09,0.00010174317548572454,0.19931432781621816,-0.0001160812620488727,-0.3024513370151113
211,0.2003,867.064,866.951,0.754575,3.91214e-05,0.158473,0.174758,0.182584,0.182584,-0.361841,-1.00101e-08,0.000105279,-0.000111547,0.359394,0.20031497317673175,-1.0010099971147213e-08,0.00010528454202840543,0.20031497317673175,-0.00011154077886466052,-0.3036069144599185
212,0.2013,867.327,867.215,0.270086,3.70878e-05,0.05377,0.0433102,0.183417,0.183417,-0.363506,-9.56591e-09,0.000104134,-0.000113021,0.361056,0.2013152521077226,-9.565909953046514e-09,0.00010413942213327587,0.2013152521077226,-0.00011301461336743479,-0.3047654442036889
213,0.2023,868.149,868.037,0.34844,3.70059e-05,0.0832487,0.0803656,0.184249,0.184249,-0.365167,-1.00246e-08,0.000105014,-0.000111952,0.362715,0.20231516230243707,-1.002460003896033e-08,0.00010501951416319599,0.20231516230243707,-0.0001119457336087315,-0.30591927028303145
214,0.2033,868.578,868.465,0.0363504,3.5609e-05,0.0333143,0.0156513,0.18508,0.18508,-0.366829,-9.41653e-09,0.000104489,-0.000112688,0.364374,0.2033147014533072,-9.416530000194712e-09,0.00010449445916571598,0.2033147014533072,-0.00011268165094580063,-0.30707187437650496
215,0.2043,869.635,869.522,0.357032,3.62782e-05,0.0869485,0.0868759,0.185911,0.185911,-0.368485,-9.90141e-09,0.000105723,-0.000111109,0.36603,0.20431507156642903,-9.90141002521483e-09,0.00010572858887325509,0.20431507156642903,-0.00011110282762361035,-0.30821841375591497
216,0.2053,869.944,869.831,-0.0687268,3.45249e-05,0.0114843,-0.0097491,0.186741,0.186741,-0.370145,-9.61011e-09,0.000104708,-0.000112444,0.367686,0.205315068016948,-9.610110041080588e-09,0.00010471348207397035,0.205315068016948,-0.0001124376784104042,-0.3093658185795941
217,0.2063,871.2,871.088,0.45849,3.60031e-05,0.101859,0.10903,0.18757,0.18757,-0.371798,-1.01194e-08,0.000106541,-0.000110071,0.369338,0.2063146884937732,-1.0119399984631627e-08,0.0001065466756939859,0.2063146884937732,-0.00011006494240972664,-0.3105064938536354
218,0.2073,871.264,871.151,-0.206364,3.34632e-05,-0.0141494,-0.0404596,0.188399,0.188399,-0.373456,-9.257e-09,0.000104803,-0.00011233,0.370993,0.20731513799955903,-9.257000055384879e-09,0.00010480849202632037,0.20731513799955903,-0.00011232369122182728,-0.31164872691395595
219,0.2083,872.819,872.706,0.625707,3.61688e-05,0.129433,0.147302,0.189227,0.189227,-0.375104,-1.01654e-08,0.000107542,-0.000108766,0.372641,0.20831520890604183,-1.0165399966233224e-08,0.00010754778284827182,0.20831520890604183,-0.00010876008519311586,-0.3127821955772905
220,0.2093,872.499,872.386,-0.41655,3.2354e-05,-0.0521718,-0.0873597,0.190054,0.190054,-0.376762,-9.43817e-09,0.000104657,-0.000112497,0.374295,0.20931489889864263,-9.438170023301495e-09,0.00010466247673490692,0.20931489889864263,-0.00011249067244978317,-0.31392065865033625
221,0.2103,873.207,873.094,-0.426053,3.17748e-05,-0.065497,-0.101337,0.190881,0.190881,-0.378413,-9.51476e-09,0.000104012,-0.000113269,0.375943,0.21031541597682013,-9.514759979900589e-09,0.00010401740943555282,0.21031541597682013,-0.00011326258530897082,-0.31505244109940844
222,0.2113,874.799,874.686,0.452211,3.45293e-05,0.0918661,0.103439,0.191706,0.191706,-0.380057,-1.00601e-08,0.00010671,-0.000109739,0.377587,0.21131433819375767,-1.0060099975284231e-08,0.00010671569371467626,0.21131433819375767,-0.00010973297889615985,-0.31617756977705747
223,0.2123,874.706,874.593,-0.353662,3.15317e-05,-0.044294,-0.0729332,0.192532,0.192532,-0.381709,-9.89706e-09,0.000104497,-0.00011258,0.379236,0.21231529717625475,-9.897059949359743e-09,0.00010450246000170971,0.21231529717625475,-0.00011257366310957195,-0.31730631183414215
224,0.2133,875.408,875.295,-0.35982,3.10142e-05,-0.0563432,-0.0854341,0.193356,0.193356,-0.383355,-9.79111e-09,0.000103927,-0.00011323,0.38088,0.2133146566606905,-9.791110033852135e-09,0.00010393240059780595,0.2133146566606905,-0.0001132235897255418,-0.3184291013356041
225,0.2143,876.889,876.776,0.416752,3.34248e-05,0.0845936,0.09768,0.19418,0.19418,-0.384996,-9.16625e-09,0.000106356,-0.00011003,0.38252,0.2143148399567052,-9.166249981262808e-09,0.00010636165599997582,0.2143148399567052,-0.00011002394692161133,-0.3195466419874239
226,0.2153,876.882,876.769,-0.294096,3.07651e-05,-0.0353284,-0.0575028,0.195003,0.195003,-0.386643,-9.80368e-09,0.000104421,-0.000112485,0.384165,0.21531463242815918,-9.803679978936941e-09,0.00010442645206243384,0.21531463242815918,-0.00011247867379959864,-0.3206664262725838
227,0.2163,878.549,878.436,0.67529,3.40721e-05,0.133882,0.162878,0.195826,0.195826,-0.38828,-1.0557e-08,0.00010755,-0.00010836,0.385801,0.21631524806750435,-1.0557000051925058e-08,0.00010755578370869046,0.21631524806750435,-0.00010835412926724075,-0.3217775856007279
228,0.2173,878.075,877.962,-0.496888,2.98381e-05,-0.0710564,-0.101641,0.196648,0.196648,-0.389928,-9.98114e-09,0.000104207,-0.000112612,0.387445,0.21731547023640774,-9.98114002559447e-09,0.00010421242973812639,0.21731547023640774,-0.00011260565950677037,-0.32289437565189794
229,0.2183,878.807,878.694,-0.458058,2.94191e-05,-0.0752651,-0.103887,0.197469,0.197469,-0.391567,-1.07772e-08,0.000103629,-0.000113233,0.389082,0.2183152966100379,-1.0777200021294675e-08,0.00010363436967031348,0.2183152966100379,-0.00011322658938583974,-0.3240032428053411
230,0.2193,880.392,880.279,0.437369,3.22552e-05,0.0850333,0.104401,0.198289,0.198289,-0.3932,-1.07998e-08,0.000106334,-0.000109632,0.390715,0.21931472486284043,-1.0799800054250852e-08,0.00010633965366024789,0.21931472486284043,-0.00010962599063191192,-0.3251062446637091
231,0.2203,880.291,880.178,-0.353022,2.93076e-05,-0.0490757,-0.06899,0.199109,0.199109,-0.394842,-1.0626e-08,0.000104109,-0.000112419,0.392353,0.22031497298290992,-1.0625999968816302e-08,0.00010411441952995482,0.22031497298290992,-0.0001124126812209747,-0.3262135108956139
232,0.2213,882.058,881.944,0.730666,3.31036e-05,0.140877,0.177896,0.199928,0.199928,-0.396471,-1.12148e-08,0.000107577,-0.000107823,0.393983,0.22131482032738226,-1.1214799977565804e-08,0.00010758278661304743,0.22131482032738226,-0.00010781718730923373,-0.32731021557787954
233,0.2223,882.262,882.148,0.251756,3.08014e-05,0.0374446,0.0484307,0.200747,0.200747,-0.398108,-1.05161e-08,0.000106314,-0.000109272,0.395617,0.22231548688225056,-1.051609999080938e-08,0.00010631965153362621,0.22231548688225056,-0.00010926603003247326,-0.32841050791998583
234,0.2233,883.024,882.911,0.335203,3.09093e-05,0.0672344,0.085727,0.201564,0.201564,-0.399741,-1.12028e-08,0.000107093,-0.000108165,0.397248,0.22331452668722296,-1.120280002098184e-08,0.00010709873466008268,0.22331452668722296,-0.00010815915037731827,-0.3295063185876268
235,0.2243,883.398,883.284,0.0312399,2.9444e-05,0.0178436,0.022023,0.202381,0.202381,-0.401374,-1.00995e-08,0.000106461,-0.000108863,0.398879,0.22431438304123108,-1.0099500014071339e-08,0.00010646666717328834,0.22431438304123108,-0.00010885707463859084,-0.33060034125674576
236,0.2253,884.377,884.264,0.33771,3.03421e-05,0.0697172,0.0904957,0.203198,0.203198,-0.403003,-1.04229e-08,0.000107564,-0.000107291,0.400506,0.22531505661166773,-1.042289998753887e-08,0.00010756978521442306,0.22531505661166773,-0.00010728524452652266,-0.3316899056097302
237,0.2263,884.651,884.538,-0.0599898,2.85193e-05,-0.00150347,-0.000278053,0.204014,0.204014,-0.404634,-1.06927e-08,0.000106504,-0.000108508,0.402135,0.2263153217505367,-1.0692699947689732e-08,0.00010650967175229731,0.2263153217505367,-0.00010850211321988823,-0.33277903095052797
238,0.2273,885.8,885.687,0.421276,3.02149e-05,0.0819122,0.108798,0.204829,0.204829,-0.406259,-1.02046e-08,0.000108124,-0.000106254,0.403759,0.22731517612307628,-1.0204600053853596e-08,0.00010812984561026084,0.22731517612307628,-0.00010624835524364329,-0.33386238456202977
239,0.2283,885.873,885.76,-0.172223,2.76317e-05,-0.0227886,-0.0254249,0.205643,0.205643,-0.407889,-1.02603e-08,0.000106461,-0.000108237,0.405385,0.22831461739385217,-1.0260300054021343e-08,0.00010646666717328834,0.22831461739385217,-0.0001082311425872895,-0.33494730442529486
240,0.2293,887.261,887.147,0.553815,3.04542e-05,0.103825,0.139376,0.206457,0.206457,-0.40951,-1.02025e-08,0.000108823,-0.000105012,0.407006,0.22931487254102523,-1.0202499955980215e-08,0.00010882892143748712,0.22931487254102523,-0.00010500648643296806,-0.3360244815568867
241,0.2303,887.033,886.92,-0.335632,2.6683e-05,-0.0528893,-0.062036,0.20727,0.20727,-0.411139,-1.06493e-08,0.000106241,-0.000108168,0.408631,0.23031471191203345,-1.0649299997389505e-08,0.00010624664377489879,0.23031471191203345,-0.00010816215005282626,-0.3371052171782766
242,0.2313,887.674,887.561,-0.351922,2.61758e-05,-0.0675095,-0.0777514,0.208083,0.208083,-0.412761,-1.05203e-08,0.000105565,-0.000108812,0.410252,0.2313153644829713,-1.0520299964511537e-08,0.00010557057218063548,0.2313153644829713,-0.00010880608018903892,-0.33817956098764457
243,0.2323,889.081,888.967,0.400372,2.90614e-05,0.0701345,0.100312,0.208894,0.208894,-0.414378,-1.04509e-08,0.000107878,-0.000105636,0.411868,0.23231436628404212,-1.0450900034264521e-08,0.00010788381904069944,0.23231436628404212,-0.00010563042071420892,-0.33924885987638564
244,0.2333,889.057,888.944,-0.276312,2.61627e-05,-0.0450275,-0.0481193,0.209706,0.209706,-0.416001,-1.09193e-08,0.000105924,-0.000107966,0.413489,0.23331541191898975,-1.0919300019729405e-08,0.00010592961014488367,0.23331541191898975,-0.000107960171881194,-0.34032038919555163
245,0.2343,890.612,890.498,0.629749,2.98486e-05,0.114566,0.15886,0.210516,0.210516,-0.417615,-1.08752e-08,0.000108821,-0.00010402,0.415102,0.23431480210102618,-1.087519996278985e-08,0.00010882692121971793,0.23431480210102618,-0.00010401459010733749,-0.3413842533180963
246,0.2353,890.186,890.073,-0.444811,2.53224e-05,-0.075028,-0.0848136,0.211326,0.211326,-0.419238,-1.02342e-08,0.00010563,-0.000107923,0.416721,0.23531500211704848,-1.0234200042980035e-08,0.00010563557904497145,0.23531500211704848,-0.00010791717652258725,-0.3424523197046363
247,0.2363,890.872,890.758,-0.403729,2.50074e-05,-0.0787593,-0.0865531,0.212135,0.212135,-0.420854,-1.09653e-08,0.000105039,-0.000108422,0.418335,0.23631477630789366,-1.0965300001331002e-08,0.00010504451678894355,0.23631477630789366,-0.00010841612254741673,-0.34351405863987694
248,0.2373,892.312,892.198,0.39447,2.80848e-05,0.06634,0.10109,0.212944,0.212944,-0.422464,-1.09016e-08,0.00010744,-0.000105097,0.419945,0.23731535964331396,-1.0901599956092412e-08,0.00010744577188348536,0.23731535964331396,-0.00010509147750381587,-0.3445701506232953
249,0.2383,892.266,892.152,-0.292206,2.51179e-05,-0.0508976,-0.0498569,0.213751,0.213751,-0.424081,-1.1156e-08,0.000105415,-0.000107481,0.421559,0.2383142761471435,-1.1156000012668699e-08,0.00010542055635642811,0.2383142761471435,-0.00010747522412424271,-0.34562912427879644
250,0.2393,893.829,893.715,0.635403,2.89324e-05,0.113065,0.162473,0.214559,0.214559,-0.425688,-1.02182e-08,0.000108371,-0.000103428,0.423166,0.23931523841656954,-1.0218199952838347e-08,0.00010837687234888094,0.23931523841656954,-0.00010342265150875551,-0.34667985378879795
251,0.2403,893.375,893.261,-0.455157,2.43113e-05,-0.0797079,-0.0850691,0.215365,0.215365,-0.427305,-1.15362e-08,0.000105096,-0.0001074,0.424779,0.24031452915880447,-1.1536199995276775e-08,0.0001051015227779839,0.24031452915880447,-0.00010739423282646321,-0.3477354188109032
252,0.2413,894.06,893.946,-0.402618,2.40468e-05,-0.0812282,-0.0840018,0.216171,0.216171,-0.428914,-1.09806e-08,0.000104522,-0.000107842,0.426387,0.2413146256540526,-1.0980599984833361e-08,0.00010452746261457868,0.2413146256540526,-0.00010783618526055694,-0.3487840686569995
253,0.2423,895.476,895.362,0.38462,2.71063e-05,0.0621873,0.10126,0.216976,0.216976,-0.430517,-1.04387e-08,0.000106881,-0.00010454,0.42799,0.24231428623710505,-1.043870001549152e-08,0.00010688671197756072,0.24231428623710505,-0.00010453453588465944,-0.3498271315566729
254,0.2433,895.437,895.323,-0.28319,2.41978e-05,-0.0520495,-0.0456611,0.217781,0.217781,-0.432128,-1.04892e-08,0.000104884,-0.000106848,0.429598,0.24331475187091622,-1.0489199953056527e-08,0.00010488950051912305,0.24331475187091622,-0.00010684229195578876,-0.350873716796972
255,0.2443,896.961,896.847,0.617593,2.79261e-05,0.10756,0.160813,0.218585,0.218585,-0.433728,-1.17492e-08,0.000107753,-0.000102879,0.431198,0.2443147788884119,-1.1749199946287092e-08,0.00010775880556312956,0.2443147788884119,-0.00010287370813710783,-0.35191148841141406
256,0.2453,896.533,896.419,-0.435048,2.3429e-05,-0.0789549,-0.0784147,0.219388,0.219388,-0.435339,-1.13394e-08,0.000104561,-0.000106705,0.432804,0.24531436493594572,-1.1339399974552578e-08,0.00010456646669187997,0.24531436493594572,-0.00010669930722395637,-0.3529547184561558
257,0.2463,897.203,897.089,-0.385528,2.31769e-05,-0.0810133,-0.0780712,0.220191,0.220191,-0.436941,-1.14172e-08,0.000103981,-0.000107119,0.434406,0.24631475397343272,-1.141719996322621e-08,0.00010398640621156474,0.24631475397343272,-0.0001071132629647531,-0.3539904551505869
258,0.2473,898.58,898.466,0.37398,2.61638e-05,0.0579985,0.101267,0.220993,0.220993,-0.438539,-1.08779e-08,0.00010626,-0.000103891,0.436003,0.24731469933061034,-1.0877900025185738e-08,0.00010626564579374609,0.24731469933061034,-0.00010388560351692888,-0.35502195401615944
259,0.2483,898.555,898.441,-0.267208,2.33514e-05,-0.0518481,-0.0398528,0.221795,0.221795,-0.440143,-1.06905e-08,0.000104321,-0.00010609,0.437604,0.24831544696563457,-1.0690500040766437e-08,0.00010432644162472471,0.24831544696563457,-0.00010608437265491322,-0.356055669540437
260,0.2493,900.029,899.914,0.593673,2.694e-05,0.101011,0.157706,0.222595,0.222595,-0.441737,-1.06099e-08,0.000107061,-0.000102257,0.439198,0.24931449889069435,-1.0609899958602398e-08,0.00010706673123328514,0.24931449889069435,-0.00010225177193112778,-0.3570812991592204
261,0.2503,899.64,899.526,-0.407142,2.2625e-05,-0.0767706,-0.0700362,0.223395,0.223395,-0.443341,-1.13275e-08,0.000103996,-0.00010588,0.440798,0.25031435037707617,-1.1327500049063133e-08,0.00010400140777155897,0.25031435037707617,-0.00010587439491061001,-0.3581117141416307
262,0.2513,900.292,900.177,-0.364816,2.23734e-05,-0.0801571,-0.0714272,0.224195,0.224195,-0.444937,-1.18477e-08,0.000103404,-0.000106277,0.442393,0.2513150020646848,-1.184770004325486e-08,0.00010340934637786958,0.2513150020646848,-0.000106271352799725,-0.3591353507665487
263,0.2523,901.626,901.512,0.363668,2.52795e-05,0.053899,0.101283,0.224994,0.224994,-0.446528,-1.13108e-08,0.000105594,-0.000103135,0.443984,0.252315202278109,-1.1310799963304419e-08,0.00010559957524258756,0.252315202278109,-0.00010312968176873216,-0.3601541557492086
264,0.2533,901.617,901.503,-0.250251,2.25673e-05,-0.0514174,-0.033871,0.225792,0.225792,-0.448126,-1.13578e-08,0.000103716,-0.00010522,0.445578,0.2533149486552779,-1.1357800033806598e-08,0.0001037213786903024,0.2533149486552779,-0.00010521446456990269,-0.3611758128868594
265,0.2543,903.038,902.924,0.56939,2.6013e-05,0.0944028,0.154427,0.22659,0.22659,-0.449714,-1.15058e-08,0.000106323,-0.000101529,0.447166,0.2543154931484617,-1.1505799979438791e-08,0.00010632865249049495,0.2543154931484617,-0.00010152384610551124,-0.36218946064666047
266,0.2553,902.692,902.577,-0.378868,2.18839e-05,-0.0744712,-0.0616335,0.227386,0.227386,-0.451311,-1.1291e-08,0.00010339,-0.000104947,0.44876,0.255314325763649,-1.1291000023838649e-08,0.00010339534493031266,0.255314325763649,-0.0001049414932562387,-0.36320723117193243
267,0.2563,903.324,903.209,-0.344431,2.16288e-05,-0.0793143,-0.0649202,0.228183,0.228183,-0.452901,-1.1131e-08,0.000102783,-0.000105331,0.450348,0.256315210080702,-1.113100001060019e-08,0.00010278828235343873,0.256315210080702,-0.00010532545288499673,-0.36421892716291715
268,0.2573,904.617,904.503,0.353951,2.4459e-05,0.0499157,0.101346,0.228978,0.228978,-0.454486,-1.19672e-08,0.000104887,-0.000102271,0.451933,0.2573143777892555,-1.1967200008733414e-08,0.00010489250083378643,0.2573143777892555,-0.00010226577049954333,-0.36522584197257757
269,0.2583,904.623,904.509,-0.234118,2.18407e-05,-0.0510972,-0.0281467,0.229773,0.229773,-0.456077,-1.0808e-08,0.000103067,-0.000104248,0.453522,0.2583143401519703,-1.0808000050488431e-08,0.00010307231158579455,0.2583143401519703,-0.0001042425663660973,-0.36623496468801464
270,0.2593,905.994,905.88,0.546403,2.5154e-05,0.0880252,0.15135,0.230568,0.230568,-0.457659,-1.0443e-08,0.000105546,-0.000100693,0.455103,0.2593150978008478,-1.0443000020288196e-08,0.00010555157017511085,0.2593150978008478,-0.0001006879306300057,-0.36723678832244266
271,0.2603,905.686,905.572,-0.352351,2.11988e-05,-0.0724351,-0.0536906,0.231362,0.231362,-0.45925,-1.19483e-08,0.000102737,-0.000103917,0.456691,0.260315391052371,-1.1948300016051405e-08,0.00010274227762629984,0.260315391052371,-0.00010391160081557604,-0.36824271416602306
272,0.2613,906.3,906.186,-0.325439,2.09388e-05,-0.0786625,-0.0587771,0.232155,0.232155,-0.460834,-1.08004e-08,0.000102115,-0.000104288,0.458273,0.2613152175362814,-1.080040001877336e-08,0.00010212021391398096,0.2613152175362814,-0.00010428256219552345,-0.36924262556788434
273,0.2623,907.555,907.44,0.34484,2.37003e-05,0.0460475,0.101458,0.232947,0.232947,-0.462413,-1.16788e-08,0.000104137,-0.000101306,0.459851,0.2623145748818405,-1.1678800038161796e-08,0.00010414242244571881,0.2623145748818405,-0.0001013008687205108,-0.3702378055607397
274,0.2633,907.575,907.46,-0.219224,2.11678e-05,-0.0509661,-0.0227763,0.233739,0.233739,-0.463997,-1.1966e-08,0.00010237,-0.000103182,0.461434,0.26331472403193046,-1.1965999968666097e-08,0.00010237523998735121,0.26331472403193046,-0.00010317667692050225,-0.37123455923940873
275,0.2643,908.899,908.784,0.525039,2.43612e-05,0.0819384,0.148554,0.23453,0.23453,-0.465573,-1.18634e-08,0.00010473,-9.97528e-05,0.463009,0.2643144012988756,-1.1863400040112992e-08,0.0001047354843779491,0.2643144012988756,-9.974782485488998e-05,-0.37222471312784
276,0.2653,908.626,908.512,-0.327996,2.05652e-05,-0.0707363,-0.0462984,0.235321,0.235321,-0.467157,-1.11354e-08,0.000102035,-0.000102797,0.46459,0.2653148696233609,-1.1135400046491384e-08,0.00010204020574766659,0.2653148696233609,-0.0001027917165694614,-0.3732183220362384
277,0.2663,909.223,909.109,-0.307994,2.02994e-05,-0.0782282,-0.0530281,0.236111,0.236111,-0.468735,-1.14719e-08,0.000101397,-0.000103157,0.466166,0.26631486331586385,-1.1471899985515677e-08,0.00010140214084963795,0.26631486331586385,-0.00010315167949959125,-0.3742066035648638
278,0.2673,910.441,910.327,0.336286,2.29994e-05,0.0422874,0.101614,0.2369,0.2369,-0.470308,-1.20905e-08,0.000103343,-0.000100246,0.467739,0.26731438000050045,-1.2090500045580654e-08,0.00010334834007186267,0.26731438000050045,-0.00010024097553762434,-0.37519020277386605
279,0.2683,910.473,910.359,-0.205564,2.05448e-05,-0.0510241,-0.0177559,0.237689,0.237689,-0.471886,-1.16419e-08,0.000101624,-0.000102029,0.469314,0.26831468561499316,-1.164189999958154e-08,0.00010162916389355736,0.26831468561499316,-0.00010202379521861982,-0.376175375128471
280,0.2693,911.754,911.639,0.505242,2.36298e-05,0.0761363,0.146034,0.238477,0.238477,-0.473456,-1.12674e-08,0.000103873,-9.87154e-05,0.470884,0.2693145114669071,-1.1267400013004192e-08,0.00010387839498693374,0.2693145114669071,-9.871052779519829e-05,-0.37715401135905813
281,0.2703,911.513,911.398,-0.305716,1.99793e-05,-0.0693601,-0.0394335,0.239265,0.239265,-0.475034,-1.18041e-08,0.000101281,-0.000101593,0.472459,0.2703151254920919,-1.1804100030765596e-08,0.00010128612909365842,0.2703151254920919,-0.0001015878396058989,-0.3781360872674543
282,0.2713,913.042,912.927,0.656876,2.4341e-05,0.102084,0.181143,0.240052,0.240052,-0.4766,-1.24322e-08,0.000104333,-9.72403e-05,0.474025,0.27131525699598,-1.2432200047207687e-08,0.0001043384428767169,0.27131525699598,-9.723557231522406e-05,-0.37910916403682215
283,0.2723,912.481,912.366,-0.470459,1.92941e-05,-0.10003,-0.0768186,0.240838,0.240838,-0.478177,-1.08952e-08,0.000100727,-0.000101405,0.475598,0.27231490359762844,-1.0895199964444657e-08,0.00010073207313454624,0.27231490359762844,-0.00010139985868673485,-0.38008753723510713
284,0.2733,913.139,913.024,-0.375532,1.92952e-05,-0.0930909,-0.0651751,0.241624,0.241624,-0.479745,-1.25286e-08,0.000100212,-0.000101569,0.477165,0.27331533623037574,-1.2528600046302074e-08,0.00010021702139018096,0.27331533623037574,-0.00010156384204373925,-0.38105879830904343
285,0.2743,914.404,914.289,0.329316,2.2281e-05,0.0373999,0.102221,0.242409,0.242409,-0.481309,-1.24105e-08,0.000102284,-9.84571e-05,0.478729,0.2743152811963665,-1.241049996103527e-08,0.00010228923118660305,0.2743152811963665,-9.845225325877394e-05,-0.38202606574818154
286,0.2753,914.408,914.293,-0.226481,1.96988e-05,-0.0587308,-0.0205922,0.243193,0.243193,-0.482879,-1.27012e-08,0.000100469,-0.000100318,0.480296,0.2753147361119579,-1.2701199980647004e-08,0.0001004740471790555,0.2753147361119579,-0.0001003129683176951,-0.38299552360140743
287,0.2763,915.705,915.59,0.513603,2.29771e-05,0.0742828,0.150394,0.243977,0.243977,-0.48444,-1.2577e-08,0.000102803,-9.68616e-05,0.481857,0.27631497490744383,-1.2576999997016003e-08,0.00010280828440945022,0.27631497490744383,-9.685690906668931e-05,-0.3839579162461828
288,0.2773,915.427,915.312,-0.320525,1.91489e-05,-0.0756792,-0.0405725,0.24476,0.24476,-0.486009,-1.23653e-08,0.000100096,-9.98436e-05,0.483423,0.2773147208822677,-1.2365300006145219e-08,0.00010010100977186909,0.2773147208822677,-9.983861579365705e-05,-0.3849237283978264
289,0.2783,916.965,916.85,0.664833,2.37057e-05,0.100381,0.185572,0.245543,0.245543,-0.487567,-1.14761e-08,0.000103218,-9.5366e-05,0.484981,0.27831524996473656,-1.1476099959217834e-08,0.00010322332716095062,0.27831524996473656,-9.536145280752972e-05,-0.3858812711095181
290,0.2793,916.372,916.257,-0.481043,1.8481e-05,-0.105632,-0.0770427,0.246325,0.246325,-0.489135,-1.22627e-08,9.95049e-05,-9.96227e-05,0.486546,0.2793152834523407,-1.2262699966569812e-08,9.950985077677998e-05,0.2793152834523407,-9.961773782363181e-05,-0.38684345472732473
291,0.2803,917.03,916.915,-0.373268,1.85435e-05,-0.0961473,-0.0622095,0.247106,0.247106,-0.490695,-1.20773e-08,9.9011e-05,-9.97206e-05,0.488104,0.28031481895652477,-1.2077300048929374e-08,9.901590175087627e-05,0.28031481895652477,-9.971562806621037e-05,-0.3877992332368808
292,0.2813,918.268,918.153,0.318071,2.15266e-05,0.0321949,0.102202,0.247887,0.247887,-0.492251,-1.19356e-08,0.000101032,-9.66391e-05,0.48966,0.281315135402856,-1.1935599952828113e-08,0.0001010371039043001,0.281315135402856,-9.663443059260146e-05,-0.38875107690354627
293,0.2823,918.28,918.165,-0.216686,1.8992e-05,-0.060498,-0.0160561,0.248667,0.248667,-0.493812,-1.32492e-08,9.92491e-05,-9.84174e-05,0.491218,0.282314951085896,-1.3249199959375346e-08,9.925402535482242e-05,0.282314951085896,-9.841255716658281e-05,-0.3897044921383086
294,0.2833,919.535,919.42,0.494619,2.21959e-05,0.0677278,0.148556,0.249446,0.249446,-0.495365,-1.2367e-08,0.000101484,-9.50527e-05,0.492771,0.28331426361448653,-1.2366999979640525e-08,0.00010148914967533784,0.28331426361448653,-9.504818263528225e-05,-0.39065154548475167
295,0.2843,919.284,919.168,-0.300673,1.84743e-05,-0.0756724,-0.0337839,0.250225,0.250225,-0.496925,-1.23957e-08,9.88605e-05,-9.78844e-05,0.494329,0.28431435491082735,-1.2395700021983203e-08,9.886538686032509e-05,0.28431435491082735,-9.787960947837959e-05,-0.39160138800400235
296,0.2853,920.757,920.642,0.633238,2.2858e-05,0.0916542,0.180875,0.251004,0.251004,-0.498474,-1.22697e-08,0.000101817,-9.35867e-05,0.495878,0.2853152255818152,-1.2269700033762376e-08,0.00010182218352672301,0.2853152255818152,-9.358232090139751e-05,-0.39254306793458893
297,0.2863,920.219,920.103,-0.445776,1.78398e-05,-0.102916,-0.0667794,0.251781,0.251781,-0.500034,-1.20026e-08,9.82715e-05,-9.75847e-05,0.497434,0.2863143036036393,-1.20026000249851e-08,9.827632880199388e-05,0.2863143036036393,-9.757993876802207e-05,-0.39348996197922603
298,0.2873,920.853,920.738,-0.348576,1.78918e-05,-0.0953463,-0.0544498,0.252559,0.252559,-0.501586,-1.20782e-08,9.77568e-05,-9.76712e-05,0.498984,0.28731544552555266,-1.2078199995713135e-08,9.776157835172938e-05,0.28731544552555266,-9.766643032360633e-05,-0.3944305354843973
299,0.2883,922.043,921.928,0.307028,2.07927e-05,0.027188,0.102249,0.253335,0.253335,-0.503133,-1.27297e-08,9.96734e-05,-9.46901e-05,0.500531,0.28831479000679083,-1.2729699960800644e-08,9.967836755842008e-05,0.28831479000679083,-9.468561703396272e-05,-0.39536662719237836
300,0.2893,922.072,921.957,-0.198636,1.83576e-05,-0.0605986,-0.0095954,0.254111,0.254111,-0.504685,-1.27798e-08,9.79551e-05,-9.63463e-05,0.502082,0.28931491028031475,-1.2779799996032182e-08,9.795989775751579e-05,0.28931491028031475,-9.634165884431223e-05,-0.39630429037213555
301,0.2903,923.271,923.156,0.469268,2.14219e-05,0.0600927,0.145173,0.254886,0.254886,-0.50623,-1.23637e-08,0.000100043,-9.3135e-05,0.503626,0.2903145166332115,-1.236369995272213e-08,0.00010004800446772322,0.2903145166332115,-9.313066307048423e-05,-0.3972362800960586
302,0.2913,923.06,922.945,-0.272741,1.78833e-05,-0.0741252,-0.0252174,0.255661,0.255661,-0.507782,-1.31882e-08,9.75536e-05,-9.57556e-05,0.505175,0.2913148979813034,-1.3188199976532644e-08,9.75583585072215e-05,0.2913148979813034,-9.575101557890431e-05,-0.39817104382506496
303,0.2923,924.454,924.338,0.593111,2.20096e-05,0.0814065,0.174087,0.256435,0.256435,-0.509323,-1.25181e-08,0.000100288,-9.1709e-05,0.506716,0.29231476261003597,-1.251810000102438e-08,0.00010029302900949055,0.29231476261003597,-9.170479485820504e-05,-0.39909774803754927
304,0.2933,923.988,923.872,-0.401045,1.72917e-05,-0.0983973,-0.0544117,0.257209,0.257209,-0.510874,-1.22545e-08,9.69727e-05,-9.53717e-05,0.508264,0.29331540143356594,-1.2254499970332233e-08,9.697740200431682e-05,0.29331540143356594,-9.536715226399206e-05,-0.4000290250383389
305,0.2943,924.594,924.478,-0.320064,1.73116e-05,-0.0938214,-0.0459503,0.257982,0.257982,-0.512417,-1.20371e-08,9.6425e-05,-9.54635e-05,0.509806,0.2943155207351842,-1.2037099983430721e-08,9.642964903977536e-05,0.2943155207351842,-9.545894350504458e-05,-0.4009540663997624
306,0.2953,925.734,925.618,0.296865,2.01183e-05,0.022394,0.102398,0.258754,0.258754,-0.513956,-1.29803e-08,9.82304e-05,-9.25929e-05,0.511344,0.29531511811213385,-1.2980299946008245e-08,9.823522476382074e-05,0.29531511811213385,-9.258861340977198e-05,-0.4018752890289321
307,0.2963,925.779,925.664,-0.180111,1.7787e-05,-0.0605269,-0.00310389,0.259526,0.259526,-0.5155,-1.30345e-08,9.65778e-05,-9.41272e-05,0.512886,0.2963154874762073,-1.3034500034869723e-08,9.65824637859658e-05,0.2963154874762073,-9.412277017406545e-05,-0.40279808100394365
308,0.2973,926.923,926.807,0.444338,2.07093e-05,0.0525579,0.141761,0.260297,0.260297,-0.517037,-1.28659e-08,9.85187e-05,-9.10718e-05,0.514423,0.29731533210762784,-1.2865900012037912e-08,9.852355312656158e-05,0.29731533210762784,-9.106765308952713e-05,-0.4037152753090545
309,0.2983,926.753,926.637,-0.245382,1.73572e-05,-0.0726011,-0.0168717,0.261067,0.261067,-0.51858,-1.23473e-08,9.61615e-05,-9.34839e-05,0.515963,0.298314649601211,-1.2347299960246971e-08,9.616612366514232e-05,0.298314649601211,-9.3479530516416e-05,-0.4046346331722569
310,0.2993,928.068,927.953,0.554339,2.12309e-05,0.0714081,0.167471,0.261837,0.261837,-0.520113,-1.35129e-08,9.86788e-05,-8.96841e-05,0.517496,0.2993147368655882,-1.3512900021162011e-08,9.868366891296887e-05,0.2993147368655882,-8.968007850129744e-05,-0.4055466290561528
311,0.3003,927.672,927.557,-0.358299,1.68109e-05,-0.094138,-0.0425772,0.262606,0.262606,-0.521655,-1.24898e-08,9.55862e-05,-9.30223e-05,0.519035,0.3003142941787664,-1.2489799972037474e-08,9.559076850629289e-05,0.3003142941787664,-9.301797355998342e-05,-0.4064625697823574
312,0.3013,929.23,929.114,0.687047,2.20312e-05,0.0944724,0.198464,0.263375,0.263375,-0.523185,-1.20591e-08,9.89108e-05,-8.81875e-05,0.520565,0.30131462044714397,-1.2059100051864391e-08,9.891569183451132e-05,0.30131462044714397,-8.818361159668164e-05,-0.4073699876988698
313,0.3023,928.549,928.434,-0.507206,1.62481e-05,-0.122144,-0.0765721,0.264143,0.264143,-0.524726,-1.29127e-08,9.48818e-05,-9.27073e-05,0.522103,0.3023144139472096,-1.2912700020351053e-08,9.488630142029386e-05,0.3023144139472096,-9.270300281105648e-05,-0.40828252725551484
314,0.3033,929.204,929.088,-0.362829,1.65249e-05,-0.105312,-0.0525971,0.264911,0.264911,-0.526258,-1.3527e-08,9.44524e-05,-9.26047e-05,0.523634,0.30331497558360976,-1.3526999964597053e-08,9.445686076836601e-05,0.30331497558360976,-9.260041231717864e-05,-0.4091883443906693
315,0.3043,930.358,930.243,0.283743,1.95142e-05,0.0158209,0.101891,0.265678,0.265678,-0.527787,-1.30784e-08,9.63069e-05,-8.96296e-05,0.525162,0.30431500163084624,-1.307840002962024e-08,9.631153765843337e-05,0.30431500163084624,-8.962558338743154e-05,-0.4100910051520875
316,0.3053,930.396,930.281,-0.186393,1.71342e-05,-0.0661984,-0.00229388,0.266444,0.266444,-0.52932,-1.19551e-08,9.46252e-05,-9.11533e-05,0.526693,0.3053144896771458,-1.1955100021054932e-08,9.46296771053845e-05,0.3053144896771458,-9.11491456642155e-05,-0.4109946428259432
317,0.3063,931.525,931.409,0.437325,2.01201e-05,0.047298,0.142801,0.26721,0.26721,-0.530846,-1.20854e-08,9.65545e-05,-8.8074e-05,0.528219,0.30631474362459166,-1.2085400014072434e-08,9.655916153583632e-05,0.30631474362459166,-8.807012159917083e-05,-0.41189277954838255
318,0.3073,931.35,931.235,-0.242271,1.67214e-05,-0.0763763,-0.0137162,0.267975,0.267975,-0.532379,-1.299e-08,9.41833e-05,-9.04561e-05,0.529749,0.30731445674497815,-1.2989999964574395e-08,9.41877353861642e-05,0.30731445674497815,-9.04520089702876e-05,-0.4127936572181724
319,0.3083,932.635,932.519,0.540917,2.06043e-05,0.0651547,0.167139,0.26874,0.26874,-0.533901,-1.22331e-08,9.66432e-05,-8.66919e-05,0.531272,0.30831493493850504,-1.2233099977443374e-08,9.664787010454923e-05,0.30831493493850504,-8.668814236578726e-05,-0.4136867054897573
320,0.3093,932.251,932.135,-0.345367,1.6195e-05,-0.0961605,-0.0372033,0.269504,0.269504,-0.535433,-1.22359e-08,9.35837e-05,-8.99388e-05,0.5328,0.3093148694751531,-1.2235899959911478e-08,9.358807909110034e-05,0.3093148694751531,-8.99347556273522e-05,-0.41458424976248764
321,0.3103,933.757,933.641,0.661974,2.13378e-05,0.0862079,0.195478,0.270267,0.270267,-0.536952,-1.23761e-08,9.67876e-05,-8.52222e-05,0.53432,0.310314257938777,-1.2376100033684168e-08,9.679228407089013e-05,0.310314257938777,-8.521856869148081e-05,-0.4154728212462019
322,0.3113,933.114,932.998,-0.479888,1.56593e-05,-0.12162,-0.0679491,0.27103,0.27103,-0.538482,-1.2369e-08,9.28699e-05,-8.95497e-05,0.535847,0.3113144092267792,-1.2369000046419387e-08,9.287421254255968e-05,0.3113144092267792,-8.954569054531181e-05,-0.41636646401864696
323,0.3123,933.749,933.633,-0.341416,1.59454e-05,-0.105757,-0.0452955,0.271793,0.271793,-0.540004,-1.21189e-08,9.24278e-05,-8.9421e-05,0.537368,0.3123153239214167,-1.2118899994639776e-08,9.243207158071698e-05,0.3123153239214167,-8.941700206155367e-05,-0.4172540786143579
324,0.3133,934.856,934.741,0.271735,1.88682e-05,0.0098917,0.101906,0.272554,0.272554,-0.541522,-1.28414e-08,9.41797e-05,-8.65394e-05,0.538885,0.3133143759740127,-1.2841400054419694e-08,9.418413504724832e-05,0.3133143759740127,-8.653565557414922e-05,-0.4181380158449234
325,0.3143,934.909,934.793,-0.169586,1.65813e-05,-0.067246,0.00408388,0.273316,0.273316,-0.543045,-1.22744e-08,9.25569e-05,-8.79434e-05,0.540406,0.3143155029094258,-1.2274400051914824e-08,9.256118352207743e-05,0.3143155029094258,-8.793953309260694e-05,-0.4190235171663732
326,0.3153,935.982,935.867,0.41243,1.9437e-05,0.0389844,0.139698,0.274076,0.274076,-0.544561,-1.20757e-08,9.4341e-05,-8.50113e-05,0.541922,0.3153147623621313,-1.2075699995506284e-08,9.434545025199803e-05,0.3153147623621313,-8.50076866418803e-05,-0.41990361023524614
327,0.3163,935.845,935.729,-0.216329,1.62113e-05,-0.075862,-0.00536903,0.274836,0.274836,-0.546083,-1.27205e-08,9.20929e-05,-8.71911e-05,0.543441,0.31631478154068016,-1.2720499986684786e-08,9.209714068125763e-05,0.31631478154068016,-8.718729896650679e-05,-0.42078584538920893
328,0.3173,937.052,936.936,0.502865,1.98554e-05,0.0545074,0.160994,0.275595,0.275595,-0.547596,-1.33837e-08,9.43379e-05,-8.36642e-05,0.544954,0.31731424370778094,-1.3383700037117308e-08,9.434234995953084e-05,0.31731424370778094,-8.366070024845573e-05,-0.42166153377981774
329,0.3183,936.733,936.617,-0.304723,1.57314e-05,-0.0930057,-0.0255109,0.276354,0.276354,-0.549116,-1.25417e-08,9.14886e-05,-8.65974e-05,0.546471,0.318314464754625,-1.2541700011858836e-08,9.149278520959037e-05,0.318314464754625,-8.659365055341262e-05,-0.4225399404902499
330,0.3193,938.129,938.013,0.606032,2.04717e-05,0.0723849,0.185222,0.277113,0.277113,-0.550625,-1.29484e-08,9.43751e-05,-8.22497e-05,0.547981,0.3193154452574207,-1.2948400018863992e-08,9.437955346980331e-05,0.3193154452574207,-8.22463175861321e-05,-0.42341067058896376
331,0.3203,937.59,937.475,-0.418558,1.52376e-05,-0.11476,-0.0515392,0.27787,0.27787,-0.552145,-1.32758e-08,9.07892e-05,-8.61078e-05,0.549497,0.32031454516108315,-1.3275800014866945e-08,9.079332146422203e-05,0.32031454516108315,-8.610409282983067e-05,-0.4242864206310255
332,0.3213,938.187,938.071,-0.30518,1.54592e-05,-0.103543,-0.0348634,0.278627,0.278627,-0.553657,-1.30406e-08,9.02937e-05,-8.60063e-05,0.551008,0.32131440166971137,-1.3040600044256223e-08,9.029777659885774e-05,0.32131440166971137,-8.60026015642168e-05,-0.4251562418125068
333,0.3223,939.235,939.119,0.261437,1.82619e-05,0.00441872,0.102242,0.279384,0.279384,-0.555165,-1.25174e-08,9.19114e-05,-8.32608e-05,0.552515,0.32231501535627216,-1.2517400005407353e-08,9.191562398203068e-05,0.32231501535627216,-8.325733391578716e-05,-0.4260224529125325
334,0.3233,939.305,939.189,-0.148956,1.60961e-05,-0.0674191,0.0112907,0.28014,0.28014,-0.556677,-1.25559e-08,9.03603e-05,-8.45313e-05,0.554026,0.3233150634784414,-1.2555899986388397e-08,9.036438261489366e-05,0.3233150634784414,-8.452772733036351e-05,-0.42688965119661426
335,0.3243,940.318,940.202,0.385716,1.87915e-05,0.0304084,0.136027,0.280895,0.280895,-0.558183,-1.16692e-08,9.1979e-05,-8.17733e-05,0.555531,0.3243145436076391,-1.1669200050690165e-08,9.198323019798949e-05,0.3243145436076391,-8.176995665487574e-05,-0.4277521057905964
336,0.3253,940.223,940.107,-0.187992,1.57768e-05,-0.0747889,0.00341261,0.28165,0.28165,-0.559694,-1.20234e-08,8.9872e-05,-8.37307e-05,0.55704,0.3253147786292703,-1.2023400053351452e-08,8.987603860921567e-05,0.3253147786292703,-8.372719468274781e-05,-0.42861611943205347
337,0.3263,941.349,941.233,0.463089,1.91524e-05,0.0435777,0.154269,0.282404,0.282404,-0.561197,-1.30788e-08,9.18855e-05,-8.04631e-05,0.558543,0.32631444279838795,-1.3078800042976013e-08,9.188972160178999e-05,0.32631444279838795,-8.045986293159224e-05,-0.429474264347097
338,0.3273,941.099,940.983,-0.262592,1.53511e-05,-0.0894405,-0.0135828,0.283158,0.283158,-0.562707,-1.28087e-08,8.92626e-05,-8.30652e-05,0.56005,0.32731486099852347,-1.2808699989541594e-08,8.926658402441667e-05,0.32731486099852347,-8.306175018180095e-05,-0.43033510810732645
339,0.3283,942.384,942.268,0.549484,1.9663e-05,0.058463,0.174632,0.283911,0.283911,-0.564206,-1.31976e-08,9.182e-05,-7.91019e-05,0.56155,0.3283147054830604,-1.319760001283754e-08,9.182421558517895e-05,0.3283147054830604,-7.909877152723066e-05,-0.4311883960811589
340,0.3293,941.95,941.834,-0.357338,1.49064e-05,-0.107753,-0.035245,0.284664,0.284664,-0.565715,-1.2608e-08,8.85754e-05,-8.24824e-05,0.563055,0.3293153031340257,-1.2607999977376494e-08,8.857932291661541e-05,0.3293153031340257,-8.247899842039885e-05,-0.43204608550205204
341,0.3303,943.432,943.316,0.654882,2.03931e-05,0.0768587,0.199394,0.285416,0.285416,-0.567211,-1.33115e-08,9.18091e-05,-7.76564e-05,0.564552,0.33031532420277787,-1.3311500013379884e-08,9.181331458441022e-05,0.33031532420277787,-7.7653384819798e-05,-0.43289510932997366
342,0.3313,942.774,942.658,-0.473634,1.44576e-05,-0.130003,-0.0619203,0.286167,0.286167,-0.568719,-1.33597e-08,8.7803e-05,-8.19921e-05,0.566056,0.33131476625477085,-1.3359700012927078e-08,8.780685479625738e-05,0.33131476625477085,-8.198873873965784e-05,-0.43374965901270146
343,0.3323,943.394,943.278,-0.321184,1.48708e-05,-0.111084,-0.0355913,0.286918,0.286918,-0.570218,-1.2788e-08,8.73865e-05,-8.17446e-05,0.567555,0.3323149591696586,-1.278799999226976e-08,8.739031831139776e-05,0.3323149591696586,-8.17412590011779e-05,-0.43459783240906036
344,0.3333,944.428,944.312,0.246754,1.77526e-05,-0.00290493,0.101574,0.287668,0.287668,-0.571713,-1.22166e-08,8.89825e-05,-7.8984e-05,0.56905,0.33331457019631405,-1.2216599953873697e-08,8.898645906008085e-05,0.33331457019631405,-7.898088084601351e-05,-0.4354424771203703
345,0.3343,944.503,944.386,-0.1445,1.5608e-05,-0.0715868,0.0147828,0.288418,0.288418,-0.573213,-1.29181e-08,8.74463e-05,-8.01864e-05,0.570548,0.3343149312124505,-1.2918100034120528e-08,8.745012353905679e-05,0.3343149312124505,-8.018318515656819e-05,-0.43628867859492104
346,0.3353,945.48,945.364,0.369377,1.82704e-05,0.0228768,0.134983,0.289167,0.289167,-0.574707,-1.16445e-08,8.89848e-05,-7.74889e-05,0.572041,0.3353147074653957,-1.164450003088291e-08,8.898875926477423e-05,0.3353147074653957,-7.748589781275683e-05,-0.43713023451029953
347,0.3363,945.399,945.283,-0.174349,1.53152e-05,-0.0771866,0.0090877,0.289916,0.289916,-0.576205,-1.20173e-08,8.69286e-05,-7.93324e-05,0.573537,0.3363152328312622,-1.2017300043964951e-08,8.693237840029511e-05,0.3363152328312622,-7.93292532683676e-05,-0.4379727821932319
348,0.3373,946.472,946.356,0.438049,1.85779e-05,0.0345702,0.151262,0.290664,0.290664,-0.577696,-1.21283e-08,8.8806e-05,-7.61973e-05,0.575028,0.3373151705555064,-1.2128300030944672e-08,8.880994336957215e-05,0.3373151705555064,-7.619439705941478e-05,-0.4388101403693353
349,0.3383,946.257,946.141,-0.238012,1.49207e-05,-0.0898438,-0.00541,0.291411,0.291411,-0.579193,-1.40576e-08,8.62954e-05,-7.86068e-05,0.576523,0.33831451819778535,-1.4057599972971957e-08,8.629912355506697e-05,0.33831451819778535,-7.860371056644944e-05,-0.43964961308710093
350,0.3393,947.465,947.348,0.511733,1.90072e-05,0.0472108,0.168697,0.292158,0.292158,-0.580681,-1.29092e-08,8.86423e-05,-7.48717e-05,0.578011,0.33931461263164486,-1.2909200042265923e-08,8.864622884474649e-05,0.33931461263164486,-7.486889718422152e-05,-0.4404827944221821
351,0.3403,947.093,946.977,-0.317954,1.45151e-05,-0.105474,-0.0236897,0.292905,0.292905,-0.582177,-1.32647e-08,8.55975e-05,-7.7948e-05,0.579503,0.340315454415147,-1.3264700005066743e-08,8.560116357059222e-05,0.340315454415147,-7.794496213353597e-05,-0.44131920636959787
352,0.3413,948.466,948.35,0.599701,1.96117e-05,0.0624973,0.189439,0.29365,0.29365,-0.583661,-1.30193e-08,8.85181e-05,-7.34817e-05,0.580989,0.34131436147536465,-1.301929997143958e-08,8.852201784259606e-05,0.34131436147536465,-7.347900028598087e-05,-0.4421476737924762
353,0.3423,947.908,947.792,-0.414297,1.4106e-05,-0.124116,-0.0457968,0.294396,0.294396,-0.585156,-1.30524e-08,8.48317e-05,-7.73603e-05,0.58248,0.3423153553133045,-1.3052400049673452e-08,8.483529831049275e-05,0.3423153553133045,-7.735730776914362e-05,-0.44298103992375715
354,0.3433,948.49,948.373,-0.286144,1.44536e-05,-0.109653,-0.0252084,0.29514,0.29514,-0.586643,-1.34314e-08,8.43603e-05,-7.71385e-05,0.583966,0.34331440953974535,-1.343139999221421e-08,8.436385843024752e-05,0.34331440953974535,-7.713552490240527e-05,-0.4438087115909958
355,0.3443,949.464,949.347,0.236197,1.72174e-05,-0.00907292,0.101995,0.295885,0.295885,-0.588127,-1.31762e-08,8.58204e-05,-7.45122e-05,0.585449,0.3443155516539851,-1.317620001994868e-08,8.582408267576724e-05,0.3443155516539851,-7.450942403497418e-05,-0.44463348732803387
356,0.3453,949.554,949.438,-0.12491,1.51927e-05,-0.0725723,0.0219053,0.296628,0.296628,-0.589614,-1.35419e-08,8.43505e-05,-7.55847e-05,0.586935,0.34531474926480943,-1.3541900045765942e-08,8.435405760343073e-05,0.34531474926480943,-7.558184354850006e-05,-0.44545870363199735
357,0.3463,950.472,950.355,0.343303,1.76975e-05,0.013747,0.131582,0.297371,0.297371,-0.591096,-1.22794e-08,8.57245e-05,-7.30563e-05,0.588416,0.34631468955532974,-1.2279400052328526e-08,8.572817444996161e-05,0.34631468955532974,-7.30536314534902e-05,-0.4462799251577585
358,0.3473,950.43,950.313,-0.147968,1.49506e-05,-0.0770615,0.0175936,0.298114,0.298114,-0.592582,-1.30032e-08,8.37998e-05,-7.46867e-05,0.5899,0.3473153730775622,-1.3003199961225675e-08,8.380331130131147e-05,0.3473153730775622,-7.468391101783656e-05,-0.44710214213046207
359,0.3483,951.424,951.308,0.40033,1.79551e-05,0.0233351,0.145126,0.298856,0.298856,-0.594061,-1.27381e-08,8.54527e-05,-7.17977e-05,0.591379,0.34831545206780734,-1.2738100019227261e-08,8.545635118606398e-05,0.34831545206780734,-7.179512260679921e-05,-0.4479192736445441
360,0.3493,951.271,951.155,-0.199653,1.46122e-05,-0.0875242,0.0058399,0.299597,0.299597,-0.595545,-1.34378e-08,8.31504e-05,-7.38968e-05,0.592861,0.34931492407643616,-1.3437799983861964e-08,8.31538570902346e-05,0.34931492407643616,-7.389406969871004e-05,-0.4487379538315116
361,0.3503,952.375,952.258,0.459714,1.82983e-05,0.0334158,0.159251,0.300338,0.300338,-0.597022,-1.21477e-08,8.51871e-05,-7.05174e-05,0.594337,0.35031513696828664,-1.214769995705467e-08,8.519072852397613e-05,0.35031513696828664,-7.051491370657637e-05,-0.4495515668725617
362,0.3513,952.096,951.979,-0.263592,1.42621e-05,-0.10023,-0.00876403,0.301078,0.301078,-0.598505,-1.35415e-08,8.24498e-05,-7.31573e-05,0.595818,0.35131473997714124,-1.354150003241017e-08,8.245319907818072e-05,0.35131473997714124,-7.315462406998208e-05,-0.45036727690040546
363,0.3523,953.33,953.214,0.529181,1.87672e-05,0.0453665,0.175708,0.301818,0.301818,-0.599978,-1.29476e-08,8.4947e-05,-6.9191e-05,0.597291,0.35231508296598113,-1.2947599992152448e-08,8.495060809865507e-05,0.35231508296598113,-6.918860635796165e-05,-0.4511762899171661
364,0.3533,952.904,952.788,-0.339233,1.39048e-05,-0.115098,-0.0261084,0.302557,0.302557,-0.60146,-1.22603e-08,8.16973e-05,-7.24691e-05,0.59877,0.35331481316710467,-1.226029999745748e-08,8.1700637315274e-05,0.35331481316710467,-7.246647417824548e-05,-0.451989044255788
365,0.3543,954.293,954.177,0.611135,1.93863e-05,0.0596591,0.195081,0.303296,0.303296,-0.60293,-1.33655e-08,8.47409e-05,-6.78084e-05,0.600241,0.3543152824419007,-1.3365500040052325e-08,8.474449061157685e-05,0.3543152824419007,-6.780610106238427e-05,-0.45279402855231643
366,0.3553,953.694,953.578,-0.428088,1.35442e-05,-0.132391,-0.0465321,0.304034,0.304034,-0.60441,-1.27319e-08,8.08878e-05,-7.18392e-05,0.601718,0.35531513602093323,-1.2731899978746242e-08,8.089107150621722e-05,0.35531513602093323,-7.183661962650856e-05,-0.4536032943856244
367,0.3563,954.277,954.16,-0.282721,1.40053e-05,-0.114361,-0.0215594,0.304771,0.304771,-0.605883,-1.2784e-08,8.04516e-05,-7.15252e-05,0.60319,0.3563143714492065,-1.2783999969734339e-08,8.045483631669015e-05,0.3563143714492065,-7.152264213383663e-05,-0.4544075442575467
368,0.3573,955.218,955.101,0.221903,1.67695e-05,-0.0167747,0.101584,0.305508,0.305508,-0.607352,-1.28526e-08,8.18408e-05,-6.89452e-05,0.604659,0.3573143435854338,-1.2852599984292112e-08,8.184414904954807e-05,0.3573143435854338,-6.894282333436141e-05,-0.45520843117956455
369,0.3583,955.317,955.2,-0.114347,1.48123e-05,-0.0760477,0.0269859,0.306245,0.306245,-0.608825,-1.28933e-08,8.04079e-05,-6.99202e-05,0.60613,0.35831505297276944,-1.2893299983218753e-08,8.041113280188306e-05,0.35831505297276944,-6.99177556398034e-05,-0.45601031842549056
370,0.3593,956.187,956.071,0.322343,1.72251e-05,0.00482561,0.12953,0.306981,0.306981,-0.610293,-1.32895e-08,8.1662e-05,-6.75001e-05,0.607598,0.3593151408389468,-1.3289499944946215e-08,8.166533443199064e-05,0.3593151408389468,-6.749782191950437e-05,-0.45680830940935235
371,0.3603,956.169,956.052,-0.129473,1.46055e-05,-0.0790577,0.0244852,0.307716,0.307716,-0.611765,-1.22593e-08,7.98205e-05,-6.89743e-05,0.609067,0.3603146047254471,-1.22593000195792e-08,7.982368574088738e-05,0.3603146047254471,-6.897192132770957e-05,-0.4576072993770157
372,0.3613,957.1,956.983,0.370191,1.74302e-05,0.012806,0.140956,0.308451,0.308451,-0.61323,-1.33825e-08,8.12978e-05,-6.62651e-05,0.610532,0.36131480348793765,-1.338249999704999e-08,8.130110475579322e-05,0.36131480348793765,-6.62629045167229e-05,-0.458401322919171
373,0.3623,956.99,956.874,-0.170764,1.43081e-05,-0.0875945,0.0151194,0.309185,0.309185,-0.6147,-1.34334e-08,7.91424e-05,-6.81272e-05,0.612,0.36231437535169486,-1.343339994797077e-08,7.914553184229511e-05,0.36231437535169486,-6.8124879395004e-05,-0.45919688809081727
374,0.3633,958.008,957.891,0.417629,1.76971e-05,0.020757,0.152311,0.309919,0.309919,-0.616163,-1.16651e-08,8.09305e-05,-6.50208e-05,0.613463,0.36331468117052834,-1.1665099997060224e-08,8.093377496121157e-05,0.36331468117052834,-6.50186861935742e-05,-0.4599875045665708
375,0.3643,957.798,957.681,-0.221248,1.40061e-05,-0.0978215,0.00360936,0.310652,0.310652,-0.617631,-1.20703e-08,7.84239e-05,-6.73176e-05,0.614929,0.36431435716832006,-1.207029998173681e-08,7.842697523452458e-05,0.36431435716832006,-6.731533422121849e-05,-0.46077966132454706
376,0.3653,958.917,958.8,0.471716,1.80564e-05,0.0299428,0.165199,0.311385,0.311385,-0.619091,-1.32327e-08,8.05775e-05,-6.37454e-05,0.616389,0.3653147661972411,-1.3232700046827972e-08,8.058074645389546e-05,0.3653147661972411,-6.374336830516913e-05,-0.46156634859756196
377,0.3663,958.593,958.476,-0.279714,1.37011e-05,-0.109533,-0.00977854,0.312117,0.312117,-0.620558,-1.39434e-08,7.76667e-05,-6.65435e-05,0.617853,0.36631454247957485,-1.394339999016836e-08,7.766971613620832e-05,0.36631454247957485,-6.654128603045262e-05,-0.46235565166881243
378,0.3673,959.831,959.714,0.534086,1.85192e-05,0.0406901,0.180026,0.312849,0.312849,-0.622015,-1.22603e-08,8.02445e-05,-6.24323e-05,0.619311,0.36731505086606453,-1.226029999745748e-08,8.024771967596322e-05,0.36731505086606453,-6.243035114450457e-05,-0.46313842909250125
379,0.3683,959.374,959.258,-0.346888,1.33918e-05,-0.12285,-0.0252018,0.31358,0.31358,-0.623481,-1.22649e-08,7.68682e-05,-6.58084e-05,0.620773,0.3683149235771992,-1.226489998451541e-08,7.687115443588688e-05,0.3683149235771992,-6.58062346747812e-05,-0.46392489153762684
380,0.3693,960.749,960.632,0.605856,1.91007e-05,0.0532151,0.197057,0.314311,0.314311,-0.624935,-1.19709e-08,7.99359e-05,-6.10761e-05,0.622228,0.3693155274624973,-1.1970900049007582e-08,7.993909495929152e-05,0.3693155274624973,-6.107423489298824e-05,-0.46470377835739174
381,0.3703,960.142,960.025,-0.423771,1.30816e-05,-0.137958,-0.0428938,0.315041,0.315041,-0.626399,-1.19536e-08,7.60252e-05,-6.51168e-05,0.623689,0.3703154927404646,-1.195359999872636e-08,7.602808998874444e-05,0.3703154927404646,-6.511467994718689e-05,-0.46548687865658955
382,0.3713,961.673,961.556,0.68817,1.98224e-05,0.0677368,0.216562,0.31577,0.31577,-0.62785,-1.28069e-08,7.96563e-05,-5.96714e-05,0.625141,0.37131481694408763,-1.280689998495177e-08,7.965947264731987e-05,0.37131481694408763,-5.966961969738893e-05,-0.46626189478548075
383,0.3723,960.894,960.778,-0.511458,1.27788e-05,-0.155059,-0.0631105,0.316499,0.316499,-0.629313,-1.35529e-08,7.5134e-05,-6.44737e-05,0.626601,0.3723148699206609,-1.3552900024471626e-08,7.513682262971777e-05,0.3723148699206609,-6.447162161571374e-05,-0.46704218271361475
384,0.3733,961.518,961.401,-0.305831,1.35596e-05,-0.125052,-0.0232218,0.317227,0.317227,-0.630767,-1.32485e-08,7.48372e-05,-6.39275e-05,0.628054,0.37331427888668745,-1.324849996375832e-08,7.48400003731664e-05,0.37331427888668745,-6.392545668088001e-05,-0.46781654028557085
385,0.3743,962.442,962.325,0.200765,1.64087e-05,-0.0272014,0.0999862,0.317955,0.317955,-0.632218,-1.32905e-08,7.61981e-05,-6.133e-05,0.629505,0.37431441568734103,-1.3290500033846797e-08,7.620100314897904e-05,0.37431441568734103,-6.132811935399829e-05,-0.46858817852668855
386,0.3753,962.549,962.432,-0.108637,1.44927e-05,-0.0818988,0.0313317,0.318683,0.318683,-0.633673,-1.29762e-08,7.47933e-05,-6.22084e-05,0.630959,0.37531528085267807,-1.2976200003400606e-08,7.479609708860302e-05,0.37531528085267807,-6.220646509758065e-05,-0.46936082049359285
387,0.3763,963.373,963.256,0.301159,1.68289e-05,-0.00548696,0.127934,0.31941,0.31941,-0.635123,-1.30216e-08,7.59392e-05,-5.98731e-05,0.632408,0.37631549859695435,-1.3021600020479696e-08,7.594208345396147e-05,0.37631549859695435,-5.987130764173454e-05,-0.47012968973896196
388,0.3773,963.373,963.256,-0.113405,1.43005e-05,-0.0828375,0.0313429,0.320136,0.320136,-0.636577,-1.22944e-08,7.41633e-05,-6.12034e-05,0.633859,0.3773150664481617,-1.2294400053569632e-08,7.416605016552502e-05,0.3773150664481617,-6.120152711008853e-05,-0.470899561337796
389,0.3783,964.24,964.123,0.340431,1.6956e-05,0.00104032,0.137417,0.320862,0.320862,-0.638024,-1.15294e-08,7.54699e-05,-5.86587e-05,0.635307,0.37831536024911694,-1.1529399990273248e-08,7.547274792463199e-05,0.37831536024911694,-5.865697961204841e-05,-0.4716646160219863
390,0.3793,964.168,964.051,-0.144005,1.40288e-05,-0.0893678,0.0244433,0.321587,0.321587,-0.639476,-1.27752e-08,7.34435e-05,-6.02966e-05,0.636756,0.37931500121135997,-1.2775200008974252e-08,7.344619703997246e-05,0.37931500121135997,-6.029478219660156e-05,-0.4724312023231847
391,0.3803,965.098,964.981,0.376119,1.71329e-05,0.00689942,0.146039,0.322312,0.322312,-0.640921,-1.31833e-08,7.49869e-05,-5.74494e-05,0.638201,0.3803153671760824,-1.3183300007213461e-08,7.4989711587925e-05,0.3803153671760824,-5.744774981486511e-05,-0.47319298871260884
392,0.3813,964.951,964.834,-0.181259,1.37697e-05,-0.0971307,0.0159827,0.323036,0.323036,-0.642371,-1.24701e-08,7.2693e-05,-5.94164e-05,0.639649,0.38131507735333336,-1.247009995264392e-08,7.269564220013791e-05,0.38131507735333336,-5.941463488068344e-05,-0.4739563053406808
393,0.3823,965.956,965.839,0.415337,1.73806e-05,0.0134137,0.155468,0.32376,0.32376,-0.643813,-1.12723e-08,7.45081e-05,-5.62228e-05,0.641091,0.38231551158282784,-1.1272299982323375e-08,7.451087579735116e-05,0.38231551158282784,-5.622121952797432e-05,-0.47471431369300954
394,0.3833,965.726,965.609,-0.223258,1.35194e-05,-0.105784,0.00639705,0.324483,0.324483,-0.645261,-1.25548e-08,7.19156e-05,-5.85577e-05,0.642537,0.383315287072991,-1.2554799977415598e-08,7.191818598872857e-05,0.383315287072991,-5.8555985531394406e-05,-0.47547437694818306
395,0.3843,966.814,966.697,0.459211,1.76973e-05,0.0208131,0.165988,0.325205,0.325205,-0.646701,-1.13645e-08,7.40372e-05,-5.49745e-05,0.643977,0.3843144013471089,-1.1364500007715606e-08,7.403994082122445e-05,0.3843144013471089,-5.4972988929868905e-05,-0.47622915027815527
396,0.3853,966.492,966.374,-0.270131,1.32715e-05,-0.115342,-0.00433245,0.325927,0.325927,-0.648148,-1.30237e-08,7.1111e-05,-5.77213e-05,0.645422,0.38531423724220626,-1.3023700007330774e-08,7.11135284470199e-05,0.38531423724220626,-5.7719634157793465e-05,-0.4769864986240293
397,0.3863,967.674,967.557,0.508222,1.80844e-05,0.0291927,0.177717,0.326649,0.326649,-0.649585,-1.26859e-08,7.35763e-05,-5.37022e-05,0.646859,0.3863147952794821,-1.2685899997144645e-08,7.357900680227125e-05,0.3863147952794821,-5.370075806265806e-05,-0.47773752928074176
398,0.3873,967.248,967.131,-0.322233,1.30233e-05,-0.125868,-0.0162883,0.32737,0.32737,-0.651031,-1.38151e-08,7.0278e-05,-5.6909e-05,0.648302,0.38731468866512864,-1.3815099952907417e-08,7.028046955648293e-05,0.38731468866512864,-5.6907380713622224e-05,-0.47849217507300235
399,0.3883,968.535,968.417,0.562788,1.85474e-05,0.0386335,0.190753,0.328091,0.328091,-0.652465,-1.23764e-08,7.31272e-05,-5.24039e-05,0.649737,0.38831530323386154,-1.2376400015945421e-08,7.312987385876824e-05,0.38831530323386154,-5.2402526939610006e-05,-0.47923948134728833
400,0.3893,967.995,967.877,-0.379942,1.27761e-05,-0.137435,-0.0295596,0.328811,0.328811,-0.653909,-1.23938e-08,6.94153e-05,-5.61224e-05,0.651178,0.38931525018989643,-1.2393799986298859e-08,6.94177092976922e-05,0.38931525018989643,-5.612082516759376e-05,-0.4799909168692056
401,0.3903,969.397,969.28,0.623323,1.90949e-05,0.0492164,0.205195,0.32953,0.32953,-0.655341,-1.31917e-08,7.26917e-05,-5.10775e-05,0.652611,0.39031452705176584,-1.3191699954617775e-08,7.269434210566139e-05,0.39031452705176584,-5.107619556665721e-05,-0.48073503695910524
402,0.3913,968.731,968.614,-0.443638,1.25333e-05,-0.150113,-0.0442358,0.330249,0.330249,-0.656783,-1.39624e-08,6.85218e-05,-5.53634e-05,0.65405,0.39131452265205446,-1.3962400013944887e-08,6.852414767211101e-05,0.39131452265205446,-5.5361867475234305e-05,-0.48148327742477914
403,0.3923,970.263,970.145,0.69024,1.97379e-05,0.0610227,0.221142,0.330968,0.330968,-0.658212,-1.32556e-08,7.2272e-05,-4.97209e-05,0.65548,0.392315237507721,-1.32555999510231e-08,7.227461168390903e-05,0.392315237507721,-4.97196639365205e-05,-0.4822237086572243
404,0.3933,969.458,969.341,-0.513694,1.23008e-05,-0.163971,-0.0604045,0.331686,0.331686,-0.659654,-1.25499e-08,6.75963e-05,-5.46336e-05,0.656918,0.39331527882012063,-1.2549900008096415e-08,6.759858468141644e-05,0.39331527882012063,-5.46321076120293e-05,-0.482969804005311
405,0.3943,970.076,969.958,-0.292136,1.32272e-05,-0.130418,-0.0162973,0.332403,0.332403,-0.661086,-1.25903e-08,6.73427e-05,-5.39704e-05,0.65835,0.39431464410467565,-1.2590300024761802e-08,6.734496757054842e-05,0.39431464410467565,-5.396894362419413e-05,-0.48370966138166316
406,0.3953,970.944,970.827,0.180939,1.60127e-05,-0.0382968,0.09929,0.33312,0.33312,-0.662515,-1.2634e-08,6.8582e-05,-5.14691e-05,0.659779,0.3953147261910823,-1.2633999957323283e-08,6.858435179912803e-05,0.3953147261910823,-5.1467775488589496e-05,-0.4844469133835352
407,0.3963,971.066,970.949,-0.0918139,1.4225e-05,-0.0866278,0.0388223,0.333837,0.333837,-0.663948,-1.26683e-08,6.72418e-05,-5.21989e-05,0.66121,0.39631552559347205,-1.266829996460217e-08,6.724406078051359e-05,0.39631552559347205,-5.219753766116941e-05,-0.4851851718681186
408,0.3973,971.823,971.706,0.271227,1.63818e-05,-0.0184886,0.124703,0.334552,0.334552,-0.665377,-1.30883e-08,6.82058e-05,-5.00348e-05,0.662638,0.3973142481950538,-1.3088299999353126e-08,6.820812606855853e-05,0.3973142481950538,-5.003354828025941e-05,-0.48592031687131454
409,0.3983,971.857,971.74,-0.087964,1.40716e-05,-0.0859512,0.040773,0.335268,0.335268,-0.666808,-1.31305e-08,6.65544e-05,-5.11408e-05,0.664068,0.3983150834530269,-1.3130500020608338e-08,6.655661479326724e-05,0.3983150834530269,-5.113949233159776e-05,-0.4866554387926908
410,0.3993,972.636,972.519,0.299925,1.64369e-05,-0.0138372,0.131717,0.335983,0.335983,-0.668234,-1.23724e-08,6.76132e-05,-4.88512e-05,0.665493,0.3993152362497119,-1.237239999341e-08,6.761548582390198e-05,0.3993152362497119,-4.8850006799550094e-05,-0.4873869464480556
411,0.4003,972.62,972.503,-0.107353,1.38491e-05,-0.0903532,0.0364677,0.336697,0.336697,-0.669664,-1.31985e-08,6.57857e-05,-5.01716e-05,0.666921,0.40031470409595493,-1.3198499959621302e-08,6.578786392652525e-05,0.40031470409595493,-5.0170341426292175e-05,-0.48811945924316
412,0.4013,973.44,973.323,0.323101,1.65258e-05,-0.010222,0.137415,0.337411,0.337411,-0.671087,-1.32165e-08,6.7e-05,-4.76826e-05,0.668345,0.4013148858170632,-1.321650000551955e-08,6.700224455014059e-05,0.4013148858170632,-4.7681463202886576e-05,-0.4888473472375222
413,0.4023,973.375,973.258,-0.131009,1.36497e-05,-0.0955504,0.0311559,0.338124,0.338124,-0.672515,-1.288e-08,6.49953e-05,-4.92188e-05,0.669771,0.40231437960784455,-1.2879999955472954e-08,6.49974122401975e-05,0.40231437960784455,-4.921758877474147e-05,-0.48957675230649855
414,0.4033,974.241,974.124,0.347357,1.66634e-05,-0.0064115,0.143346,0.338837,0.338837,-0.673937,-1.25092e-08,6.63832e-05,-4.65079e-05,0.671192,0.40331458629181505,-1.2509200009169774e-08,6.63854034133049e-05,0.40331458629181505,-4.6506818524361115e-05,-0.4903020583499027
415,0.4043,974.125,974.008,-0.156799,1.34676e-05,-0.101154,0.0253296,0.33955,0.33955,-0.675363,-1.25417e-08,6.41883e-05,-4.82759e-05,0.672616,0.4043155063774486,-1.2541700011858836e-08,6.419036011307e-05,0.4043155063774486,-4.827473473745236e-05,-0.49102836963167384
416,0.4053,975.041,974.923,0.373459,1.68413e-05,-0.00224396,0.149711,0.340261,0.340261,-0.676782,-1.33346e-08,6.57649e-05,-4.53244e-05,0.674035,0.4053143297421118,-1.333459997976405e-08,6.576706255834175e-05,0.4053143297421118,-4.532337286489163e-05,-0.491750088194744
417,0.4063,974.869,974.751,-0.184538,1.32939e-05,-0.10712,0.019043,0.340973,0.340973,-0.678206,-1.44143e-08,6.33654e-05,-4.73424e-05,0.675457,0.40631526983727695,-1.4414299975840095e-08,6.336740762935555e-05,0.40631526983727695,-4.734127936623089e-05,-0.4924733210051807
418,0.4073,975.838,975.721,0.401534,1.70535e-05,0.00230745,0.156541,0.341684,0.341684,-0.679623,-1.2636e-08,6.51459e-05,-4.41314e-05,0.676874,0.4073155155393413,-1.2636000024102145e-08,6.514802204016235e-05,0.4073155155393413,-4.413042622408714e-05,-0.4931919770212806
419,0.4083,975.607,975.489,-0.214237,1.31239e-05,-0.11345,0.0122942,0.342394,0.342394,-0.681046,-1.26743e-08,6.25265e-05,-4.64183e-05,0.678295,0.40831506435321385,-1.2674300053916454e-08,6.252845482235259e-05,0.40831506435321385,-4.641722268738935e-05,-0.4939126519561535
420,0.4093,976.634,976.517,0.431625,1.72976e-05,0.00725174,0.163848,0.343104,0.343104,-0.68246,-1.30799e-08,6.45265e-05,-4.29288e-05,0.679709,0.4093153230987401,-1.3079900051948812e-08,6.452858187944166e-05,0.4093153230987401,-4.292787857229641e-05,-0.49462775377015733
421,0.4103,976.339,976.222,-0.245915,1.29555e-05,-0.120148,0.0050784,0.343813,0.343813,-0.683881,-1.08688e-08,6.16718e-05,-4.55038e-05,0.681128,0.4103148819645632,-1.0868799971142096e-08,6.167370174448017e-05,0.4103148819645632,-4.5502764717819666e-05,-0.4953453777394651
422,0.4113,977.429,977.311,0.463752,1.75729e-05,0.0125938,0.171637,0.344522,0.344522,-0.685293,-1.19168e-08,6.39069e-05,-4.17163e-05,0.682541,0.4113151497689116,-1.1916799991240623e-08,6.390894208951892e-05,0.4113151497689116,-4.1715429887290156e-05,-0.49605744722673195
423,0.4123,977.066,976.949,-0.279578,1.2788e-05,-0.127215,-0.00260616,0.34523,0.34523,-0.686713,-1.31959e-08,6.08013e-05,-4.45989e-05,0.683958,0.41231471469917946,-1.3195900039342234e-08,6.080314843659451e-05,0.41231471469917946,-4.459790548383413e-05,-0.4967725378171918
424,0.4133,978.222,978.104,0.497921,1.78799e-05,0.0183354,0.17991,0.345938,0.345938,-0.688123,-1.15222e-08,6.32873e-05,-4.04939e-05,0.685368,0.41331498757200014,-1.1522199971913949e-08,6.32893026835113e-05,0.41331498757200014,-4.049308013309716e-05,-0.4974815885406375
425,0.4143,977.787,977.67,-0.315215,1.26223e-05,-0.13465,-0.0107573,0.346645,0.346645,-0.68954,-1.10076e-08,5.99151e-05,-4.37035e-05,0.686783,0.4143145545735125,-1.1007600053680733e-08,5.99168949455553e-05,0.4143145545735125,-4.370254501595561e-05,-0.49819315286728816
426,0.4153,979.013,978.895,0.534118,1.82197e-05,0.024475,0.188663,0.347352,0.347352,-0.690948,-1.35845e-08,6.2668e-05,-3.92615e-05,0.688191,0.41531482851877,-1.3584499969354624e-08,6.266996368009536e-05,0.41531482851877,-3.926072927740165e-05,-0.4988991997344139
427,0.4163,978.503,978.385,-0.3528,1.24593e-05,-0.142448,-0.0193687,0.348058,0.348058,-0.692364,-1.05277e-08,5.90135e-05,-4.28176e-05,0.689604,0.4163143935926572,-1.0527700045059873e-08,5.901524133089531e-05,0.4163143935926572,-4.28166833396082e-05,-0.4996082563370404
428,0.4173,979.802,979.685,0.572312,1.85935e-05,0.0310075,0.19789,0.348764,0.348764,-0.693769,-1.25147e-08,6.2049e-05,-3.80191e-05,0.69101,0.41731466460865474,-1.2514700054033767e-08,6.205092507904908e-05,0.41731466460865474,-3.8018377283122184e-05,-0.5003108130752063
429,0.4183,979.213,979.096,-0.392283,1.23008e-05,-0.150599,-0.0284294,0.349469,0.349469,-0.695183,-1.29758e-08,5.80967e-05,-4.19409e-05,0.692422,0.4183142237504007,-1.2975799990044834e-08,5.809838764592179e-05,0.4183142237504007,-4.194002049273671e-05,-0.5010168742826029
430,0.4193,980.591,980.473,0.612452,1.90027e-05,0.0379241,0.20758,0.350174,0.350174,-0.696586,-1.17047e-08,6.14304e-05,-3.6767e-05,0.693825,0.41931448782980296,-1.1704699987014067e-08,6.143228688570979e-05,0.41931448782980296,-3.67663241020999e-05,-0.501716456736138
431,0.4203,979.918,979.801,-0.433596,1.21487e-05,-0.159092,-0.0379234,0.350879,0.350879,-0.697999,-1.30313e-08,5.71652e-05,-4.10732e-05,0.695235,0.420315457344018,-1.3031300039045846e-08,5.71668339612863e-05,0.420315457344018,-4.107235650763208e-05,-0.5024200341882381
432,0.4213,981.377,981.259,0.654465,1.94488e-05,0.0452119,0.217715,0.351582,0.351582,-0.699399,-1.33616e-08,6.0812e-05,-3.55054e-05,0.696636,0.42131429015912936,-1.3361600048611422e-08,6.081384908718235e-05,0.42131429015912936,-3.5504769690719584e-05,-0.5031161587394883
433,0.4223,980.618,980.5,-0.476651,1.20051e-05,-0.16791,-0.04783,0.352286,0.352286,-0.700811,-1.30853e-08,5.62194e-05,-4.0214e-05,0.698045,0.42231524771511997,-1.3085299954695984e-08,5.6220980340082605e-05,0.42231524771511997,-4.021319142799573e-05,-0.5038172636268125
434,0.4233,982.162,982.044,0.698255,1.99328e-05,0.0528538,0.228273,0.352989,0.352989,-0.702208,-1.18138e-08,6.01938e-05,-3.42346e-05,0.699444,0.4233154868771354,-1.1813800049331746e-08,6.0195611683022676e-05,0.4233154868771354,-3.423401400282078e-05,-0.5045099469575653
435,0.4243,981.313,981.195,-0.521335,1.18723e-05,-0.177032,-0.0581232,0.353691,0.353691,-0.703619,-1.2729e-08,5.52599e-05,-3.93627e-05,0.700851,0.4243150051387856,-1.2728999965183618e-08,5.52614268563012e-05,0.4243150051387856,-3.936192529907512e-05,-0.505208590413538
436,0.4253,981.927,981.809,-0.275517,1.30171e-05,-0.138068,-0.00759631,0.354393,0.354393,-0.705019,-1.2754e-08,5.50801e-05,-3.85286e-05,0.702251,0.4253152253085968,-1.2753999967252128e-08,5.5081616936458744e-05,0.4253152253085968,-3.85278577830217e-05,-0.5059008137175831
437,0.4263,982.724,982.606,0.154623,1.56921e-05,-0.0533899,0.0981301,0.355094,0.355094,-0.706418,-1.35312e-08,5.61604e-05,-3.61549e-05,0.70365,0.42631472156404615,-1.3531200049321512e-08,5.616197702473791e-05,0.42631472156404615,-3.6154246419450864e-05,-0.5065915751788868
438,0.4273,982.865,982.747,-0.0711345,1.40845e-05,-0.0934668,0.0482153,0.355795,0.355795,-0.70782,-1.35718e-08,5.49052e-05,-3.6693e-05,0.70505,0.42731491871200467,-1.3571800017153635e-08,5.49067073181142e-05,0.42731491871200467,-3.669232682013135e-05,-0.5072828490942405
439,0.4283,983.535,983.418,0.233625,1.59845e-05,-0.0357346,0.120666,0.356495,0.356495,-0.709217,-1.09476e-08,5.56354e-05,-3.47489e-05,0.706447,0.4283143889288674,-1.094760004871631e-08,5.563694767762861e-05,0.4283143889288674,-3.4748296263931167e-05,-0.5079706943822551
440,0.4293,983.609,983.491,-0.0579536,1.39654e-05,-0.0909972,0.0522764,0.357195,0.357195,-0.710617,-1.19698e-08,5.41369e-05,-3.55781e-05,0.707845,0.4293145590198091,-1.1969800040034784e-08,5.413836542844663e-05,0.4293145590198091,-3.557746710691756e-05,-0.5086590534463431
441,0.4303,984.282,984.164,0.251116,1.59481e-05,-0.0330673,0.125051,0.357895,0.357895,-0.712013,-1.36028e-08,5.48881e-05,-3.36019e-05,0.709241,0.4303154294749134,-1.3602799997514126e-08,5.488960637922702e-05,0.4303154294749134,-3.360133546248534e-05,-0.5093444868638912
442,0.4313,984.329,984.211,-0.0658128,1.37924e-05,-0.0931607,0.0506534,0.358594,0.358594,-0.713411,-1.32841e-08,5.32941e-05,-3.45452e-05,0.710637,0.4313155694683215,-1.3284100042199043e-08,5.3295520155760556e-05,0.4313155694683215,-3.4544603321418066e-05,-0.5100299440250615
443,0.4323,985.018,984.901,0.261777,1.59391e-05,-0.031695,0.127807,0.359292,0.359292,-0.714805,-1.20442e-08,5.41157e-05,-3.24774e-05,0.71203,0.4323149764882841,-1.2044199970695502e-08,5.4117164280942376e-05,0.4323149764882841,-3.2476872614983776e-05,-0.5107124864404986
444,0.4333,985.042,984.925,-0.0761925,1.36563e-05,-0.0957982,0.0484301,0.35999,0.35999,-0.716201,-1.25181e-08,5.2437e-05,-3.35212e-05,0.713425,0.4333150813378608,-1.251810000102438e-08,5.2438374843477575e-05,0.4333150813378608,-3.3520638170858597e-05,-0.5113950552655377
445,0.4343,985.751,985.633,0.27185,1.59674e-05,-0.0304439,0.130405,0.360687,0.360687,-0.717593,-1.33152e-08,5.33343e-05,-3.13549e-05,0.714816,0.4343144501891394,-1.3315200053654053e-08,5.333572229915262e-05,0.4343144501891394,-3.135440844026505e-05,-0.5120747201920723
446,0.4353,985.753,985.635,-0.0869553,1.35482e-05,-0.0985133,0.0461048,0.361384,0.361384,-0.718987,-1.21188e-08,5.15711e-05,-3.24992e-05,0.716209,0.43531451584331515,-1.2118799963545257e-08,5.157242981201904e-05,0.43531451584331515,-3.249867190668887e-05,-0.5127544141753511
447,0.4363,986.48,986.363,0.28196,1.60202e-05,-0.0291798,0.13301,0.362081,0.362081,-0.720377,-1.11652e-08,5.25461e-05,-3.02323e-05,0.717598,0.43631527878622856,-1.1165199986784557e-08,5.2547480570597216e-05,0.43631527878622856,-3.0231843008654558e-05,-0.5134312150540661
448,0.4373,986.459,986.342,-0.0978308,1.34568e-05,-0.101246,0.0437513,0.362777,0.362777,-0.72177,-1.062e-08,5.06973e-05,-3.14781e-05,0.718989,0.4373153021880387,-1.061999999052432e-08,5.069858512984915e-05,0.4373153021880387,-3.14776045697851e-05,-0.5141085335096662
449,0.4383,987.207,987.089,0.292128,1.60878e-05,-0.0278966,0.135629,0.363472,0.363472,-0.723157,-1.17147e-08,5.1751e-05,-2.91094e-05,0.720377,0.4383145835331035,-1.171469998784147e-08,5.175233910614807e-05,0.4383145835331035,-2.9108976325575853e-05,-0.5147819978182246
450,0.4393,987.163,987.045,-0.10874,1.33755e-05,-0.10398,0.0413885,0.364167,0.364167,-0.724548,-1.34385e-08,4.98162e-05,-3.04575e-05,0.721766,0.43931455962009824,-1.343849997947899e-08,4.981744084742168e-05,0.43931455962009824,-3.0457036175102203e-05,-0.5154564668572913
451,0.4403,987.93,987.812,0.302307,1.61645e-05,-0.0266033,0.138252,0.364862,0.364862,-0.725933,-1.12618e-08,5.09491e-05,-2.79865e-05,0.723151,0.44031523093203595,-1.1261800048067983e-08,5.095039792735179e-05,0.44031523093203595,-2.798610838161686e-05,-0.5161270951334114
452,0.4413,987.863,987.746,-0.119624,1.33006e-05,-0.106706,0.0390305,0.365556,0.365556,-0.727322,-1.26876e-08,4.89279e-05,-2.94372e-05,0.724538,0.4413151566363889,-1.2687599970639951e-08,4.892909698916981e-05,0.4413151566363889,-2.943676672984008e-05,-0.5167987280412336
453,0.4423,988.649,988.532,0.312438,1.62469e-05,-0.0253109,0.140864,0.366249,0.366249,-0.728706,-1.22566e-08,5.01402e-05,-2.68638e-05,0.725922,0.4423143342149809,-1.2256599957183312e-08,5.0141457040853155e-05,0.4423143342149809,-2.686343917135403e-05,-0.5174670160396566
454,0.4433,988.561,988.443,-0.130422,1.32303e-05,-0.109411,0.0366914,0.366942,0.366942,-0.730093,-1.31287e-08,4.80329e-05,-2.84169e-05,0.727307,0.4433142044636176,-1.3128700016018513e-08,4.803405359821156e-05,0.4433142044636176,-2.8416496243743872e-05,-0.5181358253619252
455,0.4443,989.366,989.248,0.322459,1.63327e-05,-0.0240312,0.143452,0.367635,0.367635,-0.731474,-1.31042e-08,4.9324e-05,-2.57417e-05,0.728688,0.44431476786248525,-1.3104199947377992e-08,4.932521644840371e-05,0.44431476786248525,-2.5741368685272548e-05,-0.5188008205022682
456,0.4453,989.255,989.137,-0.141072,1.31637e-05,-0.112085,0.0343858,0.368327,0.368327,-0.73286,-1.31622e-08,4.71313e-05,-2.73962e-05,0.730072,0.44531457957680143,-1.3162199996585855e-08,4.713241069720375e-05,0.44531457957680143,-2.7395824727549645e-05,-0.5194673005876607
457,0.4463,990.079,989.961,0.332309,1.64204e-05,-0.0227761,0.146,0.369019,0.369019,-0.734239,-1.23278e-08,4.85006e-05,-2.46204e-05,0.731451,0.44631508340026604,-1.2327800003042455e-08,4.850177617310436e-05,0.44631508340026604,-2.4620096920391354e-05,-0.5201294984897583
458,0.4473,989.946,989.828,-0.151511,1.31003e-05,-0.114714,0.0321286,0.36971,0.36971,-0.735623,-1.19078e-08,4.62237e-05,-2.63749e-05,0.732833,0.4473148324964282,-1.19077999682915e-08,4.622476833171518e-05,0.4473148324964282,-2.6374552185348676e-05,-0.5207931798903815
459,0.4483,990.789,990.671,0.341922,1.65089e-05,-0.0215581,0.148493,0.370401,0.370401,-0.737,-1.14315e-08,4.76697e-05,-2.35003e-05,0.73421,0.44831527265795157,-1.143149996885029e-08,4.767083621826096e-05,0.44831527265795157,-2.350002387008221e-05,-0.5214525935711588
460,0.4493,990.635,990.517,-0.161676,1.30402e-05,-0.117287,0.0299349,0.371091,0.371091,-0.738382,-1.09111e-08,4.53102e-05,-2.53526e-05,0.73559,0.4493149550468474,-1.0911100023491827e-08,4.531122652262631e-05,0.4493149550468474,-2.5352278625545566e-05,-0.5221134893027046
461,0.4503,991.495,991.377,0.351234,1.65972e-05,-0.0203896,0.150916,0.371781,0.371781,-0.739757,-1.09474e-08,4.68312e-05,-2.23816e-05,0.736966,0.45031532745462055,-1.0947399986527273e-08,4.683229659785404e-05,0.45031532745462055,-2.238134953380655e-05,-0.5227701317098031
462,0.4513,991.32,991.203,-0.171501,1.29832e-05,-0.119793,0.0278199,0.37247,0.37247,-0.741138,-9.72387e-09,4.43913e-05,-2.43291e-05,0.738344,0.4513149390418838,-9.723870042499527e-09,4.439228530839223e-05,0.4513149390418838,-2.432880404990012e-05,-0.5234287312902304
463,0.4523,992.198,992.08,0.36018,1.66845e-05,-0.019283,0.153253,0.373159,0.373159,-0.742511,-9.79667e-09,4.59848e-05,-2.12647e-05,0.739717,0.45231523959885367,-9.796670030759458e-09,4.598585731718785e-05,0.45231523959885367,-2.1264473907822712e-05,-0.5240826146485222
464,0.4533,992.004,991.886,-0.180924,1.29297e-05,-0.122217,0.0257986,0.373847,0.373847,-0.743889,-1.20182e-08,4.34672e-05,-2.3304e-05,0.741094,0.4533147762848906,-1.2018199990748712e-08,4.346814471234417e-05,0.4533147762848906,-2.3303728463930362e-05,-0.5247379771570633
465,0.4543,992.898,992.78,0.368696,1.67699e-05,-0.0182507,0.155489,0.374535,0.374535,-0.74526,-1.24478e-08,4.51304e-05,-2.01499e-05,0.742465,0.4543150008887842,-1.24478000129713e-08,4.513141839179724e-05,0.4543150008887842,-2.014969699215552e-05,-0.5253891149334432
466,0.4553,992.684,992.566,-0.189882,1.28798e-05,-0.12455,0.0238856,0.375222,0.375222,-0.746637,-1.04537e-08,4.25384e-05,-2.22771e-05,0.74384,0.45531445856879826,-1.0453700016732625e-08,4.2539304770494724e-05,0.45531445856879826,-2.2276851867286673e-05,-0.5260422043669097
467,0.4563,993.594,993.476,0.37672,1.68528e-05,-0.0173048,0.15761,0.375909,0.375909,-0.748006,-1.24732e-08,4.42679e-05,-1.90374e-05,0.745209,0.4563146031121492,-1.2473200028395581e-08,4.426887983788319e-05,0.4563146031121492,-1.903721878981912e-05,-0.5266906086551283
468,0.4573,993.362,993.245,-0.198316,1.28336e-05,-0.126779,0.0220954,0.376596,0.376596,-0.749381,-1.1599e-08,4.1605e-05,-2.12479e-05,0.746582,0.4573154349908741,-1.1598999982709302e-08,4.16058654999496e-05,0.4573154349908741,-2.1247674264923688e-05,-0.527340961847943
469,0.4583,994.287,994.169,0.384192,1.69322e-05,-0.0164568,0.159601,0.377282,0.377282,-0.750748,-9.24461e-09,4.33971e-05,-1.79276e-05,0.747949,0.45831549636110913,-9.244609966430062e-09,4.339804166786365e-05,0.45831549636110913,-1.792743930151275e-05,-0.5279866453278899
470,0.4593,994.038,993.92,-0.206166,1.27913e-05,-0.128894,0.0204415,0.377967,0.377967,-0.752121,-9.90106e-09,4.06675e-05,-2.02164e-05,0.74932,0.4593147846932961,-9.901059971895165e-09,4.0668326934056864e-05,0.4593147846932961,-2.0216195649958024e-05,-0.5286342749643704
471,0.4603,994.976,994.858,0.391055,1.70075e-05,-0.0157178,0.161449,0.378652,0.378652,-0.753487,-1.16299e-08,4.25178e-05,-1.68209e-05,0.750686,0.46031475777248954,-1.1629900042997576e-08,4.251870389437862e-05,0.46031475777248954,-1.6820758529489943e-05,-0.529277720971093
472,0.4613,994.712,994.594,-0.213381,1.2753e-05,-0.130883,0.0189367,0.379337,0.379337,-0.754858,-1.16634e-08,3.97262e-05,-1.9182e-05,0.752055,0.46131541606790205,-1.1663400023564918e-08,3.972698909593397e-05,0.46131541606790205,-1.9181816026558884e-05,-0.529922639023299
473,0.4623,995.661,995.543,0.397256,1.7078e-05,-0.0150983,0.163141,0.380021,0.380021,-0.756221,-1.16568e-08,4.16299e-05,-1.57173e-05,0.753419,0.4623152977330387,-1.1656799969728127e-08,4.1630766536293606e-05,0.4623152977330387,-1.5717176483853734e-05,-0.5305629180170518
474,0.4633,995.383,995.265,-0.219908,1.27189e-05,-0.132738,0.017593,0.380704,0.380704,-0.757591,-1.26057e-08,3.87812e-05,-1.81447e-05,0.754786,0.46331440023605586,-1.260570003935868e-08,3.878195200046619e-05,0.46331440023605586,-1.8144535385955507e-05,-0.5312056064772513
475,0.4643,996.343,996.225,0.402746,1.7143e-05,-0.0146077,0.164665,0.381387,0.381387,-0.758952,-1.16819e-08,4.07332e-05,-1.46173e-05,0.756148,0.464314185359171,-1.1681900002891155e-08,4.073402960802497e-05,0.464314185359171,-1.4617193167754117e-05,-0.5318432016648913
476,0.4653,996.052,995.934,-0.225704,1.26891e-05,-0.13445,0.0164211,0.38207,0.38207,-0.76032,-1.26277e-08,3.7833e-05,-1.71042e-05,0.757513,0.46531465356877266,-1.2627699996770048e-08,3.7833715677004776e-05,0.46531465356877266,-1.7104053724015245e-05,-0.5324832023047668
477,0.4663,997.021,996.903,0.407482,1.72018e-05,-0.0142547,0.166011,0.382752,0.382752,-0.761679,-1.06684e-08,3.98277e-05,-1.35209e-05,0.758873,0.4663143390164959,-1.0668400052260552e-08,3.982849313333148e-05,0.4663143390164959,-1.3520808593070477e-05,-0.5331181261043937
478,0.4673,996.719,996.601,-0.230728,1.26636e-05,-0.13601,0.0154307,0.383434,0.383434,-0.763045,-1.06734e-08,3.68816e-05,-1.60602e-05,0.760237,0.4673147064822365,-1.0673400052674253e-08,3.6882280134653556e-05,0.4673147064822365,-1.606007103571727e-05,-0.5337554513518893
479,0.4683,997.695,997.577,0.411426,1.72538e-05,-0.0140469,0.16717,0.384115,0.384115,-0.764403,-1.25903e-08,3.89132e-05,-1.24286e-05,0.761595,0.46831428811626674,-1.2590300024761802e-08,3.891395712840584e-05,0.46831428811626674,-1.2428522765284278e-05,-0.53438818172779
480,0.4693,997.384,997.266,-0.234945,1.26425e-05,-0.137413,0.0146299,0.384796,0.384796,-0.765767,-1.12632e-08,3.59275e-05,-1.50126e-05,0.762957,0.46931455069722583,-1.1263200039302035e-08,3.59281454003213e-05,0.46931455069722583,-1.5012487311505396e-05,-0.5350228433103152
481,0.4703,998.366,998.248,0.414544,1.72986e-05,-0.0139906,0.168134,0.385477,0.385477,-0.767123,-1.17474e-08,3.79897e-05,-1.13403e-05,0.764313,0.4703154946889967,-1.174740005271957e-08,3.799042161789501e-05,0.4703154946889967,-1.134023569904219e-05,-0.5356529250428257
482,0.4713,998.047,997.929,-0.238327,1.26258e-05,-0.138652,0.0140255,0.386156,0.386156,-0.768485,-9.43725e-09,3.49706e-05,-1.39612e-05,0.765673,0.4713141779244794,-9.437249981480988e-09,3.497121147866267e-05,0.4713141779244794,-1.3961102542925374e-05,-0.5362849352622573
483,0.4723,999.033,998.915,0.416813,1.73356e-05,-0.014091,0.168897,0.386836,0.386836,-0.769839,-1.26164e-08,3.70571e-05,-1.02563e-05,0.767027,0.4723150118104238,-1.261640003580311e-08,3.705778662288495e-05,0.4723150118104238,-1.025624740436104e-05,-0.5369123805835709
484,0.4733,998.708,998.59,-0.240854,1.26135e-05,-0.139724,0.0136228,0.387515,0.387515,-0.771199,-1.1314e-08,3.40113e-05,-1.2906e-05,0.768385,0.47331505317906597,-1.1313999959128296e-08,3.4011878390804995e-05,0.47331505317906597,-1.2905916717986798e-05,-0.5375417516766269
485,0.4743,999.697,999.579,0.418211,1.73644e-05,-0.0143521,0.169454,0.388193,0.388193,-0.772551,-8.80059e-09,3.61154e-05,-9.17661e-06,0.769737,0.4743142994913432,-8.800590034496736e-09,3.6116052168910784e-05,0.4743142994913432,-9.176567895008425e-06,-0.5381665727541356
486,0.4753,999.367,999.249,-0.242508,1.26057e-05,-0.140625,0.0134255,0.388871,0.388871,-0.77391,-8.74458e-09,3.30497e-05,-1.18468e-05,0.771094,0.47531422352234065,-8.744579949038211e-09,3.30502461474147e-05,0.47531422352234065,-1.1846729826903157e-05,-0.5387937780991996
487,0.4763,1000.36,1000.24,0.418729,1.73848e-05,-0.0147764,0.169802,0.389549,0.389549,-0.77526,-1.02124e-08,3.51646e-05,-8.10143e-06,0.772444,0.4763148257317078,-1.0212400036735403e-08,3.516521828172969e-05,0.4763148257317078,-8.10139718354641e-06,-0.5394159864136556
488,0.4773,1000.02,999.906,-0.243283,1.26021e-05,-0.141354,0.0134356,0.390226,0.390226,-0.776617,-8.77894e-09,3.20858e-05,-1.07835e-05,0.773799,0.47731462926403734,-8.77894001938273e-09,3.208631475470902e-05,0.47731462926403734,-1.078344185823088e-05,-0.540040575040863
489,0.4783,1001.01,1000.89,0.418361,1.73966e-05,-0.0153651,0.169941,0.390903,0.390903,-0.777965,-1.18125e-08,3.42047e-05,-7.03076e-06,0.775148,0.47831510989252934,-1.181249997816991e-08,3.4205284987320894e-05,0.47831510989252934,-7.030735284296874e-06,-0.5406601826363643
490,0.4793,1000.68,1000.56,-0.243178,1.26029e-05,-0.14191,0.0136535,0.391579,0.391579,-0.77932,-1.08356e-08,3.11199e-05,-9.71617e-06,0.776501,0.4793147887602047,-1.0835599972836008e-08,3.1120384229144094e-05,0.4793147887602047,-9.716122798208993e-06,-0.5412821665995922
491,0.4803,1001.67,1001.55,0.417109,1.73995e-05,-0.0161182,0.16987,0.392255,0.392255,-0.780666,-1.02584e-08,3.32358e-05,-5.96462e-06,0.777847,0.480315143639261,-1.0258400018337e-08,3.323635231522459e-05,0.480315143639261,-5.96460221169437e-06,-0.5418991854565031
492,0.4813,1001.33,1001.21,-0.242198,1.2608e-05,-0.142294,0.0140779,0.39293,0.39293,-0.78202,-1.08571e-08,3.01518e-05,-8.64481e-06,0.779198,0.48131469367140167,-1.0857099996819386e-08,3.015225457003723e-05,0.48131469367140167,-8.644772633736864e-06,-0.5425190342270791
493,0.4823,1002.31,1002.2,0.414982,1.73937e-05,-0.0170339,0.169591,0.393605,0.393605,-0.783364,-1.02791e-08,3.2258e-05,-4.90299e-06,0.780543,0.48231491862757525,-1.0279100015608833e-08,3.2258520294981e-05,0.48231491862757525,-4.902977980392187e-06,-0.5431334756479524
494,0.4833,1001.98,1001.87,-0.240355,1.26173e-05,-0.142509,0.0147059,0.394279,0.394279,-0.784716,-9.62019e-09,2.91818e-05,-7.56944e-06,0.781893,0.48331433564843196,-9.620189977965765e-09,2.9182225792956373e-05,0.48331433564843196,-7.569411351826538e-06,-0.5437507418229168
495,0.4843,1002.96,1002.84,0.411997,1.73791e-05,-0.0181096,0.169108,0.394953,0.394953,-0.786058,-1.08674e-08,3.12713e-05,-3.84581e-06,0.783236,0.4843144265034174,-1.0867399979908043e-08,3.1271788952125235e-05,0.4843144265034174,-3.845802604929283e-06,-0.5443626176668687
496,0.4853,1002.63,1002.52,-0.23767,1.26307e-05,-0.142557,0.0155331,0.395627,0.395627,-0.787408,-1.23499e-08,2.82097e-05,-6.49014e-06,0.784583,0.4853151916468488,-1.2349899991548341e-08,2.8210097897218844e-05,0.4853151916468488,-6.490118939050937e-06,-0.5449773131202305
497,0.4863,1003.6,1003.48,0.408177,1.73559e-05,-0.0193409,0.168428,0.3963,0.3963,-0.788749,-1.08819e-08,3.0276e-05,-2.79301e-06,0.785925,0.4863151452174612,-1.088190004772116e-08,3.0276458322653355e-05,0.4863151452174612,-2.7930060995107198e-06,-0.5455870895968296
498,0.4873,1003.28,1003.16,-0.234169,1.26481e-05,-0.142444,0.0165535,0.396972,0.396972,-0.790097,-1.14403e-08,2.72357e-05,-5.40704e-06,0.78727,0.4873142846683032,-1.1440300040632678e-08,2.7236070895053643e-05,0.4873142846683032,-5.407025381987118e-06,-0.5461992255277428
499,0.4883,1004.24,1004.12,0.403551,1.73244e-05,-0.0207226,0.167555,0.397645,0.397645,-0.791436,-1.08949e-08,2.92721e-05,-1.74446e-06,0.78861,0.48831558408134446,-1.0894899982183404e-08,2.9272528432100486e-05,0.48831558408134446,-1.7444584784476191e-06,-0.5468064581318061
500,0.4893,1003.93,1003.81,-0.229882,1.26694e-05,-0.142175,0.0177596,0.398316,0.398316,-0.792782,-1.09268e-08,2.62595e-05,-4.32026e-06,0.789954,0.48931457896356356,-1.0926800020349958e-08,2.6259844783771413e-05,0.48931457896356356,-4.320250667655401e-06,-0.5474160462942939
501,0.4903,1004.88,1004.76,0.398155,1.72849e-05,-0.0222481,0.166499,0.398987,0.398987,-0.794119,-9.01192e-09,2.82599e-05,-7.00018e-07,0.791292,0.49031424439629334,-9.011919988033412e-09,2.826029931468632e-05,0.49031424439629334,-7.000177549842945e-07,-0.5480207467080931
502,0.4913,1004.57,1004.45,-0.224848,1.26946e-05,-0.141758,0.0191428,0.399658,0.399658,-0.795463,-1.09402e-08,2.52812e-05,-3.22997e-06,0.792633,0.491314580829624,-1.0940199968167974e-08,2.5281519572262212e-05,0.491314580829624,-3.229964783635353e-06,-0.5486277987941373
503,0.4923,1005.51,1005.39,0.392028,1.72379e-05,-0.0239098,0.16527,0.400329,0.400329,-0.796799,-1.09167e-08,2.72395e-05,3.40499e-07,0.79397,0.49231558871394787,-1.0916699988428036e-08,2.7239870998618798e-05,0.49231558871394787,3.404990580602174e-07,-0.5492304294080621
504,0.4933,1005.21,1005.1,-0.219109,1.27234e-05,-0.141199,0.0206931,0.400998,0.400998,-0.798141,-9.73112e-09,2.43007e-05,-2.13638e-06,0.79531,0.49331428186840975,-9.731120020894934e-09,2.4300995264292524e-05,0.49331428186840975,-2.136377717953941e-06,-0.5498349564434282
505,0.4943,1006.14,1006.02,0.385218,1.71837e-05,-0.025699,0.163877,0.401668,0.401668,-0.799475,-1.09255e-08,2.62112e-05,1.37729e-06,0.796644,0.49431513768652025,-1.0925499949188122e-08,2.6211543516563296e-05,0.49431513768652025,1.3772909484011109e-06,-0.5504350762426311
506,0.4953,1005.86,1005.74,-0.212712,1.27558e-05,-0.140509,0.0223993,0.402337,0.402337,-0.800816,-1.03902e-08,2.33179e-05,-1.03969e-06,0.797982,0.4953151689868045,-1.0390200033683072e-08,2.3318171864294968e-05,0.4953151689868045,-1.0396894595254835e-06,-0.551037538763986
507,0.4963,1006.76,1006.64,0.377773,1.7123e-05,-0.0276064,0.162333,0.403005,0.403005,-0.802148,-1.1427e-08,2.51753e-05,2.41058e-06,0.799315,0.49631437321674476,-1.1427000012886879e-08,2.517561690051906e-05,0.49631437321674476,2.4105829055098837e-06,-0.5516351586591429
508,0.4973,1006.49,1006.38,-0.205708,1.27917e-05,-0.139697,0.0242496,0.403673,0.403673,-0.803486,-1.09709e-08,2.23326e-05,5.98517e-08,0.800651,0.49731424513809475,-1.0970899966267211e-08,2.233284937447344e-05,0.49731424513809475,5.985170181688204e-08,-0.5522346696545618
509,0.4983,1007.38,1007.27,0.369748,1.70563e-05,-0.0296218,0.160651,0.404341,0.404341,-0.804817,-1.03922e-08,2.41319e-05,3.44063e-06,0.801982,0.4983147851970213,-1.0392199989439632e-08,2.4132191176695628e-05,0.4983147851970213,3.4406359190608526e-06,-0.5528302488633627
510,0.4993,1007.13,1007.01,-0.198152,1.28308e-05,-0.138773,0.0262311,0.405008,0.405008,-0.806154,-9.77941e-09,2.13448e-05,1.16199e-06,0.803317,0.4993144945247452,-9.779409948507123e-09,2.134502780193337e-05,0.4993144945247452,1.1619906750137687e-06,-0.5534277153253016
511,0.5003,1008.0,1007.88,0.361199,1.69844e-05,-0.0317344,0.158843,0.405675,0.405675,-0.807483,-9.09622e-09,2.30815e-05,4.46768e-06,0.804646,0.5003148708810199,-9.096219999449318e-09,2.3081766379773327e-05,0.5003148708810199,4.467689980192091e-06,-0.554020815689146
512,0.5013,1007.76,1007.65,-0.190101,1.2873e-05,-0.137747,0.0283304,0.406341,0.406341,-0.808817,-1.04225e-08,2.03542e-05,2.26646e-06,0.805979,0.5013144133957379,-1.0422499974183097e-08,2.0354407148204245e-05,0.5013144133957379,2.26646256851204e-06,-0.5546153552749449
513,0.5023,1008.62,1008.5,0.352185,1.69077e-05,-0.0339331,0.156923,0.407007,0.407007,-0.810145,-1.09471e-08,2.20243e-05,5.49202e-06,0.807306,0.5023146218274965,-1.094710000426602e-08,2.2024542536636105e-05,0.5023146218274965,5.4920350811560326e-06,-0.5552064335203168
514,0.5033,1008.4,1008.28,-0.181613,1.29181e-05,-0.136632,0.0305335,0.407673,0.407673,-0.811477,-8.27766e-09,1.93607e-05,3.37296e-06,0.808637,0.5033154966199442,-8.277660001887455e-09,1.9360887419495043e-05,0.5033154966199442,3.372965688530627e-06,-0.5557985041442933
515,0.5043,1009.23,1009.11,0.342766,1.68272e-05,-0.0362062,0.154907,0.408338,0.408338,-0.812803,-1.09492e-08,2.09605e-05,6.51394e-06,0.809963,0.504315533900739,-1.0949199991117098e-08,2.0960719672835637e-05,0.504315533900739,6.513961215759423e-06,-0.5563871249859336
516,0.5053,1009.03,1008.91,-0.17275,1.2966e-05,-0.135438,0.0328263,0.409002,0.409002,-0.814134,-9.81399e-09,1.83642e-05,4.48123e-06,0.811292,0.5053147311120114,-9.81398995403282e-09,1.8364368622902916e-05,0.5053147311120114,4.481240040821177e-06,-0.556977180953221
517,0.5063,1009.84,1009.72,0.333006,1.67433e-05,-0.038542,0.152808,0.409666,0.409666,-0.815458,-1.14287e-08,1.98905e-05,7.53374e-06,0.812616,0.5063145920105518,-1.1428699986382185e-08,1.989069781727082e-05,0.5063145920105518,7.533768378698014e-06,-0.5575633550327692
518,0.5073,1009.66,1009.54,-0.163571,1.30164e-05,-0.134177,0.0351942,0.41033,0.41033,-0.816787,-7.36813e-09,1.73644e-05,5.59095e-06,0.813944,0.507315117037195,-7.368129995022343e-09,1.7364550761955755e-05,0.507315117037195,5.590965629354017e-06,-0.5581509627820931
519,0.5083,1010.45,1010.33,0.322964,1.66569e-05,-0.0409288,0.150642,0.410993,0.410993,-0.818109,-1.14252e-08,1.88147e-05,8.55171e-06,0.815266,0.508314798317516,-1.1425200008297054e-08,1.881487699750828e-05,0.508314798317516,8.551746565998997e-06,-0.5587347012731367
520,0.5093,1010.28,1010.16,-0.154139,1.3069e-05,-0.132861,0.037623,0.411656,0.411656,-0.819436,-9.82949e-09,1.63612e-05,6.70183e-06,0.816591,0.509315142606289,-9.829489999724217e-09,1.636133384508298e-05,0.509315142606289,6.701852457213775e-06,-0.5593198719779144
521,0.5103,1011.06,1010.94,0.312704,1.65687e-05,-0.0433546,0.148422,0.412318,0.412318,-0.820757,-9.82421e-09,1.77332e-05,9.56815e-06,0.817912,0.5103146400278389,-9.824210001063705e-09,1.7733357234206437e-05,0.5103146400278389,9.568195774800614e-06,-0.5599016260938392
522,0.5113,1010.91,1010.79,-0.144513,1.31238e-05,-0.131501,0.0400981,0.41298,0.41298,-0.822083,-1.04456e-08,1.53545e-05,7.81357e-06,0.819236,0.5113147993357421,-1.0445600051589565e-08,1.535461788093606e-05,0.5113147993357421,7.813600525929942e-06,-0.5604848098013908
523,0.5123,1011.66,1011.54,0.302285,1.64792e-05,-0.0458079,0.146164,0.413642,0.413642,-0.823402,-9.15298e-09,1.66465e-05,1.05834e-05,0.820555,0.5123156209683124,-9.152980040560976e-09,1.6646638553829973e-05,0.5123156209683124,1.0583456004464864e-05,-0.5610641481796099
524,0.5133,1011.53,1011.41,-0.134753,1.31803e-05,-0.130109,0.0426058,0.414303,0.414303,-0.824725,-8.35159e-09,1.4344e-05,8.92589e-06,0.821877,0.5133155920478052,-8.351589975141849e-09,1.434410287570742e-05,0.5133155920478052,8.92592983592344e-06,-0.5616444763398432
525,0.5143,1012.26,1012.14,0.291766,1.63892e-05,-0.0482774,0.14388,0.414963,0.414963,-0.826043,-1.14066e-08,1.55548e-05,1.15976e-05,0.823194,0.5143147100112166,-1.1406599997876299e-08,1.5554920976601494e-05,0.5143147100112166,1.1597667252338795e-05,-0.562221848348293
526,0.5153,1012.15,1012.03,-0.124916,1.32384e-05,-0.128695,0.0451322,0.415623,0.415623,-0.827364,-8.36209e-09,1.33296e-05,1.00385e-05,0.824514,0.5153144876101399,-8.362090020419544e-09,1.3329688839602838e-05,0.5153144876101399,1.0038550385838008e-05,-0.562799771484352
527,0.5163,1012.86,1012.74,0.281205,1.62993e-05,-0.0507521,0.141585,0.416283,0.416283,-0.82868,-8.38984e-09,1.44585e-05,1.26113e-05,0.82583,0.5163149252800776,-8.38984004492005e-09,1.4458604524536511e-05,0.5163149252800776,1.2611379522686761e-05,-0.5633747485671767
528,0.5173,1012.76,1012.64,-0.115058,1.32978e-05,-0.127271,0.0476644,0.416942,0.416942,-0.83,-9.15976e-09,1.23112e-05,1.11511e-05,0.827148,0.517314506141556,-9.159759950527757e-09,1.2311275783050135e-05,0.517314506141556,1.115116217365042e-05,-0.5639507136784644
529,0.5183,1013.45,1013.33,0.270655,1.621e-05,-0.0532216,0.139292,0.417601,0.417601,-0.831314,-9.82896e-09,1.33577e-05,1.36245e-05,0.828462,0.5183147459439195,-9.828959979252261e-09,1.335778921451869e-05,0.5183147459439195,1.362459281395445e-05,-0.5645233061650409
530,0.5193,1013.38,1013.26,-0.105231,1.33582e-05,-0.125846,0.0501898,0.41826,0.41826,-0.832632,-9.8422e-09,1.12886e-05,1.22635e-05,0.829779,0.519315645121553,-9.84220005495473e-09,1.128866371646886e-05,0.519315645121553,1.226357519712451e-05,-0.5650968863751253
531,0.5203,1014.04,1013.93,0.260169,1.61218e-05,-0.055676,0.137012,0.418917,0.418917,-0.833945,-7.4989e-09,1.22529e-05,1.46376e-05,0.831091,0.5203141634777604,-7.498899945446169e-09,1.2252975067017502e-05,0.5203141634777604,1.4637707130171762e-05,-0.5656675394475903
532,0.5213,1013.99,1013.87,-0.0954846,1.34193e-05,-0.124431,0.0526967,0.419575,0.419575,-0.835261,-9.16565e-09,1.02616e-05,1.33754e-05,0.832406,0.5213148593901784,-9.165650016740301e-09,1.0261652650500608e-05,0.5213148593901784,1.337548945112843e-05,-0.566238745029967
533,0.5223,1014.63,1014.52,0.249794,1.60353e-05,-0.058106,0.134758,0.420232,0.420232,-0.836572,-8.40274e-09,1.11442e-05,1.56509e-05,0.833717,0.5223146916617343,-8.402739948287774e-09,1.1144262096918212e-05,0.5223146916617343,1.5651022476026455e-05,-0.5668070334407853
534,0.5233,1014.6,1014.48,-0.0858647,1.3481e-05,-0.123033,0.0551741,0.420889,0.420889,-0.837886,-1.04238e-08,9.23016e-06,1.44865e-05,0.835029,0.5233151810389283,-1.0423800045344933e-08,9.230202598020654e-06,0.5233151810389283,1.44866049298642e-05,-0.5673758751879695
535,0.5243,1015.22,1015.1,0.239574,1.59508e-05,-0.060503,0.132539,0.421545,0.421545,-0.839195,-9.81927e-09,1.00319e-05,1.66645e-05,0.836339,0.5243148036380545,-9.819269952693332e-09,1.0031950319566718e-05,0.5243148036380545,1.6664638853525204e-05,-0.567941809682412
536,0.5253,1015.21,1015.09,-0.0764139,1.35428e-05,-0.121662,0.0576119,0.422201,0.422201,-0.840508,-8.39345e-09,8.19416e-06,1.55967e-05,0.83765,0.5253150822047397,-8.39345004610692e-09,8.194193572119701e-06,0.5253150822047397,1.5596821629104696e-05,-0.5685087298217815
537,0.5263,1015.81,1015.69,0.22955,1.58688e-05,-0.0628593,0.130366,0.422856,0.422856,-0.841815,-7.51323e-09,8.91626e-06,1.76787e-05,0.838957,0.5263144908541855,-7.513230038114216e-09,8.916299749861523e-06,0.5263144908541855,1.7678856269132126e-05,-0.5690723205251502
538,0.5273,1015.81,1015.69,-0.0671707,1.36046e-05,-0.120324,0.0600009,0.423511,0.423511,-0.843126,-9.16386e-09,7.15348e-06,1.67058e-05,0.840266,0.5273145543307292,-9.163860004157698e-09,7.153505586110498e-06,0.5273145543307292,1.670593954261612e-05,-0.5696368965524935
539,0.5283,1016.39,1016.28,0.21976,1.57895e-05,-0.0651676,0.128247,0.424166,0.424166,-0.844432,-9.80656e-09,7.7975e-06,1.86936e-05,0.841572,0.5283152730634229,-9.806560008485121e-09,7.79753040047737e-06,0.5283152730634229,1.8693774726408208e-05,-0.5701985839039192
540,0.5293,1016.41,1016.29,-0.0581696,1.3666e-05,-0.119027,0.0623329,0.42482,0.42482,-0.845741,-9.81888e-09,6.10805e-06,1.78135e-05,0.84288,0.5293151181657174,-9.818880042367084e-09,6.108068654198107e-06,0.5293151181657174,1.7813658661269827e-05,-0.5707608258899266
541,0.5303,1016.98,1016.86,0.210234,1.57133e-05,-0.0674218,0.126189,0.425474,0.425474,-0.847045,-9.15294e-09,6.67582e-06,1.97095e-05,0.844184,0.5303156173805803,-9.152939961509787e-09,6.675842283421218e-06,0.5303156173805803,1.9709694233371877e-05,-0.5713201889889632
542,0.5313,1017.01,1016.89,-0.0494411,1.37269e-05,-0.117776,0.0646006,0.426127,0.426127,-0.848352,-1.03808e-08,5.05781e-06,1.89197e-05,0.84549,0.5313152398199354,-1.0380799997378176e-08,5.057822790810462e-06,0.5313152398199354,1.8919878978618243e-05,-0.5718801075154908
543,0.5323,1017.56,1017.44,0.201002,1.56403e-05,-0.0696162,0.124201,0.42678,0.42678,-0.849655,-8.40033e-09,5.55141e-06,2.07264e-05,0.846792,0.532315515225914,-8.40032998716822e-09,5.551425409144883e-06,0.532315515225914,2.0726614793353804e-05,-0.5724375844602945
544,0.5333,1017.61,1017.49,-0.0410116,1.3787e-05,-0.116578,0.0667977,0.427432,0.427432,-0.85096,-1.03667e-08,4.00269e-06,2.00244e-05,0.848096,0.5333149107093651,-1.0366700053943134e-08,4.0026980108187615e-06,0.5333149107093651,2.0024600489554345e-05,-0.5729951894961532
545,0.5343,1018.14,1018.02,0.192087,1.55708e-05,-0.0717463,0.122286,0.428084,0.428084,-0.852262,-8.39631e-09,4.42442e-06,2.17446e-05,0.849397,0.534314958011141,-8.396309980618355e-09,4.424429787652784e-06,0.534314958011141,2.1744836415482638e-05,-0.5735507879863244
546,0.5353,1018.2,1018.09,-0.0329032,1.3846e-05,-0.115435,0.0689188,0.428735,0.428735,-0.853565,-9.7883e-09,2.94267e-06,2.11272e-05,0.850699,0.5353141222414759,-9.788299948354506e-09,2.942674329764472e-06,0.5353141222414759,2.1127423180944405e-05,-0.574106089452107
547,0.5363,1018.71,1018.59,0.18351,1.5505e-05,-0.0738082,0.120451,0.429387,0.429387,-0.854865,-8.39113e-09,3.29503e-06,2.27641e-05,0.851999,0.5363154734541995,-8.391130013052361e-09,3.295035428507731e-06,0.5363154734541995,2.2764359104199272e-05,-0.5746593918113623
548,0.5373,1018.8,1018.68,-0.0251342,1.39039e-05,-0.114352,0.0709596,0.430037,0.430037,-0.856167,-1.08264e-08,1.87771e-06,2.22282e-05,0.853299,0.5373144031289185,-1.0826399998720149e-08,1.8777117629653617e-06,0.5373144031289185,2.2228447048355804e-05,-0.5752128249200883
549,0.5383,1019.29,1019.17,0.175287,1.54427e-05,-0.0757986,0.118699,0.430688,0.430688,-0.857465,-1.0787e-08,2.16337e-06,2.3785e-05,0.854597,0.5383155206337471,-1.0786999959933041e-08,2.163372340158176e-06,0.5383155206337471,2.378528286528514e-05,-0.575763840986552
550,0.5393,1019.39,1019.27,-0.017719,1.39604e-05,-0.113332,0.0729167,0.431337,0.431337,-0.858765,-8.37973e-09,8.07829e-07,2.33273e-05,0.855895,0.5393142114467531,-8.379730020990905e-09,8.078293263213965e-07,0.5393142114467531,2.332757208356462e-05,-0.5763149896690059
551,0.5403,1019.86,1019.74,0.16743,1.53843e-05,-0.0777151,0.117032,0.431987,0.431987,-0.860061,-8.37726e-09,1.02955e-06,2.48074e-05,0.857192,0.5403150909347876,-8.37725999680572e-09,1.0295505299406926e-06,0.5403150909347876,2.4807707706075988e-05,-0.5768637297819955
552,0.5413,1019.97,1019.85,-0.0106681,1.40153e-05,-0.112377,0.0747873,0.432636,0.432636,-0.861359,-9.74579e-09,-2.66981e-07,2.44244e-05,0.858489,0.5413150798901207,-9.745789952830819e-09,-2.6698096433630525e-07,0.5413150798901207,2.442469827812488e-05,-0.5774126043640726
553,0.5423,1020.43,1020.31,0.159947,1.53296e-05,-0.0795562,0.115454,0.433284,0.433284,-0.862654,-9.72314e-09,-1.06322e-07,2.58313e-05,0.859783,0.5423141757339824,-9.723139959838534e-09,-1.0632199431981348e-07,0.5423141757339824,2.5831633631012707e-05,-0.5779595008495169
554,0.5433,1020.56,1020.44,-0.00398849,1.40685e-05,-0.111489,0.0765698,0.433933,0.433933,-0.86395,-8.36394e-09,-1.34669e-06,2.55195e-05,0.861078,0.5433154625164496,-8.363939985045477e-09,-1.3466890932400943e-06,0.5433154625164496,2.5519825625153203e-05,-0.5785061110564937
555,0.5443,1021.0,1020.88,0.152843,1.52787e-05,-0.0813206,0.113965,0.43458,0.43458,-0.865244,-9.08479e-09,-1.24415e-06,2.68568e-05,0.862371,0.5443143107132455,-9.084790031366197e-09,-1.2441492260872877e-06,0.5443143107132455,2.6857160646986955e-05,-0.5790511714186766
556,0.5453,1021.14,1021.02,0.002316,1.41199e-05,-0.110667,0.0782633,0.435228,0.435228,-0.866538,-9.08527e-09,-2.43128e-06,2.66125e-05,0.863665,0.5453153506885111,-9.085269980779742e-09,-2.4312770444678833e-06,0.5453153506885111,2.6612854115759532e-05,-0.5795955269288884
557,0.5463,1021.57,1021.45,0.146121,1.52314e-05,-0.0830081,0.112566,0.435875,0.435875,-0.86783,-9.07026e-09,-2.38386e-06,2.78839e-05,0.864956,0.5463154932316303,-9.070259987531415e-09,-2.3838571585610424e-06,0.5463154932316303,2.7884288759549847e-05,-0.580138338776135
558,0.5473,1021.72,1021.6,0.00824478,1.41695e-05,-0.109914,0.0798675,0.436521,0.436521,-0.869123,-9.69174e-09,-3.52068e-06,2.77034e-05,0.866248,0.5473147357608448,-9.69173996612227e-09,-3.5206738023818573e-06,0.5473147357608448,2.770378374283844e-05,-0.5806808690826685
559,0.5483,1022.13,1022.02,0.13978,1.51879e-05,-0.0846188,0.111257,0.437167,0.437167,-0.870413,-8.33564e-09,-3.52538e-06,2.89126e-05,0.867537,0.5483146240092782,-8.335639956058571e-09,-3.525373785895347e-06,0.5483146240092782,2.8913017973142274e-05,-0.5812214420170452
560,0.5493,1022.29,1022.18,0.0138,1.42171e-05,-0.109227,0.081383,0.437813,0.437813,-0.871704,-7.46906e-09,-4.61484e-06,2.87923e-05,0.868827,0.5493151583941995,-7.469060037124109e-09,-4.614829351656802e-06,0.5493151583941995,2.879271450217935e-05,-0.5817617363003997
561,0.5503,1022.7,1022.58,0.133814,1.51479e-05,-0.0861533,0.110036,0.438458,0.438458,-0.872993,-7.46901e-09,-4.66868e-06,2.99429e-05,0.870115,0.5503147890175839,-7.469009966065698e-09,-4.668669101759448e-06,0.5503147890175839,2.9943348293093308e-05,-0.5823004981157216
562,0.5513,1022.87,1022.75,0.0189865,1.42626e-05,-0.108607,0.0828107,0.439103,0.439103,-0.874282,-7.45962e-09,-5.7137e-06,2.98791e-05,0.871404,0.5513150646107008,-7.459620032790326e-09,-5.713683676855652e-06,0.5513150646107008,2.9879546384670164e-05,-0.5828385659144533
563,0.5523,1023.26,1023.14,0.128219,1.51113e-05,-0.0876129,0.108902,0.439747,0.439747,-0.875569,-9.01957e-09,-5.8137e-06,3.09748e-05,0.87269,0.5523144332744803,-9.019569979784592e-09,-5.813683100486244e-06,0.5523144332744803,3.0975279724065885e-05,-0.5833751073416538
564,0.5533,1023.44,1023.32,0.0238112,1.43062e-05,-0.108052,0.0841523,0.440391,0.440391,-0.876857,-7.44897e-09,-6.81718e-06,3.09638e-05,0.873977,0.5533144457389607,-7.448969996382004e-09,-6.8171567630948005e-06,0.5533144457389607,3.0964279383427495e-05,-0.5839113747730353
565,0.5543,1023.82,1023.7,0.122987,1.50781e-05,-0.088999,0.107854,0.441035,0.441035,-0.878142,-9.60395e-09,-6.96042e-06,3.20082e-05,0.875262,0.5543151024188837,-9.603949968628456e-09,-6.9603957763009205e-06,0.5543151024188837,3.200871226782809e-05,-0.5844457052755792
566,0.5553,1024.01,1023.89,0.0282832,1.43477e-05,-0.107561,0.0854099,0.441678,0.441678,-0.879428,-6.39556e-09,-7.92518e-06,3.20465e-05,0.876547,0.555314848413631,-6.395559970506781e-09,-7.925148595822051e-06,0.555314848413631,3.204701349446282e-05,-0.5849797646248311
567,0.5563,1024.38,1024.26,0.118106,1.50481e-05,-0.0903136,0.106889,0.442321,0.442321,-0.880712,-8.27563e-09,-8.10882e-06,3.3043e-05,0.87783,0.5563152374517693,-8.275629959086928e-09,-8.108787123650707e-06,0.5563152374517693,3.3043545925925955e-05,-0.5855123086406295
568,0.5573,1024.58,1024.46,0.0324132,1.43871e-05,-0.107132,0.0865861,0.442963,0.442963,-0.881996,-8.97551e-09,-9.03763e-06,3.31273e-05,0.879113,0.5573147126314169,-8.975510001896225e-09,-9.037589160709736e-06,0.5573147126314169,3.312784871511987e-05,-0.5860441693087148
569,0.5583,1024.94,1024.82,0.113566,1.50211e-05,-0.0915589,0.106004,0.443605,0.443605,-0.883278,-8.95826e-09,-9.25888e-06,3.40794e-05,0.880395,0.5583148296801479,-8.958260022673414e-09,-9.258837136649767e-06,0.5583148296801479,3.407998070925622e-05,-0.5865745206558104
570,0.5593,1025.14,1025.02,0.0362134,1.44246e-05,-0.106762,0.0876835,0.444247,0.444247,-0.884561,-6.37601e-09,-1.01544e-05,3.42062e-05,0.881676,0.5593155890101744,-6.376010053266157e-09,-1.0154348444202377e-05,0.5593155890101744,3.420678503873731e-05,-0.5871046054237166
571,0.5603,1025.49,1025.38,0.109353,1.49971e-05,-0.0927374,0.105196,0.444888,0.444888,-0.885841,-9.52811e-09,-1.04106e-05,3.51171e-05,0.882956,0.5603154307177627,-9.528109967682497e-09,-1.0410545809858007e-05,0.5603154307177627,3.511771661246499e-05,-0.5876327734291382
572,0.5613,1025.7,1025.59,0.039697,1.44601e-05,-0.106449,0.0887055,0.445528,0.445528,-0.887122,-9.52274e-09,-1.12754e-05,3.52833e-05,0.884236,0.5613143522142043,-9.52274004095699e-09,-1.1275336432969851e-05,0.5613143522142043,3.528392246288092e-05,-0.5881606776515318
573,0.5623,1026.05,1025.93,0.105453,1.49759e-05,-0.0938518,0.104462,0.446169,0.446169,-0.888401,-5.05238e-09,-1.1564e-05,3.61561e-05,0.885515,0.5623154755397208,-5.052379958847553e-09,-1.1563933137170856e-05,0.5623154755397208,3.615675363977111e-05,-0.5886870834365563
574,0.5633,1026.26,1026.15,0.0428786,1.44936e-05,-0.106191,0.0896553,0.446808,0.446808,-0.88968,-8.90444e-09,-1.24006e-05,3.63585e-05,0.886793,0.5633141141596494,-8.904439963153266e-09,-1.2400523112909845e-05,0.5633141141596494,3.6359160978216565e-05,-0.5892128163789563
575,0.5643,1026.6,1026.48,0.101851,1.49572e-05,-0.0949049,0.103798,0.447448,0.447448,-0.890958,-8.19741e-09,-1.2719e-05,3.71963e-05,0.88807,0.5643149554277553,-8.19740997304308e-09,-1.2718919113807736e-05,0.5643149554277553,3.719699179094427e-05,-0.5897374670764197
576,0.5653,1026.82,1026.7,0.0457729,1.45253e-05,-0.105984,0.0905364,0.448087,0.448087,-0.892235,-5.02736e-09,-1.35298e-05,3.74321e-05,0.889346,0.5653148721236341,-5.0273599727646e-09,-1.3529708472681534e-05,0.5653148721236341,3.743280058987608e-05,-0.5902610379598039
577,0.5663,1027.15,1027.03,0.0985331,1.4941e-05,-0.0958997,0.103201,0.448726,0.448726,-0.893511,-8.17504e-09,-1.38757e-05,3.82377e-05,0.890621,0.5663154279704685,-8.175039978297605e-09,-1.3875603732893538e-05,0.5663154279704685,3.8238431070203305e-05,-0.5907835314536256
578,0.5673,1027.38,1027.26,0.0483956,1.45552e-05,-0.105826,0.0913526,0.449364,0.449364,-0.894787,-8.85127e-09,-1.46629e-05,3.8504e-05,0.891896,0.5673150560609668,-8.851270050236337e-09,-1.4662792500175215e-05,0.5673150560609668,3.8504741288525324e-05,-0.5913053586709238
579,0.5683,1027.7,1027.58,0.0954821,1.49272e-05,-0.0968392,0.102667,0.450002,0.450002,-0.896061,-7.3318e-09,-1.50341e-05,3.92802e-05,0.89317,0.5683153221176764,-7.3317999449429294e-09,-1.5033986988433057e-05,0.5683153221176764,3.928097147709586e-05,-0.5918257041135502
580,0.5693,1027.93,1027.81,0.0507624,1.45834e-05,-0.105713,0.0921076,0.450639,0.450639,-0.897335,-6.30737e-09,-1.57997e-05,3.95744e-05,0.894443,0.5693146572323078,-6.307369959657194e-09,-1.579957518538233e-05,0.5693146572323078,3.957518307684538e-05,-0.5923453870581833
581,0.5703,1028.25,1028.13,0.0926824,1.49154e-05,-0.0977266,0.102192,0.451276,0.451276,-0.898608,-9.37817e-09,-1.61941e-05,4.03237e-05,0.895715,0.5703146291261998,-9.378170018337073e-09,-1.6193968876310194e-05,0.5703146291261998,4.0324513011391616e-05,-0.5928640012125133
582,0.5713,1028.48,1028.36,0.0528891,1.46099e-05,-0.105643,0.0928051,0.451913,0.451913,-0.89988,-7.30052e-09,-1.69403e-05,4.06433e-05,0.896987,0.5713152382051101,-7.300519966335628e-09,-1.6940156513878257e-05,0.5713152382051101,4.0644125950173304e-05,-0.5933815489728134
583,0.5723,1028.79,1028.67,0.0901181,1.49057e-05,-0.0985648,0.101773,0.452549,0.452549,-0.901151,-8.77464e-09,-1.73558e-05,4.13681e-05,0.898257,0.5723149125593563,-8.774640014586055e-09,-1.7355649388983707e-05,0.5723149125593563,4.136895567175003e-05,-0.5938980327291128
584,0.5733,1029.03,1028.91,0.0547916,1.46349e-05,-0.105612,0.0934488,0.453185,0.453185,-0.902422,2.78221e-10,-1.80844e-05,4.17107e-05,0.899527,0.5733152229087166,2.7822100179264453e-10,-1.8084236478199678e-05,0.5733152229087166,4.171156990340208e-05,-0.5944138604515556
585,0.5743,1029.34,1029.22,0.0877734,1.48978e-05,-0.099357,0.101405,0.45382,0.45382,-0.903692,-7.26661e-09,-1.85193e-05,4.24133e-05,0.900796,0.5743145953424305,-7.266609980405292e-09,-1.851912851880133e-05,0.5743145953424305,4.241419945683056e-05,-0.5949286279022619
586,0.5753,1029.58,1029.46,0.0564854,1.46585e-05,-0.105619,0.0940424,0.454455,0.454455,-0.904961,-8.06255e-09,-1.9232e-05,4.27769e-05,0.902065,0.5753146025791682,-8.062549960996535e-09,-1.923181506624516e-05,0.5753146025791682,4.277781494455013e-05,-0.5954423374558041
587,0.5763,1029.88,1029.76,0.0856328,1.48916e-05,-0.100106,0.101086,0.45509,0.45509,-0.906229,-7.24275e-09,-1.96845e-05,4.34594e-05,0.903332,0.5763152450221578,-7.242749955338468e-09,-1.9684306261535944e-05,0.5763152450221578,4.346034437330282e-05,-0.5959549914805703
588,0.5773,1030.12,1030.0,0.0579858,1.46807e-05,-0.105659,0.0945896,0.455724,0.455724,-0.907496,-7.23081e-09,-2.0383e-05,4.38417e-05,0.904599,0.5773149457591493,-7.230809950797834e-09,-2.0382792268014427e-05,0.5773149457591493,4.3842661061388455e-05,-0.5964665923387817
589,0.5783,1030.42,1030.3,0.0836811,1.4887e-05,-0.100815,0.100811,0.456358,0.456358,-0.908763,-8.01751e-09,-2.08514e-05,4.45061e-05,0.905864,0.5783152805073681,-8.017509989244331e-09,-2.085118261108132e-05,0.5783152805073681,4.4507090411149974e-05,-0.5969775454091661
590,0.5793,1030.66,1030.55,0.0593077,1.47016e-05,-0.10573,0.0950938,0.456991,0.456991,-0.910028,-8.66473e-09,-2.15371e-05,4.49054e-05,0.907129,0.5793146703534453,-8.664730044571911e-09,-2.1536868078375626e-05,0.5793146703534453,4.4906408262601616e-05,-0.5974870464868489
591,0.5803,1030.96,1030.84,0.0819037,1.48839e-05,-0.101487,0.100576,0.457624,0.457624,-0.911293,-6.20148e-09,-2.202e-05,4.55534e-05,0.908394,0.5803146930135594,-6.201479996192916e-09,-2.2019757561553277e-05,0.5803146930135594,4.555443757192634e-05,-0.5979959034531548
592,0.5813,1031.2,1031.09,0.0604653,1.47214e-05,-0.105829,0.0955584,0.458257,0.458257,-0.912558,-9.18336e-09,-2.26945e-05,4.5968e-05,0.909657,0.5813153488884089,-9.183359961362214e-09,-2.2694242481802185e-05,0.5813153488884089,4.59690565446369e-05,-0.5985041171223694
593,0.5823,1031.49,1031.37,0.0802866,1.48821e-05,-0.102124,0.10038,0.458889,0.458889,-0.913821,-7.16483e-09,-2.31904e-05,4.66013e-05,0.910919,0.5823150560630979,-7.164829951555873e-09,-2.3190131104744438e-05,0.5823150560630979,4.660238585740828e-05,-0.5990108863303238
594,0.5833,1031.74,1031.62,0.0614723,1.47401e-05,-0.105954,0.0959868,0.459521,0.459521,-0.915083,-6.16587e-09,-2.38548e-05,4.70295e-05,0.912181,0.583315395252417,-6.165870036767274e-09,-2.385451547648465e-05,0.583315395252417,4.7030605904163636e-05,-0.5995166154096054
595,0.5843,1032.03,1031.91,0.0788163,1.48814e-05,-0.102729,0.100218,0.460152,0.460152,-0.916345,-7.924e-09,-2.43625e-05,4.76496e-05,0.913442,0.5843147825403507,-7.924000011705346e-09,-2.436220323676075e-05,0.5843147825403507,4.7650735260251764e-05,-0.6000217066613427
596,0.5853,1032.28,1032.16,0.0623419,1.47577e-05,-0.106103,0.0963819,0.460783,0.460783,-0.917606,-7.1228e-09,-2.50181e-05,4.809e-05,0.914703,0.5853148006406637,-7.122800016468034e-09,-2.5017787049996798e-05,0.5853148006406637,4.809115634252237e-05,-0.6005257614159276
597,0.5863,1032.56,1032.44,0.07748,1.48819e-05,-0.103305,0.100087,0.461414,0.461414,-0.918866,-6.12939e-09,-2.55364e-05,4.86984e-05,0.915962,0.586315449951524,-6.129389995557233e-09,-2.5536073948950744e-05,0.586315449951524,4.869958578623823e-05,-0.6010287819870341
598,0.5873,1032.81,1032.69,0.0630864,1.47745e-05,-0.106272,0.0967467,0.462044,0.462044,-0.920126,-6.11608e-09,-2.61842e-05,4.91495e-05,0.917221,0.5873151435554138,-6.116079975804212e-09,-2.6183857196881988e-05,0.5873151435554138,4.9150707856382425e-05,-0.6015311691513512
599,0.5883,1033.09,1032.97,0.0762656,1.48834e-05,-0.103854,0.0999847,0.462674,0.462674,-0.921384,-6.10338e-09,-2.67121e-05,4.97475e-05,0.918479,0.5883154671647048,-6.103380023603222e-09,-2.671174323498615e-05,0.5883154671647048,4.9748737427357526e-05,-0.6020321277715202
600,0.5893,1033.35,1033.23,0.0637174,1.47904e-05,-0.106459,0.0970841,0.463303,0.463303,-0.922642,-6.08967e-09,-2.7353e-05,5.02082e-05,0.919736,0.5893148318607992,-6.0896699904944285e-09,-2.735262591013754e-05,0.5893148318607992,5.0209460452865784e-05,-0.6025324565819783
601,0.5903,1033.62,1033.5,0.0751619,1.48857e-05,-0.104378,0.0999082,0.463932,0.463932,-0.923899,-6.07638e-09,-2.78895e-05,5.07969e-05,0.920992,0.5903148253550239,-6.0763799547558506e-09,-2.788911109152803e-05,0.5903148253550239,5.079819018427578e-05,-0.6030317594064859
602,0.5913,1033.88,1033.76,0.064246,1.48055e-05,-0.106663,0.0973965,0.464561,0.464561,-0.925155,-6.06226e-09,-2.85245e-05,5.1266e-05,0.922247,0.591315448043017,-6.062260027306365e-09,-2.852409318032656e-05,0.591315448043017,5.126731412374852e-05,-0.6035300385318761
603,0.5923,1034.15,1034.03,0.0741583,1.48889e-05,-0.104879,0.0998551,0.465189,0.465189,-0.92641,-6.04839e-09,-2.90687e-05,5.18465e-05,0.923502,0.5923151080047617,-6.048390011059723e-09,-2.9068277509480822e-05,0.5923151080047617,5.1847844052987924e-05,-0.6040272962390413
604,0.5933,1034.41,1034.29,0.0646822,1.482e-05,-0.106882,0.0976864,0.465817,0.465817,-0.927665,-7.76664e-09,-2.96985e-05,5.23231e-05,0.924756,0.5933153959501287,-7.766639997797142e-09,-2.9698059003879784e-05,0.5933153959501287,5.232446887726283e-05,-0.6045239302792169
605,0.5943,1034.68,1034.56,0.0732449,1.48928e-05,-0.105359,0.0998229,0.466444,0.466444,-0.928919,-6.01943e-09,-3.02496e-05,5.28963e-05,0.926009,0.5943147179581005,-6.0194299544846785e-09,-3.0249142485505587e-05,0.5943147179581005,5.289769903393804e-05,-0.605019546454358
606,0.5953,1034.93,1034.81,0.0650356,1.48338e-05,-0.107114,0.0979561,0.467071,0.467071,-0.930172,-6.00446e-09,-3.0875e-05,5.33795e-05,0.927262,0.5953146667374434,-6.00446004028754e-09,-3.0874523372137475e-05,0.5953146667374434,5.3380924710966227e-05,-0.6055141470306789
607,0.5963,1035.2,1035.08,0.0724125,1.48973e-05,-0.10582,0.0998096,0.467698,0.467698,-0.931424,-7.70831e-09,-3.14323e-05,5.39462e-05,0.928513,0.5963152426812666,-7.708309990306361e-09,-3.1431806010395746e-05,0.5963152426812666,5.394765512245492e-05,-0.6060077342685106
608,0.5973,1035.46,1035.34,0.0653148,1.4847e-05,-0.107356,0.0982075,0.468324,0.468324,-0.932676,-5.97408e-09,-3.20539e-05,5.44351e-05,0.929764,0.5973148488672777,-5.974080008464e-09,-3.2053386279207174e-05,0.5973148488672777,5.443658161685683e-05,-0.6065007039218091
609,0.5983,1035.72,1035.61,0.0716528,1.49024e-05,-0.106264,0.099813,0.46895,0.46895,-0.933927,-7.66872e-09,-3.26168e-05,5.49962e-05,0.931014,0.5983150810026632,-7.66871999235974e-09,-3.261626807793405e-05,0.5983150810026632,5.4997712318760605e-05,-0.6069926637561667
610,0.5993,1035.98,1035.86,0.065528,1.48598e-05,-0.107609,0.0984428,0.469575,0.469575,-0.935176,-6.89379e-09,-3.32351e-05,5.54901e-05,0.932263,0.5993143401642498,-6.893789983308807e-09,-3.323454772019563e-05,0.5993143401642498,5.549163960405501e-05,-0.607483223500802
611,0.6003,1036.25,1036.13,0.070958,1.4908e-05,-0.106692,0.0998313,0.4702,0.4702,-0.936426,-6.87523e-09,-3.38029e-05,5.60462e-05,0.933511,0.600314224058021,-6.875230051939241e-09,-3.380232868843702e-05,0.600314224058021,5.6047770617517756e-05,-0.6079735629454268
612,0.6013,1036.5,1036.38,0.0656825,1.48721e-05,-0.107869,0.0986635,0.470825,0.470825,-0.937674,-8.7363e-09,-3.44185e-05,5.65445e-05,0.934759,0.6013147330745563,-8.73630001674286e-09,-3.441790769020958e-05,0.6013147330745563,5.654609867034033e-05,-0.6084625067744607
613,0.6023,1036.77,1036.65,0.0703211,1.49141e-05,-0.107105,0.099863,0.471449,0.471449,-0.938922,-6.83799e-09,-3.49908e-05,5.70962e-05,0.936006,0.6023142652896132,-6.8379899520465415e-09,-3.499018782904262e-05,0.6023142652896132,5.7097830018948414e-05,-0.6089508407822034
614,0.6033,1037.02,1036.9,0.065785,1.48839e-05,-0.108137,0.0988713,0.472073,0.472073,-0.940168,7.26058e-10,-3.56041e-05,5.75983e-05,0.937252,0.6033144214074095,7.260581025292367e-10,-3.5603466181588495e-05,0.6033144214074095,5.7599958813936425e-05,-0.6094377846055878
615,0.6043,1037.28,1037.16,0.0697356,1.49206e-05,-0.107505,0.0999063,0.472697,0.472697,-0.941414,-7.54385e-09,-3.61803e-05,5.81462e-05,0.938497,0.6043152018173823,-7.543849989133378e-09,-3.6179645500844515e-05,0.6043152018173823,5.814789052305258e-05,-0.6099241220748053
616,0.6053,1037.54,1037.42,0.0658417,1.48954e-05,-0.10841,0.0990677,0.47332,0.47332,-0.94266,-6.78053e-09,-3.67918e-05,5.86516e-05,0.939742,0.6053150015934072,-6.780530026340159e-09,-3.6791123189994224e-05,0.6053150015934072,5.865332003862633e-05,-0.6104098539449029
617,0.6063,1037.8,1037.68,0.0691957,1.49274e-05,-0.107893,0.09996,0.473943,0.473943,-0.943904,-4.58762e-09,-3.73716e-05,5.91961e-05,0.940986,0.6063154244387585,-4.587619950591204e-09,-3.737090169042556e-05,0.6063154244387585,5.919785212360473e-05,-0.6108942027591706
618,0.6073,1038.05,1037.93,0.0658581,1.49066e-05,-0.108687,0.0992539,0.474565,0.474565,-0.945148,7.98633e-10,-3.79815e-05,5.97043e-05,0.942229,0.6073148634260621,7.986329375597734e-10,-3.7980778711976804e-05,0.6073148634260621,5.970608233729635e-05,-0.6113779494181317
619,0.6083,1038.31,1038.19,0.0686961,1.49345e-05,-0.108271,0.100023,0.475187,0.475187,-0.946391,-5.78972e-09,-3.85645e-05,6.02459e-05,0.943471,0.6083149242577897,-5.789720036730728e-09,-3.85637563992125e-05,0.6083149242577897,6.024771482060487e-05,-0.6118607065313022
620,0.6093,1038.57,1038.45,0.0658392,1.49175e-05,-0.108969,0.0994311,0.475809,0.475809,-0.947633,-5.77155e-09,-3.91732e-05,6.07565e-05,0.944713,0.6093156073208481,-5.77155001568741e-09,-3.917243274020876e-05,0.6093156073208481,6.075834571350747e-05,-0.6123424762928384
621,0.6103,1038.83,1038.71,0.068232,1.49419e-05,-0.108638,0.100094,0.47643,0.47643,-0.948874,-6.67924e-09,-3.9759e-05,6.12955e-05,0.945953,0.6103153026862784,-6.67924004993381e-09,-3.975820962143217e-05,0.6103153026862784,6.129737860760542e-05,-0.6128232608912118
622,0.6113,1039.08,1038.96,0.0657894,1.49281e-05,-0.109253,0.0996005,0.477051,0.477051,-0.950115,-4.50674e-09,-4.03668e-05,6.18082e-05,0.947193,0.6113156190553322,-4.5067399812026565e-09,-4.0365985271684224e-05,0.6113156190553322,6.181011016614946e-05,-0.613303449205969
623,0.6123,1039.34,1039.22,0.0677992,1.49495e-05,-0.108995,0.100171,0.477671,0.477671,-0.951355,-6.63712e-09,-4.09551e-05,6.23451e-05,0.948432,0.612314944498022,-6.637119964736371e-09,-4.0954261351311416e-05,0.612314944498022,6.234704349616926e-05,-0.6137826557594881
624,0.6133,1039.59,1039.47,0.0657128,1.49385e-05,-0.10954,0.0997629,0.478291,0.478291,-0.952594,-5.69647e-09,-4.15622e-05,6.28595e-05,0.949671,0.6133148897145964,-5.696469962401807e-09,-4.156133630373038e-05,0.6133148897145964,6.286147569967149e-05,-0.6142608827262183
625,0.6143,1039.85,1039.73,0.0673939,1.49573e-05,-0.109345,0.100255,0.478911,0.478911,-0.953832,-6.59404e-09,-4.21528e-05,6.33944e-05,0.950908,0.6143154550894341,-6.594039980711841e-09,-4.2151911583188095e-05,0.6143154550894341,6.339640946739777e-05,-0.6147381322749781
626,0.6153,1040.1,1039.98,0.065613,1.49487e-05,-0.109828,0.0999193,0.47953,0.47953,-0.95507,9.52449e-10,-4.27594e-05,6.39103e-05,0.952145,0.6153150256913196,9.524490085510706e-10,-4.275848582990793e-05,0.6153150256913196,6.391234230673781e-05,-0.6152147913543724
627,0.6163,1040.35,1040.23,0.0670127,1.49653e-05,-0.109687,0.100344,0.480149,0.480149,-0.956307,-7.84974e-09,-4.33521e-05,6.44435e-05,0.953381,0.6163152152189451,-7.84973996914573e-09,-4.335116031128905e-05,0.6163152152189451,6.444557652685035e-05,-0.6156904763856187
628,0.6173,1040.61,1040.49,0.0654931,1.49587e-05,-0.110117,0.10007,0.480767,0.480767,-0.957543,-6.52776e-09,-4.39583e-05,6.49607e-05,0.954617,0.6173144067403291,-6.527759999208627e-09,-4.395733384809919e-05,0.6173144067403291,6.496280999201964e-05,-0.616165189523652
629,0.6183,1040.86,1040.74,0.0666526,1.49734e-05,-0.110021,0.100437,0.481385,0.481385,-0.958778,-4.38468e-09,-4.45529e-05,6.54924e-05,0.955851,0.6183142159529205,-4.38467995245162e-09,-4.455190753427374e-05,0.6183142159529205,6.549454467408289e-05,-0.6166389329178306
630,0.6193,1041.11,1040.99,0.065356,1.49686e-05,-0.110406,0.100217,0.482003,0.482003,-0.960012,-4.3663e-09,-4.51589e-05,6.60106e-05,0.957085,0.6193146432385701,-4.366299988234346e-09,-4.515788035219792e-05,0.6193146432385701,6.60127787475151e-05,-0.6171117087119515
631,0.6203,1041.36,1041.24,0.0663108,1.49816e-05,-0.110349,0.100534,0.482621,0.482621,-0.961246,1.05432e-09,-4.57552e-05,6.65411e-05,0.958318,0.6203156889793651,1.054319964666206e-09,-4.575415324681309e-05,0.6203156889793651,6.654331390820722e-05,-0.6175839014605555
632,0.6213,1041.61,1041.5,0.0652041,1.49783e-05,-0.110696,0.100359,0.483237,0.483237,-0.962479,-6.4359e-09,-4.63612e-05,6.70602e-05,0.959551,0.6213141109261646,-6.435900035128839e-09,-4.6360125336208924e-05,0.6213141109261646,6.706244858545318e-05,-0.618055129937998
633,0.6223,1041.87,1041.75,0.0659851,1.49899e-05,-0.110671,0.100635,0.483854,0.483854,-0.963711,-4.31011e-09,-4.6959e-05,6.75895e-05,0.960782,0.6223147704043099,-4.310110046645832e-09,-4.695789744346701e-05,0.6223147704043099,6.759178422166556e-05,-0.6185253962743694
634,0.6233,1042.12,1042.0,0.0650397,1.49879e-05,-0.110984,0.100498,0.48447,0.48447,-0.964943,-4.29089e-09,-4.7565e-05,6.81093e-05,0.962013,0.6233144241646269,-4.290889976665824e-09,-4.7563868803335296e-05,0.6233144241646269,6.811161949094036e-05,-0.6189950835993587
635,0.6243,1042.37,1042.25,0.0656734,1.49983e-05,-0.110987,0.100738,0.485086,0.485086,-0.966173,-4.27154e-09,-4.81642e-05,6.86377e-05,0.963243,0.6243146939013613,-4.271540010591934e-09,-4.8163040123561096e-05,0.6243146939013613,6.864005562090547e-05,-0.6194634315534926
636,0.6253,1042.62,1042.5,0.0648646,1.49973e-05,-0.111272,0.100633,0.485702,0.485702,-0.967403,-5.44917e-09,-4.87703e-05,6.9158e-05,0.964472,0.6253155799940717,-5.449170004112602e-09,-4.876911074824797e-05,0.6253155799940717,6.916039146953601e-05,-0.6199312037937798
637,0.6263,1042.87,1042.75,0.0653739,1.50068e-05,-0.111298,0.100844,0.486317,0.486317,-0.968633,-4.23213e-09,-4.93708e-05,6.96855e-05,0.965701,0.6263154565062807,-4.232129979797605e-09,-4.936958128209934e-05,0.6263154565062807,6.968792809081137e-05,-0.6203984010279124
638,0.6273,1043.12,1043.0,0.0646806,1.50067e-05,-0.111559,0.100766,0.486931,0.486931,-0.969861,1.20426e-09,-4.99771e-05,7.02063e-05,0.966929,0.6273143208165382,1.204260025033932e-09,-4.9975851165506846e-05,0.6273143208165382,7.020876451990787e-05,-0.6208642656920034
639,0.6283,1043.36,1043.25,0.0650849,1.50153e-05,-0.111604,0.100951,0.487546,0.487546,-0.971089,-5.38226e-09,-5.05788e-05,7.07331e-05,0.968156,0.6283154269324174,-5.382259971042913e-09,-5.057752091408574e-05,0.6283154269324174,7.073560164472248e-05,-0.6213295586254013
640,0.6293,1043.61,1043.49,0.0644891,1.50159e-05,-0.111844,0.100897,0.48816,0.48816,-0.972316,1.24863e-09,-5.11854e-05,7.12543e-05,0.969382,0.629315519601584,1.2486300882130763e-09,-5.118409004978286e-05,0.629315519601584,7.125683864783738e-05,-0.6217939023238521
641,0.6303,1043.86,1043.74,0.0648052,1.50238e-05,-0.111905,0.101061,0.488773,0.488773,-0.973542,-5.33656e-09,-5.17882e-05,7.17804e-05,0.970607,0.6303145962007923,-5.33655997170257e-09,-5.1786859014302244e-05,0.6303145962007923,7.178297627463692e-05,-0.6222572988794711
642,0.6313,1044.11,1043.99,0.0642913,1.50251e-05,-0.112128,0.101026,0.489386,0.489386,-0.974767,1.29367e-09,-5.2395e-05,7.23018e-05,0.971832,0.6313142854217053,1.2936700599652795e-09,-5.239362740594444e-05,0.6313142854217053,7.230441383820896e-05,-0.6227197503789699
643,0.6323,1044.35,1044.24,0.0645335,1.50324e-05,-0.112202,0.101171,0.489999,0.489999,-0.975992,1.31643e-09,-5.29988e-05,7.28274e-05,0.973056,0.6323145876399752,1.316430076059305e-09,-5.299739558839445e-05,0.6323145876399752,7.283005197944448e-05,-0.6231816357222231
644,0.6333,1044.6,1044.48,0.0640885,1.50342e-05,-0.11241,0.101152,0.490612,0.490612,-0.977216,-5.26638e-09,-5.3606e-05,7.3349e-05,0.974279,0.6333155032314846,-5.2663799987584525e-09,-5.360456322400786e-05,0.6333155032314846,7.335169010369569e-05,-0.6236425792451152
645,0.6343,1044.85,1044.73,0.0642688,1.50409e-05,-0.112494,0.101283,0.491224,0.491224,-0.978439,-4.06612e-09,-5.42107e-05,7.3874e-05,0.975502,0.6343153982561309,-4.0661199962599426e-09,-5.420923062660066e-05,0.6343153982561309,7.387672875114326e-05,-0.6241025830210527
646,0.6353,1045.09,1044.97,0.0638814,1.50432e-05,-0.11269,0.101278,0.491835,0.491835,-0.979662,-4.04443e-09,-5.48183e-05,7.43958e-05,0.976724,0.6353142700887353,-4.044430013117051e-09,-5.481679750440893e-05,0.6353142700887353,7.439856743607365e-05,-0.6245620245562524
647,0.6363,1045.34,1045.22,0.0640101,1.50495e-05,-0.112783,0.101396,0.492447,0.492447,-0.980883,1.40918e-09,-5.54239e-05,7.49203e-05,0.977945,0.6363153887330879,1.409180105937935e-09,-5.5422364124035894e-05,0.6363153887330879,7.492310659573675e-05,-0.6250201545789738
648,0.6373,1045.58,1045.46,0.063671,1.50521e-05,-0.112968,0.101402,0.493058,0.493058,-0.982104,-4.00045e-09,-5.60319e-05,7.54422e-05,0.979165,0.637315482933269,-4.000449971286457e-09,-5.6030330242373694e-05,0.637315482933269,7.544504583423262e-05,-0.625477725566298
649,0.6383,1045.83,1045.71,0.0637568,1.50581e-05,-0.113068,0.101509,0.493668,0.493668,-0.983324,-5.14502e-09,-5.66383e-05,7.59663e-05,0.980385,0.6383145500623533,-5.145019965624442e-09,-5.663669608180211e-05,0.6383145500623533,7.596918551233678e-05,-0.6259343641349419
650,0.6393,1046.07,1045.95,0.0634579,1.5061e-05,-0.113243,0.101524,0.494278,0.494278,-0.984544,-5.12011e-09,-5.72467e-05,7.64882e-05,0.981603,0.6393142268083005,-5.12011000264323e-09,-5.7245061438893075e-05,0.6393142268083005,7.649112529706237e-05,-0.6263904459442242
651,0.6403,1046.32,1046.2,0.0635081,1.50666e-05,-0.113349,0.101623,0.494888,0.494888,-0.985763,1.50455e-09,-5.78538e-05,7.7012e-05,0.982821,0.6403145135430905,1.5045500401100753e-09,-5.785212650122329e-05,0.6403145135430905,7.70149655002772e-05,-0.6268455985187624
652,0.6413,1046.56,1046.44,0.0632427,1.50698e-05,-0.113516,0.101646,0.495498,0.495498,-0.986981,-3.91006e-09,-5.84627e-05,7.75339e-05,0.984039,0.6413154106389298,-3.9100600535135754e-09,-5.8460991089637204e-05,0.6413154106389298,7.753690583056638e-05,-0.6272998239003547
653,0.6423,1046.8,1046.68,0.0632635,1.50752e-05,-0.113627,0.101737,0.496107,0.496107,-0.988198,1.55321e-09,-5.90705e-05,7.80573e-05,0.985255,0.6423152761521551,1.5532100050563713e-09,-5.9068755372315707e-05,0.6423152761521551,7.806034655022387e-05,-0.6277531241255327
654,0.6433,1047.05,1046.93,0.063026,1.50785e-05,-0.113787,0.101767,0.496715,0.496715,-0.989414,1.57779e-09,-5.96798e-05,7.85791e-05,0.986471,0.6433141074540021,1.5777898987323624e-09,-5.967801919615212e-05,0.6433141074540021,7.858218741829681e-05,-0.6282055012255768
655,0.6443,1047.29,1047.17,0.0630226,1.50837e-05,-0.113901,0.101852,0.497324,0.497324,-0.99063,-5.83699e-09,-6.02883e-05,7.91022e-05,0.987686,0.6443151905443023,-5.836990002450193e-09,-6.0286482696958466e-05,0.6443151905443023,7.910532866151065e-05,-0.6286573285693867
656,0.6453,1047.53,1047.41,0.0628081,1.50872e-05,-0.114055,0.101887,0.497932,0.497932,-0.991845,1.62741e-09,-6.08981e-05,7.9624e-05,0.988901,0.6453152381638227,1.6274099845503542e-09,-6.089624574834307e-05,0.6453152381638227,7.962717007492515e-05,-0.6291082359334812
657,0.6463,1047.77,1047.65,0.0627848,1.50922e-05,-0.114172,0.101967,0.498539,0.498539,-0.993059,1.65246e-09,-6.15072e-05,8.01468e-05,0.990114,0.6463142476821033,1.6524599466549716e-09,-6.150530847093272e-05,0.6463142476821033,8.015001184058512e-05,-0.6295582253362244
658,0.6473,1048.01,1047.89,0.0625895,1.50958e-05,-0.114321,0.102006,0.499147,0.499147,-0.994273,-3.76844e-09,-6.21174e-05,8.06685e-05,0.991327,0.6473155110979283,-3.7684400044923905e-09,-6.211547075429813e-05,0.6473155110979283,8.06717537908952e-05,-0.6300076687832948
659,0.6483,1048.25,1048.13,0.0625498,1.51007e-05,-0.114439,0.102082,0.499753,0.499753,-0.995486,-3.74415e-09,-6.27271e-05,8.1191e-05,0.992539,0.6483140868355426,-3.744149990048129e-09,-6.272513269656166e-05,0.6483140868355426,8.119429607833517e-05,-0.6304561973934627
660,0.6493,1048.49,1048.37,0.0623704,1.51044e-05,-0.114585,0.102124,0.50036,0.50036,-0.996698,1.72855e-09,-6.33377e-05,8.17126e-05,0.993751,0.6493149172075401,1.7285499698260764e-09,-6.333569421024254e-05,0.6493149172075401,8.171593856554082e-05,-0.6309038131722664
661,0.6503,1048.73,1048.61,0.0623175,1.51091e-05,-0.114704,0.102197,0.500966,0.500966,-0.997909,-3.69496e-09,-6.3948e-05,8.22348e-05,0.994961,0.6503147049524582,-3.694960004629877e-09,-6.394595537018155e-05,0.6503147049524582,8.223818137387262e-05,-0.6313505181200769
662,0.6513,1048.97,1048.85,0.0621511,1.51129e-05,-0.114845,0.102242,0.501572,0.501572,-0.99912,1.78007e-09,-6.45591e-05,8.27563e-05,0.996171,0.6513150987523657,1.7800700913284118e-09,-6.455701610619258e-05,0.6513150987523657,8.275972439708568e-05,-0.6317966824356147
663,0.6523,1049.21,1049.09,0.0620874,1.51175e-05,-0.114966,0.102312,0.502177,0.502177,-1.00033,1.80606e-09,-6.51699e-05,8.32783e-05,0.997381,0.6523144466593704,1.8060599682456768e-09,-6.516777648823968e-05,0.6523144466593704,8.328176773386708e-05,-0.6322419390153119
664,0.6533,1049.45,1049.33,0.0619319,1.51214e-05,-0.115103,0.102359,0.502782,0.502782,-1.00154,1.83221e-09,-6.57814e-05,8.37996e-05,0.998589,0.653314399354789,1.8322099393230928e-09,-6.577923645112449e-05,0.653314399354789,8.380311128464157e-05,-0.6326866571603664
665,0.6543,1049.69,1049.57,0.0618594,1.51259e-05,-0.115224,0.102427,0.503387,0.503387,-1.00275,1.85851e-09,-6.63927e-05,8.43214e-05,0.999797,0.6543149572046294,1.8585100125534382e-09,-6.639049605350333e-05,0.6543149572046294,8.432495514920646e-05,-0.6331308375218898
666,0.6553,1049.93,1049.81,0.0617128,1.51298e-05,-0.115359,0.102476,0.503991,0.503991,-1.00395,-4.69285e-09,-6.70047e-05,8.48426e-05,1.001,0.6553144652598271,-4.692849997489645e-09,-6.700245523527659e-05,0.6553144652598271,8.484619923510017e-05,-0.6335708164766931
667,0.6563,1050.17,1050.05,0.0616333,1.51342e-05,-0.11548,0.102541,0.504595,0.504595,-1.00516,-5.47874e-09,-6.76165e-05,8.53641e-05,1.00221,0.6563145772002454,-5.478740017217376e-09,-6.761421405598877e-05,0.6563145772002454,8.536774361855848e-05,-0.6340139276524319
668,0.6573,1050.4,1050.28,0.0614941,1.51381e-05,-0.115612,0.102592,0.505199,0.505199,-1.00637,-6.07014e-09,-6.82288e-05,8.58851e-05,1.00342,0.6573152933907407,-6.070139946245945e-09,-6.82264724684023e-05,0.6573152933907407,8.588878823068136e-05,-0.6344565029878966
669,0.6583,1050.64,1050.52,0.0614089,1.51424e-05,-0.115733,0.102656,0.505802,0.505802,-1.00757,-4.60686e-09,-6.88411e-05,8.64064e-05,1.00462,0.6583149558806054,-4.606860004585656e-09,-6.883873050589351e-05,0.6583149558806054,8.641013314059087e-05,-0.6348948920982382
670,0.6593,1050.88,1050.76,0.0612758,1.51464e-05,-0.115862,0.102708,0.506405,0.506405,-1.00878,1.99231e-09,-6.94538e-05,8.69273e-05,1.00582,0.6593152213487314,1.9923100946783734e-09,-6.94513881406289e-05,0.6593152213487314,8.693107828716684e-05,-0.6353364021113734
671,0.6603,1051.11,1050.99,0.0611862,1.51507e-05,-0.115982,0.102771,0.507007,0.507007,-1.00998,-4.54854e-09,-7.00665e-05,8.74483e-05,1.00703,0.6603144298435637,-4.548539989102096e-09,-7.006404540010891e-05,0.6603144298435637,8.745212371397137e-05,-0.635773735976041
672,0.6613,1051.35,1051.23,0.0610582,1.51546e-05,-0.11611,0.102824,0.507609,0.507609,-1.01119,-5.32063e-09,-7.06796e-05,8.7969e-05,1.00823,0.661314240043005,-5.320630047656039e-09,-7.067710225594492e-05,0.661314240043005,8.797286938588833e-05,-0.6362141832311824
673,0.6623,1051.58,1051.46,0.060965,1.51588e-05,-0.11623,0.102885,0.508211,0.508211,-1.01239,2.07441e-09,-7.12928e-05,8.84898e-05,1.00943,0.6623146523093904,2.074409977126379e-09,-7.129025872876227e-05,0.6623146523093904,8.849371533781181e-05,-0.6366504643902557
674,0.6633,1051.82,1051.7,0.0608412,1.51628e-05,-0.116355,0.102939,0.508813,0.508813,-1.01359,-5.86456e-09,-7.19063e-05,8.90104e-05,1.01063,0.6633156670052731,-5.864559948776105e-09,-7.190371480392255e-05,0.6633156670052731,8.901436154329367e-05,-0.637086222325935
675,0.6643,1052.05,1051.93,0.0607453,1.51669e-05,-0.116474,0.102999,0.509414,0.509414,-1.01479,2.12989e-09,-7.25198e-05,8.95309e-05,1.01183,0.6643156201769727,2.1298900421129474e-09,-7.251717050282824e-05,0.6643156201769727,8.953490801055786e-05,-0.6375214576657119
676,0.6653,1052.29,1052.17,0.0606249,1.51709e-05,-0.116597,0.103053,0.510014,0.510014,-1.01599,2.15785e-09,-7.31337e-05,9.00513e-05,1.01303,0.6653145091858148,2.1578498987651074e-09,-7.313102579620256e-05,0.6653145091858148,9.005535474004844e-05,-0.6379561710363251
677,0.6663,1052.52,1052.4,0.0605269,1.5175e-05,-0.116716,0.103113,0.510615,0.510615,-1.01719,2.18596e-09,-7.37476e-05,9.05717e-05,1.01423,0.6663156640227292,2.1859600796148015e-09,-7.374488071254515e-05,0.6663156640227292,9.05758017402114e-05,-0.638390363063762
678,0.6673,1052.76,1052.64,0.0604094,1.5179e-05,-0.116837,0.103167,0.511214,0.511214,-1.01839,2.21422e-09,-7.43618e-05,9.10918e-05,1.01543,0.6673140861030389,2.214219918528215e-09,-7.43590352298984e-05,0.6673140861030389,9.109594898393247e-05,-0.6388240343732592
679,0.6683,1052.99,1052.87,0.0603098,1.5183e-05,-0.116955,0.103226,0.511814,0.511814,-1.01959,2.24262e-09,-7.49761e-05,9.1612e-05,1.01663,0.6683147747312685,2.2426200896319415e-09,-7.497328936245662e-05,0.6683147747312685,9.161619650743802e-05,-0.6392571855893034
680,0.6693,1053.22,1053.1,0.0601947,1.5187e-05,-0.117074,0.103281,0.512413,0.512413,-1.02079,-4.27627e-09,-7.55906e-05,9.21319e-05,1.01783,0.6693143946376059,-4.276270004766047e-09,-7.558774310256755e-05,0.6693143946376059,9.213614427383554e-05,-0.6396898173356327
681,0.6703,1053.46,1053.34,0.0600939,1.5191e-05,-0.117191,0.103339,0.513012,0.513012,-1.02198,-4.24503e-09,-7.62052e-05,9.26519e-05,1.01902,0.6703146134956353,-4.245029994187632e-09,-7.620229645755039e-05,0.6703146134956353,9.26561923197955e-05,-0.6401183314365451
682,0.6713,1053.69,1053.57,0.0599809,1.51949e-05,-0.117309,0.103395,0.513611,0.513611,-1.02318,-4.9893e-09,-7.68201e-05,9.31716e-05,1.02022,0.671315431664236,-4.989299973168215e-09,-7.681714941165652e-05,0.671315431664236,9.317594060842538e-05,-0.6405499304276346
683,0.6723,1053.92,1053.8,0.0598793,1.51989e-05,-0.117425,0.103452,0.514209,0.514209,-1.02437,-4.95509e-09,-7.7435e-05,9.36913e-05,1.02141,0.6723151771864897,-4.9550900049766256e-09,-7.74320019877317e-05,0.6723151771864897,9.369568916683946e-05,-0.6409774216027291
684,0.6733,1054.15,1054.03,0.059768,1.52028e-05,-0.117541,0.103508,0.514807,0.514807,-1.02557,-4.92067e-09,-7.80502e-05,9.42109e-05,1.02261,0.6733155207353576,-4.920669982588777e-09,-7.804715416237507e-05,0.6733155207353576,9.421533798614767e-05,-0.6414079903039169
685,0.6743,1054.38,1054.26,0.0596658,1.52067e-05,-0.117656,0.103565,0.515404,0.515404,-1.02676,-5.46899e-09,-7.86655e-05,9.47304e-05,1.0238,0.6743147883529415,-5.468990038615118e-09,-7.866240595066909e-05,0.6743147883529415,9.473488706612798e-05,-0.6418344609950668
686,0.6753,1054.61,1054.49,0.059556,1.52106e-05,-0.117771,0.10362,0.516001,0.516001,-1.02796,2.4455e-09,-7.92809e-05,9.52497e-05,1.02499,0.6753146527114025,2.4455000247058933e-09,-7.927775735250275e-05,0.6753146527114025,9.52542363967801e-05,-0.6422640018658055
687,0.6763,1054.84,1054.72,0.0594534,1.52145e-05,-0.117884,0.103677,0.516598,0.516598,-1.02915,-4.05362e-09,-7.98965e-05,9.5769e-05,1.02619,0.6763151141671013,-4.053619995225688e-09,-7.989330835966868e-05,0.6763151141671013,9.577358599699437e-05,-0.6426894545090555
688,0.6773,1055.07,1054.95,0.0593449,1.52184e-05,-0.117998,0.103733,0.517194,0.517194,-1.03034,2.50475e-09,-8.05122e-05,9.62882e-05,1.02738,0.6773144957612769,2.504749962994879e-09,-8.050895897981913e-05,0.6773144957612769,9.629283585743664e-05,-0.6431144011647822
689,0.6783,1055.3,1055.18,0.0592421,1.52222e-05,-0.11811,0.103789,0.51779,0.51779,-1.03153,-2.92618e-09,-8.11281e-05,9.68072e-05,1.02857,0.678314473164416,-2.926179965001552e-09,-8.112480920463572e-05,0.678314473164416,9.681188596810664e-05,-0.643538842434753
690,0.6793,1055.53,1055.41,0.0591348,1.5226e-05,-0.118223,0.103845,0.518386,0.518386,-1.03272,-2.89605e-09,-8.17441e-05,9.73261e-05,1.02976,0.6793150467317268,-2.896049955403157e-09,-8.174075904210376e-05,0.6793150467317268,9.733083633856054e-05,-0.6439627789200189
691,0.6803,1055.76,1055.64,0.059032,1.52299e-05,-0.118334,0.103901,0.518981,0.518981,-1.03391,-4.67441e-09,-8.23602e-05,9.7845e-05,1.03095,0.6803145365032521,-4.674409970206739e-09,-8.23568084918902e-05,0.6803145365032521,9.784978697813251e-05,-0.6443862112209164
692,0.6813,1055.99,1055.87,0.0589256,1.52337e-05,-0.118445,0.103956,0.519576,0.519576,-1.0351,-2.83524e-09,-8.29764e-05,9.83637e-05,1.03213,0.6813146211481489,-2.835240042742271e-09,-8.297295755377299e-05,0.6813146211481489,9.836853786726607e-05,-0.6448091399370682
693,0.6823,1056.22,1056.1,0.0588229,1.52375e-05,-0.118555,0.104013,0.520171,0.520171,-1.03629,-2.80457e-09,-8.35928e-05,9.88823e-05,1.03332,0.6823153010204721,-2.8045700206646984e-09,-8.358930621921168e-05,0.6823153010204721,9.888718901573945e-05,-0.6452315656673839
694,0.6833,1056.45,1056.33,0.0587174,1.52413e-05,-0.118665,0.104068,0.520765,0.520765,-1.03748,2.68587e-09,-8.42093e-05,9.94008e-05,1.03451,0.6833148931587523,2.6858699708753875e-09,-8.420575449641365e-05,0.6833148931587523,9.940574042310857e-05,-0.6456534890100603
695,0.6843,1056.67,1056.55,0.0586148,1.5245e-05,-0.118774,0.104124,0.521359,0.521359,-1.03866,-2.74269e-09,-8.48258e-05,9.99192e-05,1.0357,0.6843150792311434,-2.742689964030376e-09,-8.482220239358629e-05,0.6843150792311434,9.992419208959546e-05,-0.6460713712939927
696,0.6853,1056.9,1056.78,0.0585101,1.52488e-05,-0.118882,0.104179,0.521952,0.521952,-1.03985,2.74735e-09,-8.54425e-05,0.000100438,1.03688,0.6853141742755307,2.747349903131635e-09,-8.543884989353767e-05,0.6853141742755307,0.00010044304406475746,-0.646492295862362
697,0.6863,1057.13,1057.01,0.0584077,1.52525e-05,-0.11899,0.104234,0.522546,0.522546,-1.04104,2.77829e-09,-8.60593e-05,0.000100956,1.03807,0.6863155482736842,2.7782900424710988e-09,-8.605559700469723e-05,0.6863155482736842,0.00010096109622836913,-0.6469127198284125
698,0.6873,1057.35,1057.24,0.0583038,1.52562e-05,-0.119097,0.104289,0.523138,0.523138,-1.04222,2.80938e-09,-8.66763e-05,0.000101474,1.03925,0.6873141426330285,2.809380061918887e-09,-8.667254371808042e-05,0.6873141426330285,0.00010147914866043273,-0.6473291170963109
699,0.6883,1057.58,1057.46,0.0582017,1.52599e-05,-0.119204,0.104345,0.523731,0.523731,-1.0434,2.84059e-09,-8.72933e-05,0.000101992,1.04043,0.6883150166494258,2.8405899854533345e-09,-8.728949005076814e-05,0.6883150166494258,0.00010199720136094825,-0.6477450233052151
700,0.6893,1057.81,1057.69,0.0580985,1.52636e-05,-0.11931,0.1044,0.524323,0.524323,-1.04459,-3.61575e-09,-8.79104e-05,0.00010251,1.04162,0.6893147950444884,-3.6157500327149705e-09,-8.790653599399789e-05,0.6893147950444884,0.00010251525432969366,-0.6481639574122504
701,0.6903,1058.03,1057.91,0.0579967,1.52673e-05,-0.119415,0.104455,0.524915,0.524915,-1.04577,-2.55287e-09,-8.85276e-05,0.000103027,1.0428,0.6903151654835888,-2.5528700264842996e-09,-8.852368154765866e-05,0.6903151654835888,0.00010303230746355752,-0.6485788790905691
702,0.6913,1058.26,1058.14,0.0578941,1.52709e-05,-0.11952,0.10451,0.525506,0.525506,-1.04695,2.93505e-09,-8.91449e-05,0.000103545,1.04398,0.6913144370020377,2.935049980834492e-09,-8.914092671141738e-05,0.6913144370020377,0.00010355036096854064,-0.6489933114500621
703,0.6923,1058.48,1058.36,0.0577927,1.52745e-05,-0.119624,0.104564,0.526097,0.526097,-1.04813,-3.51032e-09,-8.97622e-05,0.000104062,1.04516,0.6923142992645017,-3.5103200346497943e-09,-8.975817149425858e-05,0.6923142992645017,0.00010406741463775404,-0.6494072550677854
704,0.6933,1058.71,1058.59,0.0576906,1.52782e-05,-0.119728,0.104619,0.526688,0.526688,-1.04931,-2.45561e-09,-9.03797e-05,0.00010458,1.04634,0.6933147526202137,-2.4556100486350374e-09,-9.037561587799114e-05,0.6933147526202137,0.00010458546867875285,-0.6498207105201139
705,0.6943,1058.93,1058.81,0.0575896,1.52818e-05,-0.119831,0.104674,0.527278,0.527278,-1.05049,-3.43914e-09,-9.09972e-05,0.000105097,1.04752,0.6943141031036628,-3.439139972805094e-09,-9.09930598803621e-05,0.6943141031036628,0.00010510252288309374,-0.6502336783827432
706,0.6953,1059.16,1059.04,0.0574882,1.52853e-05,-0.119933,0.104728,0.527869,0.527869,-1.05167,3.06286e-09,-9.16148e-05,0.000105614,1.0487,0.6953157386927593,3.0628599656523647e-09,-9.161060349238692e-05,0.6953157386927593,0.00010561957735477634,-0.6506461592306897
707,0.6963,1059.38,1059.26,0.0573875,1.52889e-05,-0.120035,0.104783,0.528458,0.528458,-1.05285,3.09514e-09,-9.22325e-05,0.000106131,1.04988,0.6963145737909091,3.095139922137946e-09,-9.222824671373253e-05,0.6963145737909091,0.00010613663209380064,-0.6510581536382919
708,0.6973,1059.6,1059.48,0.0572866,1.52924e-05,-0.120137,0.104837,0.529048,0.529048,-1.05403,3.12755e-09,-9.28502e-05,0.000106648,1.05105,0.6973156946910706,3.1275499967620135e-09,-9.284588955360551e-05,0.6973156946910706,0.00010665368710016665,-0.6514696621792109
709,0.6983,1059.83,1059.71,0.0571864,1.5296e-05,-0.120237,0.104891,0.529637,0.529637,-1.05521,-3.99938e-09,-9.3468e-05,0.000107165,1.05223,0.6983157081102851,-3.999380049357626e-09,-9.346363200257723e-05,0.6983157081102851,0.00010717074237365232,-0.6518806854264312
710,0.6993,1060.05,1059.93,0.0570861,1.52995e-05,-0.120338,0.104946,0.530225,0.530225,-1.05638,3.19276e-09,-9.40859e-05,0.000107682,1.05341,0.6993146113954394,3.1927600563363967e-09,-9.408147406053669e-05,0.6993146113954394,0.00010768779791470173,-0.6522877468471155
711,0.7003,1060.27,1060.15,0.0569863,1.5303e-05,-0.120437,0.105,0.530813,0.530813,-1.05756,3.22556e-09,-9.47038e-05,0.000108198,1.05458,0.7003141022084416,3.2255600412867125e-09,-9.469931573669044e-05,0.7003141022084416,0.00010820385361465235,-0.6526978053237543
712,0.7013,1060.49,1060.37,0.0568864,1.53065e-05,-0.120536,0.105054,0.531401,0.531401,-1.05873,3.25849e-09,-9.53218e-05,0.000108715,1.05576,0.7013141808948598,3.2584899223309094e-09,-9.531725702160987e-05,0.7013141808948598,0.00010872090968971904,-0.6531039112732185
713,0.7023,1060.71,1060.59,0.0567198,1.46086e-05,-0.120644,0.105119,0.531989,0.531989,-1.05991,3.29154e-09,-9.59398e-05,0.000109231,1.05693,0.702314847800465,3.2915399295063708e-09,-9.593519792461258e-05,0.702314847800465,0.00010923696592279875,-0.6535130072438247
714,0.7033,1060.93,1060.82,0.0567009,1.40568e-05,-0.12073,0.105167,0.532576,0.532576,-1.06108,3.3247e-09,-9.65574e-05,0.000109747,1.0581,0.7033143999559803,3.324700070805875e-09,-9.655273848430124e-05,0.7033143999559803,0.00010975302242233198,-0.6539181599647899
715,0.7043,1061.16,1061.04,0.0565672,1.36253e-05,-0.120836,0.10521,0.533163,0.533163,-1.06226,3.35799e-09,-9.71755e-05,0.000110262,1.05927,0.7043145390208518,3.3579901081992602e-09,-9.717077861404189e-05,0.7043145390208518,0.00011026807907765779,-0.654326295688597
716,0.7053,1061.38,1061.26,0.056507,1.3288e-05,-0.120925,0.105274,0.53375,0.53375,-1.06343,3.39141e-09,-9.77933e-05,0.000110778,1.06045,0.7053152653396966,3.3914100416865267e-09,-9.778851839115088e-05,0.7053152653396966,0.0001107841361092099,-0.6547304974185202
717,0.7063,1061.6,1061.48,0.0563762,1.3024e-05,-0.121028,0.105321,0.534336,0.534336,-1.0646,-2.99749e-09,-9.84114e-05,0.000111294,1.06162,0.706314872941608,-2.9974900339624355e-09,-9.840655775705809e-05,0.706314872941608,0.00011130019340699349,-0.655134226508967
718,0.7073,1061.82,1061.7,0.0563065,1.28187e-05,-0.121119,0.105382,0.534922,0.534922,-1.06577,3.45862e-09,-9.90293e-05,0.000111809,1.06279,0.7073150664852383,3.4586200570174697e-09,-9.902439676068298e-05,0.7073150664852383,0.00011181525085923738,-0.655537483512603
719,0.7083,1062.04,1061.92,0.0561837,1.26589e-05,-0.121219,0.105429,0.535507,0.535507,-1.06694,3.49242e-09,-9.96475e-05,0.000112324,1.06396,0.7083141379990576,3.492419908823763e-09,-9.964253535277301e-05,0.7083141379990576,0.00011233030857660253,-0.6559402689814462
720,0.7093,1062.26,1062.14,0.0561075,1.25358e-05,-0.12131,0.105488,0.536093,0.536093,-1.06811,-1.91145e-09,-0.000100265,0.00011284,1.06513,0.7093155034553484,-1.9114499982819666e-09,-0.00010025997363283246,0.7093155034553484,0.00011284636667219239,-0.6563425834668699
721,0.7103,1062.47,1062.35,0.0559911,1.2441e-05,-0.121408,0.105537,0.536677,0.536677,-1.06928,3.56038e-09,-0.000100884,0.000113355,1.06629,0.7103140352522712,3.5603799908301426e-09,-0.00010087891138044203,0.7103140352522712,0.00011336142492068824,-0.6567444275196024
722,0.7113,1062.69,1062.57,0.0559101,1.2369e-05,-0.121499,0.105595,0.537262,0.537262,-1.07045,3.59455e-09,-0.000101502,0.00011387,1.06746,0.7113148616760807,3.5945499909928458e-09,-0.00010149684884630528,0.7113148616760807,0.00011387648343452739,-0.6571458016897282
723,0.7123,1062.91,1062.79,0.0557987,1.23147e-05,-0.121595,0.105645,0.537846,0.537846,-1.07161,-3.43527e-09,-0.00010212,0.000114385,1.06863,0.7123145614392175,-3.435269957385856e-09,-0.0001021147859302518,0.7123145614392175,0.0001143915422134878,-0.6575432819766309
724,0.7133,1063.13,1063.01,0.0557142,1.22747e-05,-0.121685,0.105701,0.53843,0.53843,-1.07278,-2.72864e-09,-0.000102738,0.000114899,1.0698,0.713314845197526,-2.728639980631442e-09,-0.00010273272263239264,0.713314845197526,0.0001149056011429117,-0.6579437220336048
725,0.7143,1063.35,1063.23,0.0556067,1.22456e-05,-0.12178,0.105752,0.539014,0.539014,-1.07395,3.69778e-09,-0.000103356,0.000115414,1.07096,0.7143157132921589,3.6977800821347273e-09,-0.00010335065895261675,0.7143157132921589,0.00011542066045189259,-0.6583436938496863
726,0.7153,1063.56,1063.44,0.0555196,1.22254e-05,-0.12187,0.105807,0.539597,0.539597,-1.07511,3.73244e-09,-0.000103975,0.000115928,1.07213,0.71531545074816,3.732439912695895e-09,-0.00010396959478697898,0.71531545074816,0.00011593471991022675,-0.6587397853873137
727,0.7163,1063.78,1063.66,0.0554152,1.2212e-05,-0.121963,0.105858,0.540179,0.540179,-1.07628,-1.66028e-09,-0.000104593,0.000116443,1.07329,0.7163140549061178,-1.6602800245735239e-09,-0.00010458753034292556,0.7163140549061178,0.0001164497797492281,-0.6591388263539244
728,0.7173,1064.0,1063.88,0.0553263,1.22042e-05,-0.122052,0.105913,0.540762,0.540762,-1.07744,3.80211e-09,-0.000105211,0.000116957,1.07445,0.7173149577349531,3.8021099602048025e-09,-0.0001052054655168444,0.7173149577349531,0.00011696383973647251,-0.6595339960726054
729,0.7183,1064.21,1064.09,0.0552243,1.22006e-05,-0.122143,0.105964,0.541344,0.541344,-1.07861,-1.58709e-09,-0.000105829,0.000117471,1.07562,0.7183147259446834,-1.5870900149650424e-09,-0.00010582340030895754,0.7183147259446834,0.00011747789998817204,-0.6599321083561001
730,0.7193,1064.43,1064.31,0.0551341,1.22004e-05,-0.122232,0.106018,0.541926,0.541926,-1.07977,-2.49177e-09,-0.000106447,0.000117985,1.07678,0.7193150761888674,-2.4917700125470787e-09,-0.00010644133471915396,0.7193150761888674,0.00011799196050388261,-0.6603263584011722
731,0.7203,1064.65,1064.53,0.0550341,1.22029e-05,-0.122322,0.10607,0.542507,0.542507,-1.08093,3.90751e-09,-0.000107066,0.000118499,1.07794,0.720314288491199,3.907510093270616e-09,-0.00010706026864037987,0.720314288491199,0.00011850602128382626,-0.660720151381341
732,0.7213,1064.86,1064.74,0.0549431,1.22075e-05,-0.12241,0.106123,0.543088,0.543088,-1.08209,-3.05553e-09,-0.000107684,0.000119013,1.0791,0.7213140815045584,-3.0555300511991845e-09,-0.00010767820228618774,0.7213140815045584,0.00011902008232800299,-0.6611134878264944
733,0.7223,1065.08,1064.96,0.0548447,1.22138e-05,-0.122499,0.106175,0.543669,0.543669,-1.08325,3.97836e-09,-0.000108302,0.000119526,1.08026,0.7223144555664369,3.978360085810095e-09,-0.00010829613555007889,0.7223144555664369,0.00011953314351687006,-0.6615063682659057
734,0.7233,1065.29,1065.17,0.054753,1.22213e-05,-0.122586,0.106228,0.54425,0.54425,-1.08441,4.01397e-09,-0.00010892,0.00012004,1.08142,0.7233154110145219,4.0139700452357374e-09,-0.00010891406843216433,0.7233154110145219,0.00012004720508906885,-0.6618987932282352
735,0.7243,1065.51,1065.39,0.054656,1.22299e-05,-0.122674,0.10628,0.54483,0.54483,-1.08557,-1.36376e-09,-0.000109539,0.000120553,1.08258,0.7243152238706105,-1.3637599938221001e-09,-0.00010953300082283679,0.7243152238706105,0.00012056026680484777,-0.6622907632415298
736,0.7253,1065.72,1065.6,0.054564,1.22392e-05,-0.12276,0.106333,0.54541,0.54541,-1.08673,4.08553e-09,-0.000110157,0.000121067,1.08374,0.7253156167863566,4.085529914377162e-09,-0.00011015093294042266,0.7253156167863566,0.00012107432890506864,-0.6626822788332245
737,0.7263,1065.93,1065.81,0.054468,1.22492e-05,-0.122846,0.106384,0.545989,0.545989,-1.08789,4.12148e-09,-0.000110775,0.00012158,1.0849,0.7263148637825656,4.121480046137549e-09,-0.00011076886467620284,0.7263148637825656,0.0001215873911477594,-0.6630733405301428
738,0.7273,1066.15,1066.03,0.0543759,1.22596e-05,-0.122932,0.106436,0.546568,0.546568,-1.08905,4.15754e-09,-0.000111393,0.000122093,1.08605,0.7273146895103122,4.157540089977374e-09,-0.00011138679603017732,0.7273146895103122,0.00012210045365357303,-0.6634639488584971
739,0.7283,1066.36,1066.24,0.0542809,1.22704e-05,-0.123017,0.106488,0.547147,0.547147,-1.0902,4.19373e-09,-0.000112011,0.000122606,1.08721,0.7283150943047785,4.19373002991108e-09,-0.00011200472700212405,0.7283150943047785,0.00012261351642273155,-0.6638507428681264
740,0.7293,1066.57,1066.45,0.0541888,1.22815e-05,-0.123102,0.10654,0.547725,0.547725,-1.09136,-2.08423e-09,-0.000112629,0.000123118,1.08836,0.7293143491861278,-2.084230010801491e-09,-0.00011262265759226509,0.7293143491861278,0.00012312557933191748,-0.6642404499326029
741,0.7303,1066.79,1066.67,0.0540946,1.22927e-05,-0.123186,0.106592,0.548303,0.548303,-1.09251,4.26643e-09,-0.000113247,0.000123631,1.08952,0.7303141818037482,4.266430098098795e-09,-0.00011324058780060042,0.7303141818037482,0.00012363864262709967,-0.6646263514792614
742,0.7313,1067.0,1066.88,0.0540026,1.23042e-05,-0.12327,0.106643,0.548881,0.548881,-1.09367,-2.00086e-09,-0.000113865,0.000124143,1.09067,0.7313145924916677,-2.000860033213314e-09,-0.00011385851762690802,0.7313145924916677,0.00012415070606119905,-0.6650151593593767
743,0.7323,1067.21,1067.09,0.0539091,1.23157e-05,-0.123353,0.106695,0.549459,0.549459,-1.09482,4.33959e-09,-0.000114483,0.000124656,1.09183,0.7323155815841078,4.339590020663309e-09,-0.00011447644707140991,0.7323155815841078,0.00012466376988196082,-0.6654001705022747
744,0.7333,1067.42,1067.3,0.0538173,1.23273e-05,-0.123436,0.106746,0.550036,0.550036,-1.09598,4.37633e-09,-0.000115101,0.000125168,1.09298,0.7333154160991999,4.376329965083414e-09,-0.00011509437613399509,0.7333154160991999,0.00012517583384097364,-0.6657880812727476
745,0.7343,1067.64,1067.52,0.0537244,1.2339e-05,-0.123518,0.106797,0.550612,0.550612,-1.09713,4.41319e-09,-0.000115719,0.00012568,1.09413,0.7343140933703156,4.413190035634784e-09,-0.00011571230481477457,0.7343140933703156,0.0001256878980619991,-0.666172204066344
746,0.7353,1067.85,1067.73,0.0536328,1.23506e-05,-0.1236,0.106849,0.551189,0.551189,-1.09828,-1.83228e-09,-0.000116337,0.000126192,1.09528,0.7353150813594538,-1.8322799943959467e-09,-0.00011633023311363733,0.7353150813594538,0.00012619996254525923,-0.6665558853726318
747,0.7363,1068.06,1067.94,0.0535405,1.23623e-05,-0.123681,0.1069,0.551765,0.551765,-1.09943,-9.00638e-10,-0.000116955,0.000126704,1.09643,0.7363149107695435,-9.006380086162835e-10,-0.00011694816103058336,0.7363149107695435,0.00012671202729075404,-0.6669391256990292
748,0.7373,1068.27,1068.15,0.0534493,1.2374e-05,-0.123762,0.106951,0.552341,0.552341,-1.10058,4.52442e-09,-0.000117572,0.000127216,1.09758,0.7373153162472652,4.524419949802905e-09,-0.0001175650886833246,0.7373153162472652,0.00012722409229848353,-0.6673219255523719
749,0.7383,1068.48,1068.36,0.0533575,1.23857e-05,-0.123842,0.107002,0.552916,0.552916,-1.10173,4.56172e-09,-0.00011819,0.000127727,1.09873,0.7383145598091001,4.561719890716631e-09,-0.00011818301583710333,0.7383145598091001,0.00012773515744046726,-0.6677042854389128
750,0.7393,1068.69,1068.57,0.0532666,1.23973e-05,-0.123922,0.107052,0.553491,0.553491,-1.10288,4.59913e-09,-0.000118808,0.000128239,1.09988,0.7393143781012022,4.5991299657544005e-09,-0.00011880094260907637,0.7393143781012022,0.00012824722297199997,-0.6680862058643227
751,0.7403,1068.9,1068.78,0.0531753,1.2409e-05,-0.124002,0.107103,0.554066,0.554066,-1.10403,4.63664e-09,-0.000119425,0.00012875,1.10103,0.7403147714541365,4.636639960864386e-09,-0.00011941786911850993,0.7403147714541365,0.00012875828863689875,-0.6684676873336913
752,0.7413,1069.11,1068.99,0.0530848,1.24206e-05,-0.124081,0.107154,0.554641,0.554641,-1.10518,4.67426e-09,-0.000120043,0.000129261,1.10218,0.7413157401986581,4.674260090098414e-09,-0.00012003579512742668,0.7413157401986581,0.000129269354562922,-0.6688487303515283
753,0.7423,1069.32,1069.2,0.052994,1.24321e-05,-0.124159,0.107204,0.555215,0.555215,-1.10633,-1.53152e-09,-0.00012066,0.000129772,1.10332,0.7423155423492984,-1.5315200219134795e-09,-0.00012065272087491419,0.7423155423492984,0.00012978042075029173,-0.6692293354217627
754,0.7433,1069.53,1069.41,0.0529038,1.24436e-05,-0.124237,0.107255,0.555788,0.555788,-1.10747,4.74983e-09,-0.000121278,0.000130283,1.10447,0.743314175236063,4.749830084804785e-09,-0.00012127064612066363,0.743314175236063,0.00013029148719856387,-0.669606199126256
755,0.7443,1069.73,1069.61,0.0528135,1.24551e-05,-0.124315,0.107305,0.556362,0.556362,-1.10862,-2.02826e-09,-0.000121895,0.000130794,1.10562,0.7443151248176962,-2.0282600043941557e-09,-0.0001218875711063161,0.7443151248176962,0.00013080255390818252,-0.6699859336080838
756,0.7453,1069.94,1069.82,0.0527236,1.24665e-05,-0.124392,0.107355,0.556935,0.556935,-1.10977,4.82582e-09,-0.000122512,0.000131304,1.10676,0.7453149037935385,4.825819965859068e-09,-0.0001225044957113841,0.7453149037935385,0.00013131262074761452,-0.6703652316462607
757,0.7463,1070.15,1070.03,0.0526338,1.24779e-05,-0.124469,0.107405,0.557508,0.557508,-1.11091,-1.35645e-09,-0.000123129,0.000131815,1.10791,0.7463152558068937,-1.3564499523610607e-09,-0.00012312141993575665,0.7463152558068937,0.00013182368797881594,-0.6707408011668832
758,0.7473,1070.36,1070.24,0.0525443,1.24892e-05,-0.124545,0.107455,0.55808,0.55808,-1.11205,-4.57508e-10,-0.000123747,0.000132325,1.10905,0.7473144338708988,-4.5750803145949703e-10,-0.0001237393436558376,0.7473144338708988,0.00013233375533894254,-0.6711159427822043
759,0.7483,1070.56,1070.44,0.0524549,1.25005e-05,-0.124621,0.107505,0.558652,0.558652,-1.1132,4.9406e-09,-0.000124364,0.000132835,1.11019,0.748314183628245,4.94059992917073e-09,-0.00012435626711826409,0.748314183628245,0.0001328438229593054,-0.6714939420567632
760,0.7493,1070.77,1070.65,0.0523658,1.25117e-05,-0.124696,0.107555,0.559224,0.559224,-1.11434,-1.22364e-09,-0.000124981,0.000133346,1.11133,0.7493145054060348,-1.2236399671294862e-09,-0.00012497319020021713,0.7493145054060348,0.00013335489097299202,-0.6718682255806749
761,0.7503,1070.98,1070.86,0.0522768,1.25229e-05,-0.124771,0.107605,0.559796,0.559796,-1.11548,-3.33669e-10,-0.000125597,0.000133856,1.11248,0.750315399531557,-3.336689813338012e-10,-0.0001255891130269582,0.750315399531557,0.0001338649591140495,-0.6722420826644866
762,0.7513,1071.19,1071.06,0.0521881,1.2534e-05,-0.124845,0.107654,0.560367,0.560367,-1.11662,5.05632e-09,-0.000126214,0.000134365,1.11362,0.751315115016298,5.056320029339645e-09,-0.00012620603534818642,0.751315115016298,0.00013437402738092352,-0.6726155137940626
763,0.7523,1071.39,1071.27,0.0520996,1.25451e-05,-0.124919,0.107704,0.560938,0.560938,-1.11777,5.0951e-09,-0.000126831,0.000134875,1.11476,0.7523154015015863,5.095099897545197e-09,-0.00012682295728871917,0.7523154015015863,0.00013488409604178742,-0.6729917895531692
764,0.7533,1071.6,1071.48,0.0520113,1.25561e-05,-0.124993,0.107753,0.561508,0.561508,-1.11891,-2.08578e-10,-0.000127447,0.000135385,1.1159,0.7533145059981727,-2.08578043725538e-10,-0.00012743887897614936,0.7533145059981727,0.00013539416496266554,-0.6733643665038667
765,0.7543,1071.8,1071.68,0.0519231,1.2567e-05,-0.125066,0.107803,0.562078,0.562078,-1.12005,5.17295e-09,-0.000128064,0.000135894,1.11704,0.7543141801466577,5.172950068299542e-09,-0.0001280558001559573,0.7543141801466577,0.0001359032340078059,-0.6737365189588487
766,0.7553,1072.01,1071.89,0.0518352,1.2578e-05,-0.125139,0.107852,0.562648,0.562648,-1.12118,-1.24496e-10,-0.00012868,0.000136403,1.11817,0.7553144242718357,-1.2449596908936655e-10,-0.00012867172108388392,0.7553144242718357,0.00013641230331229437,-0.6741049884679444
767,0.7563,1072.21,1072.09,0.0517475,1.25888e-05,-0.125211,0.107901,0.563218,0.563218,-1.12232,5.25122e-09,-0.000129297,0.000136912,1.11931,0.7563152386986851,5.251219903357196e-09,-0.00012928864150318908,0.7563152386986851,0.00013692137287568684,-0.6744762970949607
768,0.7573,1072.42,1072.3,0.05166,1.25996e-05,-0.125283,0.10795,0.563787,0.563787,-1.12346,-3.98693e-11,-0.000129913,0.000137421,1.12045,0.757314866436626,-3.986933005961646e-11,-0.00012990456167161213,0.757314866436626,0.00013743044269820537,-0.674847182671327
769,0.7583,1072.62,1072.5,0.0515727,1.26104e-05,-0.125355,0.107999,0.564356,0.564356,-1.1246,5.32988e-09,-0.000130529,0.00013793,1.12159,0.7583150631246007,5.329880092830308e-09,-0.00013052048146067197,0.7583150631246007,0.00013793951277984995,-0.6752176456790462
770,0.7593,1072.83,1072.71,0.0514856,1.26211e-05,-0.125426,0.108048,0.564924,0.564924,-1.12573,5.36936e-09,-0.000131145,0.000138439,1.12272,0.7593140697714846,5.3693600676751885e-09,-0.0001311364008703686,0.7593140697714846,0.00013844858312062058,-0.6755844424602173
771,0.7603,1073.03,1072.91,0.0513986,1.26318e-05,-0.125496,0.108096,0.565493,0.565493,-1.12687,5.40894e-09,-0.000131761,0.000138947,1.12386,0.7603154043298506,5.408939962592285e-09,-0.00013175231990070202,0.7603154043298506,0.0001389566535814346,-0.6759540654706666
772,0.7613,1073.23,1073.11,0.0513119,1.26424e-05,-0.125567,0.108145,0.566061,0.566061,-1.128,-6.79949e-10,-0.000132376,0.000139456,1.12499,0.7613155474932791,-6.799489860043195e-10,-0.00013236723868392808,0.7613155474932791,0.00013946572444001326,-0.6763200305674633
773,0.7623,1073.44,1073.32,0.0512254,1.26529e-05,-0.125636,0.108193,0.566628,0.566628,-1.12914,5.4884e-09,-0.000132992,0.000139964,1.12612,0.7623144965840123,5.488399956732337e-09,-0.00013298315695597918,0.7623144965840123,0.00013997379541774713,-0.6766888154852738
774,0.7633,1073.64,1073.52,0.0511391,1.26634e-05,-0.125706,0.108242,0.567195,0.567195,-1.13027,5.52827e-09,-0.000133608,0.000140472,1.12726,0.7633140122394861,5.528270063948071e-09,-0.00013359907484866707,0.7633140122394861,0.00014048186665327478,-0.6770539507834785
775,0.7643,1073.84,1073.72,0.0510529,1.26739e-05,-0.125775,0.10829,0.567762,0.567762,-1.13141,5.56824e-09,-0.000134223,0.00014098,1.12839,0.7643140947810334,5.568240091236021e-09,-0.00013421399249613497,0.7643140947810334,0.00014098993814726235,-0.6774218995089629
776,0.7653,1074.05,1073.93,0.050967,1.26843e-05,-0.125843,0.108338,0.568329,0.568329,-1.13254,5.60831e-09,-0.000134838,0.000141488,1.12952,0.76531474453017,5.608310038596187e-09,-0.00013482890976546091,0.76531474453017,0.00014149800989926575,-0.6777862068900822
777,0.7663,1074.25,1074.13,0.0508813,1.26947e-05,-0.125912,0.108387,0.568895,0.568895,-1.13367,3.47575e-10,-0.000135454,0.000141995,1.13065,0.7663141954935151,3.475750798287436e-10,-0.0001354448265211694,0.7663141954935151,0.0001420050817670937,-0.6781501028363652
778,0.7673,1074.45,1074.33,0.0507957,1.2705e-05,-0.125979,0.108435,0.569461,0.569461,-1.1348,5.68873e-09,-0.000136069,0.000142503,1.13178,0.7673142123062255,5.68872993156333e-09,-0.00013605974303343427,0.7673142123062255,0.00014251315403490672,-0.6785135878124708
779,0.7683,1074.65,1074.53,0.0507104,1.27152e-05,-0.126047,0.108482,0.570027,0.570027,-1.13593,5.72908e-09,-0.000136684,0.00014301,1.13291,0.7683147952886629,5.7290800992149116e-09,-0.0001366746591676682,0.7683147952886629,0.00014302022641743406,-0.678876662282533
780,0.7693,1074.85,1074.73,0.0506252,1.27255e-05,-0.126114,0.10853,0.570592,0.570592,-1.13706,5.76953e-09,-0.000137298,0.000143517,1.13404,0.76931417544631,5.7695299648941045e-09,-0.00013728857506090097,0.76931417544631,0.0001435272990573111,-0.6792393267101615
781,0.7703,1075.05,1074.93,0.0505402,1.27356e-05,-0.12618,0.108578,0.571157,0.571157,-1.13819,5.81007e-09,-0.000137913,0.000144025,1.13517,0.7703141204132897,5.810069980682897e-09,-0.00013790349043940608,0.7703141204132897,0.00014403537209828343,-0.6796015815584429
782,0.7713,1075.25,1075.13,0.0504555,1.27457e-05,-0.126246,0.108626,0.571722,0.571722,-1.13932,5.8507e-09,-0.000138528,0.000144531,1.1363,0.7713146305088094,5.850699924536684e-09,-0.0001385184054396582,0.7713146305088094,0.00014454144510822609,-0.6799634272899402
783,0.7723,1075.46,1075.34,0.0503709,1.27558e-05,-0.126312,0.108673,0.572287,0.572287,-1.14045,5.89143e-09,-0.000139142,0.000145038,1.13743,0.7723157060522574,5.8914300105072925e-09,-0.0001391323202009076,0.7723157060522574,0.00014504851851926404,-0.6803248643666941
784,0.7733,1075.66,1075.54,0.0502865,1.27658e-05,-0.126378,0.108721,0.572851,0.572851,-1.14157,5.93225e-09,-0.000139756,0.000145545,1.13856,0.7733155740467408,5.9322500245428955e-09,-0.00013974623458512525,0.7733155740467408,0.00014555559218742964,-0.6806827000931909
785,0.7743,1075.86,1075.74,0.0502023,1.27758e-05,-0.126443,0.108768,0.573414,0.573414,-1.1427,5.97316e-09,-0.00014037,0.000146051,1.13968,0.774314231810711,5.973159966643493e-09,-0.0001403601485925332,0.774314231810711,0.0001460616659665348,-0.6810433248507242
786,0.7753,1076.06,1075.94,0.0501183,1.27857e-05,-0.126507,0.108815,0.573978,0.573978,-1.14383,6.01417e-09,-0.000140984,0.000146558,1.14081,0.7753152272916435,6.014170050860912e-09,-0.00014097406222290942,0.7753152272916435,0.00014656874014828958,-0.6814035423324354
787,0.7763,1076.25,1076.13,0.0500345,1.27956e-05,-0.126571,0.108862,0.574541,0.574541,-1.14495,7.90409e-10,-0.000141598,0.000147064,1.14193,0.7763150111773642,7.90409071527165e-10,-0.00014158797547636492,0.7763150111773642,0.00014707481444009574,-0.6817601706159049
788,0.7773,1076.45,1076.33,0.0499509,1.28054e-05,-0.126635,0.108909,0.575104,0.575104,-1.14608,6.09645e-09,-0.000142212,0.00014757,1.14306,0.7773153580998924,6.096450011483512e-09,-0.0001422018883528997,0.7773153580998924,0.00014758088898814137,-0.6821195785193994
789,0.7783,1076.65,1076.53,0.0498674,1.28152e-05,-0.126699,0.108956,0.575666,0.575666,-1.1472,6.13772e-09,-0.000142825,0.000148076,1.14418,0.7783144900609282,6.137720109933298e-09,-0.00014281480099520572,0.7783144900609282,0.00014808696379198238,-0.6824754052912697
790,0.7793,1076.85,1076.73,0.0497842,1.28249e-05,-0.126762,0.109003,0.576228,0.576228,-1.14833,6.17909e-09,-0.000143439,0.000148582,1.1453,0.7793141836919404,6.179089906410695e-09,-0.00014342871311845418,0.7793141836919404,0.00014859303885206288,-0.6828340054360507
791,0.7803,1077.05,1076.93,0.0497011,1.28346e-05,-0.126825,0.10905,0.57679,0.57679,-1.14945,6.22054e-09,-0.000144052,0.000149087,1.14643,0.7803144393086767,6.2205400830350754e-09,-0.00014404162500880613,0.7803144393086767,0.00014909811401908613,-0.6831890324976957
792,0.7813,1077.25,1077.13,0.0496182,1.28442e-05,-0.126887,0.109096,0.577352,0.577352,-1.15057,6.26209e-09,-0.000144665,0.000149592,1.14755,0.7813152572270612,6.262089957687067e-09,-0.0001446545365234586,0.7813152572270612,0.00014960318944123863,-0.6835436621516214
793,0.7823,1077.45,1077.33,0.0495355,1.28538e-05,-0.126949,0.109143,0.577913,0.577913,-1.15169,6.30372e-09,-0.000145278,0.000150098,1.14867,0.7823148554474504,6.3037199904414365e-09,-0.00014526744766241162,0.7823148554474504,0.00015010926526848323,-0.6838978948426755
794,0.7833,1077.64,1077.52,0.049453,1.28633e-05,-0.127011,0.109189,0.578474,0.578474,-1.15281,6.34544e-09,-0.000145891,0.000150603,1.14979,0.7833150145997676,6.345439951260801e-09,-0.00014588035842555414,0.7833150145997676,0.00015061434120111628,-0.6842517310152074
795,0.7843,1077.84,1077.72,0.0493707,1.28728e-05,-0.127072,0.109235,0.579035,0.579035,-1.15393,6.38725e-09,-0.000146503,0.000151108,1.15091,0.7843157349987844,6.387250062189764e-09,-0.0001464922689595749,0.7843157349987844,0.00015111941738887857,-0.6846051711130693
796,0.7853,1078.04,1077.92,0.0492886,1.28823e-05,-0.127133,0.109282,0.579595,0.579595,-1.15505,6.42915e-09,-0.000147116,0.000151613,1.15203,0.7853152316433238,6.429150101183723e-09,-0.00014710517897187358,0.7853152316433238,0.00015162449383177012,-0.6849582155796164
797,0.7863,1078.23,1078.11,0.0492066,1.28917e-05,-0.127193,0.109328,0.580155,0.580155,-1.15617,6.47113e-09,-0.000147728,0.000152117,1.15315,0.7863152881627349,6.471130076235454e-09,-0.00014771708875627176,0.7863152881627349,0.00015212857037760763,-0.685310864857708
798,0.7873,1078.43,1078.31,0.0491248,1.2901e-05,-0.127253,0.109374,0.580714,0.580714,-1.15729,6.5132e-09,-0.00014834,0.000152622,1.15426,0.7873141175556235,6.51319997935218e-09,-0.00014832899816619172,0.7873141175556235,0.00015263364733009155,-0.685663119389707
799,0.7883,1078.63,1078.51,0.0490433,1.29103e-05,-0.127313,0.10942,0.581274,0.581274,-1.15841,6.55535e-09,-0.000148952,0.000153126,1.15538,0.7883152937646289,6.555350040571284e-09,-0.00014894090720163344,0.7883152937646289,0.0001531377243844112,-0.6860149796174819
800,0.7893,1078.82,1078.7,0.0489619,1.29196e-05,-0.127373,0.109466,0.581833,0.581833,-1.15953,6.59759e-09,-0.000149564,0.00015363,1.1565,0.7893152414731894,6.5975900298553825e-09,-0.00014955281586248592,0.7893152414731894,0.00015364180169274988,-0.686366445982406
801,0.7903,1079.02,1078.9,0.0488806,1.29288e-05,-0.127432,0.109511,0.582392,0.582392,-1.16064,6.63992e-09,-0.000150176,0.000154134,1.15762,0.7903157483087802,6.639919947204476e-09,-0.0001501647241489712,0.7903157483087802,0.00015414587925532963,-0.6867143860848839
802,0.7913,1079.21,1079.09,0.0487996,1.2938e-05,-0.127491,0.109557,0.58295,0.58295,-1.16176,6.68233e-09,-0.000150787,0.000154638,1.15873,0.7913150232681219,6.682330022655947e-09,-0.0001507756322116638,0.7913150232681219,0.0001546499570719284,-0.6870650695530686
803,0.7923,1079.41,1079.29,0.0487187,1.29471e-05,-0.127549,0.109602,0.583508,0.583508,-1.16288,6.72482e-09,-0.000151398,0.000155142,1.15985,0.7923148559784892,6.724820034165191e-09,-0.0001513865399010994,0.7923148559784892,0.00015515403514254622,-0.6874153604756355
804,0.7933,1079.6,1079.48,0.0486381,1.29562e-05,-0.127607,0.109648,0.584066,0.584066,-1.16399,6.7674e-09,-0.000152009,0.000155645,1.16096,0.7933152467511935,6.76739997373943e-09,-0.00015199744721738906,0.7933152467511935,0.00015565711331144705,-0.6877621369289706
805,0.7943,1079.8,1079.68,0.0485576,1.29653e-05,-0.127665,0.109693,0.584623,0.584623,-1.1651,1.61851e-09,-0.00015262,0.000156149,1.16207,0.7943144015824222,1.6185099926957491e-09,-0.0001526083541603107,0.7943144015824222,0.00015616119188965882,-0.6881085286739952
806,0.7953,1079.99,1079.87,0.0484773,1.29743e-05,-0.127722,0.109738,0.58518,0.58518,-1.16622,6.8528e-09,-0.000153231,0.000156652,1.16319,0.795314113097914,6.852800105150436e-09,-0.00015321926072997538,0.795314113097914,0.00015666427056526544,-0.6884576515765599
807,0.7963,1080.19,1080.07,0.0483971,1.29832e-05,-0.127779,0.109783,0.585737,0.585737,-1.16733,6.89562e-09,-0.000153842,0.000157155,1.1643,0.7963143816078284,6.895620074942599e-09,-0.00015383016692638307,0.7963143816078284,0.0001571673494940029,-0.688803271728639
808,0.7973,1080.38,1080.26,0.0483172,1.29921e-05,-0.127836,0.109828,0.586294,0.586294,-1.16844,6.93853e-09,-0.000154452,0.000157658,1.16541,0.7973152074224981,6.938529972799756e-09,-0.00015444007290388306,0.7973152074224981,0.00015767042867564918,-0.6891485084551897
809,0.7983,1080.58,1080.46,0.0482374,1.3001e-05,-0.127892,0.109873,0.58685,0.58685,-1.16955,6.98152e-09,-0.000155062,0.000158161,1.16652,0.798314792536736,6.9815200287592916e-09,-0.00015504997850945834,0.798314792536736,0.0001581735081104263,-0.6894933621815785
810,0.7993,1080.77,1080.65,0.0481578,1.30098e-05,-0.127948,0.109918,0.587406,0.587406,-1.17067,7.02459e-09,-0.000155672,0.000158663,1.16763,0.7993149335748302,7.0245900207766e-09,-0.00015565988374288686,0.7993149335748302,0.00015867558763948963,-0.6898409349388581
811,0.8003,1080.96,1080.84,0.0480784,1.30186e-05,-0.128004,0.109963,0.587962,0.587962,-1.17178,7.06774e-09,-0.000156282,0.000159166,1.16874,0.8003156308459598,7.067739948851681e-09,-0.00015626978860439067,0.8003156308459598,0.00015917866757986232,-0.6901850204982616
812,0.8013,1081.16,1081.04,0.0479991,1.30273e-05,-0.128059,0.110007,0.588517,0.588517,-1.17289,7.11097e-09,-0.000156892,0.000159668,1.16985,0.8013150833434926,7.1109700350291405e-09,-0.00015687969309374772,0.8013150833434926,0.00015968074761363305,-0.6905287243345894
813,0.8023,1081.35,1081.23,0.04792,1.3036e-05,-0.128114,0.110052,0.589072,0.589072,-1.174,1.31495e-09,-0.000157501,0.00016017,1.17096,0.8023150906911185,1.3149499267228748e-09,-0.00015748859736863796,0.8023150906911185,0.0001601828278994244,-0.6908720468713195
814,0.8033,1081.54,1081.42,0.0478411,1.30447e-05,-0.128169,0.110096,0.589627,0.589627,-1.1751,7.19767e-09,-0.00015811,0.000160672,1.17207,0.8033156531968642,7.197670015557378e-09,-0.00015809750127271371,0.8033156531968642,0.00016068490843701433,-0.6912119006659055
815,0.8043,1081.73,1081.61,0.0477624,1.30533e-05,-0.128223,0.110141,0.590181,0.590181,-1.17621,7.24114e-09,-0.000158719,0.000161174,1.17318,0.8043149668530591,7.241139909908156e-09,-0.00015870640480586395,0.8043149668530591,0.00016118698922706898,-0.6915544652976229
816,0.8053,1081.92,1081.8,0.0476839,1.30619e-05,-0.128277,0.110185,0.590735,0.590735,-1.17732,7.28469e-09,-0.000159328,0.000161676,1.17428,0.8053148342824008,7.284689962361313e-09,-0.00015931530796831073,0.8053148342824008,0.0001616890702689222,-0.6918966498935579
817,0.8063,1082.12,1082.0,0.0476055,1.30704e-05,-0.128331,0.110229,0.591289,0.591289,-1.17843,7.32831e-09,-0.000159937,0.000162177,1.17539,0.8063152557917641,7.32830995886502e-09,-0.00015992421075983199,0.8063152557917641,0.00016219015140062076,-0.6922384548753164
818,0.8073,1082.31,1082.19,0.0475273,1.30789e-05,-0.128384,0.110273,0.591842,0.591842,-1.17953,7.37201e-09,-0.000160545,0.000162678,1.1765,0.8073144243728667,7.372009891426501e-09,-0.0001605321133411053,0.8073144243728667,0.00016269123278345177,-0.6925768064474718
819,0.8083,1082.5,1082.38,0.0474493,1.30873e-05,-0.128437,0.110317,0.592395,0.592395,-1.18064,2.2884e-09,-0.000161153,0.000163179,1.1776,0.8083141456470002,2.288399914007755e-09,-0.00016114001555278534,0.8083141456470002,0.00016319231441719317,-0.6929178568743108
820,0.8093,1082.69,1082.57,0.0473714,1.30957e-05,-0.12849,0.110361,0.592948,0.592948,-1.18174,7.45965e-09,-0.000161761,0.00016368,1.1787,0.8093144199198885,7.459650008811991e-09,-0.00016174791739487215,0.8093144199198885,0.00016369339630206703,-0.6932554615151549
821,0.8103,1082.88,1082.76,0.0472937,1.31041e-05,-0.128543,0.110404,0.593501,0.593501,-1.18285,1.72636e-09,-0.000162369,0.000164181,1.17981,0.810315247497424,1.7263599438877009e-09,-0.00016235581886736572,0.810315247497424,0.00016419447843807333,-0.6935957590527996
822,0.8113,1083.07,1082.95,0.0472162,1.31124e-05,-0.128595,0.110448,0.594053,0.594053,-1.18395,1.35705e-09,-0.000162977,0.000164682,1.18091,0.8113148173699465,1.3570500279058706e-09,-0.00016296371997015502,0.8113148173699465,0.00016469556082499004,-0.6939326184112278
823,0.8123,1083.26,1083.14,0.0471389,1.31206e-05,-0.128647,0.110492,0.594605,0.594605,-1.18505,7.59168e-09,-0.000163584,0.000165182,1.18201,0.812314939157353,7.591679951346464e-09,-0.00016357062086702623,0.812314939157353,0.00016519564329775527,-0.6942691074280868
824,0.8133,1083.45,1083.33,0.0470617,1.31289e-05,-0.128698,0.110535,0.595157,0.595157,-1.18616,7.63584e-09,-0.000164191,0.000165682,1.18312,0.8133156131643846,7.63583996032935e-09,-0.00016417752139541442,0.8133156131643846,0.00016569572602054272,-0.6946082804429938
825,0.8143,1083.64,1083.52,0.0469847,1.31371e-05,-0.128749,0.110578,0.595708,0.595708,-1.18726,7.68007e-09,-0.000164798,0.000166183,1.18422,0.8143150253800184,7.680069913362786e-09,-0.00016478442155554163,0.8143150253800184,0.00016619680915974655,-0.6949440266402436
826,0.8153,1083.83,1083.71,0.0469079,1.31452e-05,-0.1288,0.110621,0.596259,0.596259,-1.18836,7.72438e-09,-0.000165405,0.000166683,1.18532,0.815314988423522,7.7243800244986e-09,-0.00016539132134718582,0.815314988423522,0.00016669689238302254,-0.6952794037197285
827,0.8163,1084.02,1083.9,0.0468312,1.31533e-05,-0.128851,0.110665,0.59681,0.59681,-1.18946,7.76876e-09,-0.000166012,0.000167182,1.18642,0.8163155025984854,7.768760079684967e-09,-0.000165998220770458,0.8163155025984854,0.00016719597568948252,-0.6956144120872545
828,0.8173,1084.21,1084.09,0.0467547,1.31614e-05,-0.128901,0.110708,0.59736,0.59736,-1.19056,7.81322e-09,-0.000166618,0.000167682,1.18752,0.8173147508930063,7.813220070929106e-09,-0.00016660411999191993,0.8173147508930063,0.00016769605941235888,-0.6959490521481821
829,0.8183,1084.4,1084.28,0.0466784,1.31694e-05,-0.128951,0.110751,0.59791,0.59791,-1.19166,7.85775e-09,-0.000167224,0.000168181,1.18862,0.8183145489252532,7.857750006223796e-09,-0.0001672100188462311,0.8183145489252532,0.000168195143217309,-0.6962833243074258
830,0.8193,1084.58,1084.46,0.0466023,1.31774e-05,-0.129001,0.110793,0.59846,0.59846,-1.19276,7.90235e-09,-0.00016783,0.000168681,1.18972,0.8193148969976649,7.902350107613643e-09,-0.00016781591733339152,0.8193148969976649,0.0001686952274397857,-0.6966172289694549
831,0.8203,1084.77,1084.65,0.0465263,1.31854e-05,-0.12905,0.110836,0.59901,0.59901,-1.19386,2.87929e-09,-0.000168436,0.00016918,1.19081,0.8203157954128468,2.8792899176011133e-09,-0.00016842181545340118,0.8203157954128468,0.00016919431174322597,-0.6969507665382939
832,0.8213,1084.96,1084.84,0.0464505,1.31933e-05,-0.129099,0.110879,0.599559,0.599559,-1.19496,2.92919e-09,-0.000169041,0.000169679,1.19191,0.8213154231572368,2.9291900016659156e-09,-0.0001690267133751533,0.8213154231572368,0.00016969339629580027,-0.6972839374175235
833,0.8223,1085.15,1085.03,0.0463748,1.32012e-05,-0.129148,0.110921,0.600108,0.600108,-1.19605,2.9792e-09,-0.000169646,0.000170178,1.19301,0.8223155998479306,2.9791999978101558e-09,-0.00016963161093108692,0.8223155998479306,0.00017019248109728657,-0.6976137181625812
834,0.8233,1085.34,1085.22,0.0462993,1.3209e-05,-0.129197,0.110964,0.600656,0.600656,-1.19715,8.08147e-09,-0.000170251,0.000170676,1.1941,0.823314502470968,8.081469937692987e-09,-0.00017023650812098,0.823314502470968,0.00017069056597707188,-0.6979461601959628
835,0.8243,1085.52,1085.4,0.046224,1.32168e-05,-0.129245,0.111006,0.601205,0.601205,-1.19824,8.12643e-09,-0.000170856,0.000171175,1.1952,0.8243157769575225,8.126429973387417e-09,-0.00017084140494483258,0.8243157769575225,0.0001711896512763822,-0.6982752195114427
836,0.8253,1085.71,1085.59,0.0461488,1.32246e-05,-0.129293,0.111048,0.601753,0.601753,-1.19934,8.17146e-09,-0.000171461,0.000171673,1.19629,0.8253157759780014,8.171459953132398e-09,-0.00017144630140286665,0.8253157759780014,0.00017168773665265924,-0.698606934293402
837,0.8263,1085.9,1085.78,0.0460738,1.32323e-05,-0.12934,0.11109,0.6023,0.6023,-1.20043,2.56823e-09,-0.000172065,0.000172171,1.19739,0.826314496832713,2.568230073052291e-09,-0.00017205019766686203,0.826314496832713,0.00017218582227718215,-0.6989352737575061
838,0.8273,1086.08,1085.96,0.045999,1.324e-05,-0.129388,0.111132,0.602848,0.602848,-1.20153,8.26173e-09,-0.000172669,0.000172669,1.19848,0.8273155914518504,8.26172996681862e-09,-0.00017265409356614914,0.8273155914518504,0.0001726839081497289,-0.6992662628789812
839,0.8283,1086.27,1086.15,0.0459244,1.32476e-05,-0.129435,0.111174,0.603395,0.603395,-1.20262,2.67515e-09,-0.000173273,0.000173167,1.19957,0.8283154065048619,2.675150101438817e-09,-0.00017325798910072798,0.8283154065048619,0.0001731819942705215,-0.6995938840664587
840,0.8293,1086.46,1086.33,0.0458498,1.32552e-05,-0.129482,0.111216,0.603942,0.603942,-1.20372,8.35227e-09,-0.000173876,0.000173664,1.20067,0.8293157686063117,8.352269986744432e-09,-0.00017386088444437675,0.8293157686063117,0.00017367908046539426,-0.6999241491149072
841,0.8303,1086.64,1086.52,0.0457755,1.32628e-05,-0.129528,0.111258,0.604488,0.604488,-1.20481,8.39765e-09,-0.00017448,0.000174161,1.20176,0.8303148477397542,8.397649908786775e-09,-0.00017446477925009418,0.8303148477397542,0.00017417616690740267,-0.700251053597063
842,0.8313,1086.83,1086.71,0.0457013,1.32703e-05,-0.129574,0.111299,0.605034,0.605034,-1.2059,8.44309e-09,-0.000175083,0.000174659,1.20285,0.8313144725193511,8.443090004917053e-09,-0.00017506767386599176,0.8313144725193511,0.00017467425377115653,-0.7005776019474601
843,0.8323,1087.01,1086.89,0.0456273,1.32778e-05,-0.12962,0.111341,0.60558,0.60558,-1.20699,8.4886e-09,-0.000175686,0.000175156,1.20394,0.832314643243107,8.488600045097883e-09,-0.00017567056811840231,0.832314643243107,0.00017517134070788032,-0.700903794554071
844,0.8333,1087.2,1087.08,0.0455535,1.32853e-05,-0.129666,0.111382,0.606126,0.606126,-1.20808,8.53418e-09,-0.000176288,0.000175653,1.20503,0.8333153602091887,8.534180029329264e-09,-0.00017627246218354653,0.8333153602091887,0.0001756684278915177,-0.7012296318044451
845,0.8343,1087.38,1087.26,0.0454798,1.32927e-05,-0.129712,0.111424,0.606671,0.606671,-1.20917,8.57982e-09,-0.000176891,0.000176149,1.20612,0.8343147894002192,8.579819965603974e-09,-0.00017687535570953816,0.8343147894002192,0.00017616451514612663,-0.7015551140857095
846,0.8353,1087.57,1087.45,0.0454062,1.33001e-05,-0.129757,0.111465,0.607216,0.607216,-1.21026,8.62553e-09,-0.000177493,0.000176646,1.20721,0.8353147634286138,8.625530067973841e-09,-0.00017747724904937368,0.8353147634286138,0.00017666160282336918,-0.7018802417845698
847,0.8363,1087.75,1087.63,0.0453329,1.33074e-05,-0.129802,0.111506,0.607761,0.607761,-1.21135,8.6713e-09,-0.000178095,0.000177142,1.2083,0.8363152825913893,8.671299900342433e-09,-0.00017807914202694342,0.8363152825913893,0.00017715769057047304,-0.7022050152873103
848,0.8373,1087.93,1087.81,0.0452597,1.33147e-05,-0.129846,0.111547,0.608305,0.608305,-1.21244,8.71715e-09,-0.000178697,0.000177638,1.20938,0.8373145098702965,8.717149890813403e-09,-0.00017868103464213636,0.8373145098702965,0.00017765377856382436,-0.7025294349797946
849,0.8383,1088.12,1088.0,0.0451866,1.3322e-05,-0.129891,0.111588,0.608849,0.608849,-1.21352,8.76305e-09,-0.000179298,0.000178134,1.21047,0.8383142808767241,8.763050063365085e-09,-0.0001792819270742818,0.8383142808767241,0.0001781498668032011,-0.7028505297676204
850,0.8393,1088.3,1088.18,0.0451137,1.33292e-05,-0.129935,0.111629,0.609393,0.609393,-1.21461,8.80902e-09,-0.000179899,0.00017863,1.21156,0.83931459590654,8.809019957922715e-09,-0.0001798828191452717,0.83931459590654,0.00017864595528838123,-0.7031742462326498
851,0.8403,1088.49,1088.37,0.045041,1.33364e-05,-0.129979,0.11167,0.609937,0.609937,-1.2157,8.85506e-09,-0.0001805,0.000179126,1.21264,0.8403154552557734,8.8550600185755e-09,-0.00018048371085510606,0.8403154552557734,0.00017914204401980882,-0.703497610038966
852,0.8413,1088.67,1088.55,0.0449684,1.33436e-05,-0.130022,0.11171,0.61048,0.61048,-1.21678,8.90116e-09,-0.000181101,0.000179621,1.21373,0.8413150179046767,8.901160031271615e-09,-0.00018108460220378486,0.8413150179046767,0.00017963713281776705,-0.7038176597621646
853,0.8423,1088.85,1088.73,0.044896,1.33507e-05,-0.130066,0.111751,0.611023,0.611023,-1.21787,8.94732e-09,-0.000181701,0.000180116,1.21481,0.8423151234634847,8.94731999601106e-09,-0.0001816844933730799,0.8423151234634847,0.00018013222186064048,-0.7041403226298146
854,0.8433,1089.03,1088.91,0.0448237,1.33578e-05,-0.130109,0.111792,0.611566,0.611566,-1.21895,8.99355e-09,-0.000182301,0.000180611,1.2159,0.8433157722270781,8.993549904801057e-09,-0.00018228438418244064,0.8433157722270781,0.00018062731114865116,-0.7044596785981101
855,0.8443,1089.22,1089.1,0.0447516,1.33649e-05,-0.130151,0.111832,0.612108,0.612108,-1.22004,9.03984e-09,-0.000182901,0.000181106,1.21698,0.8443151201744545,9.039839987678988e-09,-0.00018288427463175605,0.8443151201744545,0.00018112240068179908,-0.7047816420464817
856,0.8453,1089.4,1089.28,0.0446797,1.33719e-05,-0.130194,0.111872,0.61265,0.61265,-1.22112,9.08619e-09,-0.000183501,0.000181601,1.21806,0.8453150099152313,9.086190022600249e-09,-0.00018348416472124818,0.8453150099152313,0.0001816174904598622,-0.7051003057636902
857,0.8463,1089.58,1089.46,0.0446079,1.33789e-05,-0.130236,0.111912,0.613192,0.613192,-1.2222,9.1326e-09,-0.0001841,0.000182096,1.21915,0.8463154417431396,9.13260000956484e-09,-0.00018408305463490926,0.8463154417431396,0.00018211258048306256,-0.7054186255098618
858,0.8473,1089.76,1089.64,0.0445362,1.33858e-05,-0.130278,0.111952,0.613733,0.613733,-1.22329,9.17908e-09,-0.0001847,0.00018259,1.22023,0.8473145686365786,9.179079940579982e-09,-0.0001846829440050879,0.8473145686365786,0.00018260667056857471,-0.7057395442755551
859,0.8483,1089.94,1089.82,0.0444648,1.33927e-05,-0.13032,0.111992,0.614274,0.614274,-1.22437,9.22562e-09,-0.000185298,0.000183084,1.22131,0.848314236203906,9.225620045683058e-09,-0.00018528083338598123,0.848314236203906,0.00018310076089833593,-0.7060571740168036
860,0.8493,1090.13,1090.01,0.0443934,1.33996e-05,-0.130362,0.112032,0.614815,0.614815,-1.22545,9.27221e-09,-0.000185897,0.000183578,1.22239,0.8493144447377055,9.272210110822243e-09,-0.0001858797222233921,0.8493144447377055,0.00018359485147212418,-0.7063744609031065
861,0.8503,1090.31,1090.19,0.0443222,1.34065e-05,-0.130403,0.112072,0.615356,0.615356,-1.22653,9.31887e-09,-0.000186495,0.000184072,1.22347,0.8503151945307192,9.318869897967375e-09,-0.00018647761088852466,0.8503151945307192,0.00018408894229016148,-0.7066914053045474
862,0.8513,1090.49,1090.37,0.0442512,1.34133e-05,-0.130444,0.112112,0.615896,0.615896,-1.22761,9.36559e-09,-0.000187093,0.000184566,1.22455,0.8513146345602876,9.365590081245045e-09,-0.0001870754991961654,0.8513146345602876,0.00018458303335200377,-0.7070080075908103
863,0.8523,1090.67,1090.55,0.0441804,1.34201e-05,-0.130485,0.112151,0.616436,0.616436,-1.22869,9.41237e-09,-0.000187691,0.000185059,1.22563,0.8523146144332161,9.412369994521441e-09,-0.0001876733871462033,0.8523146144332161,0.00018507612447304922,-0.7073242681311798
864,0.8533,1090.85,1090.73,0.0441096,1.34268e-05,-0.130526,0.112191,0.616976,0.616976,-1.22977,9.45921e-09,-0.000188289,0.000185552,1.22671,0.8533151344410996,9.459210081885772e-09,-0.00018827127473874938,0.8533151344410996,0.00018556921583723351,-0.7076401872945426
865,0.8543,1091.03,1090.91,0.0440391,1.34335e-05,-0.130566,0.11223,0.617515,0.617515,-1.23085,9.50611e-09,-0.000188886,0.000186045,1.22778,0.8543143405604217,9.506109899248827e-09,-0.00018886816216268087,0.8543143405604217,0.0001860623074443346,-0.7079557654493867
866,0.8553,1091.21,1091.09,0.0439687,1.34402e-05,-0.130606,0.11227,0.618054,0.618054,-1.23192,9.55306e-09,-0.000189483,0.000186538,1.22886,0.8553140853970134,9.553059898692595e-09,-0.00018946504923011975,0.8553140853970134,0.00018655539929457454,-0.7082680856592456
867,0.8563,1091.39,1091.27,0.0438984,1.34469e-05,-0.130646,0.112309,0.618593,0.618593,-1.233,9.60008e-09,-0.00019008,0.000187031,1.22994,0.8563143692413213,9.60008006423152e-09,-0.00019006193594139908,0.8563143692413213,0.00018704849138795332,-0.7085829860499143
868,0.8573,1091.57,1091.45,0.0438283,1.34535e-05,-0.130686,0.112348,0.619132,0.619132,-1.23408,9.64715e-09,-0.000190677,0.000187524,1.23101,0.8573151923839495,9.647149967761948e-09,-0.0001906588222961858,0.8573151923839495,0.00018754158372447094,-0.708897546531745
869,0.8583,1091.75,1091.63,0.0437583,1.34601e-05,-0.130725,0.112387,0.61967,0.61967,-1.23515,9.69428e-09,-0.000191273,0.000188016,1.23209,0.8583146968000317,9.69428004538031e-09,-0.00019125470848602166,0.8583146968000317,0.00018803367611597288,-0.7092088595747761
870,0.8593,1091.93,1091.81,0.0436885,1.34666e-05,-0.130764,0.112426,0.620208,0.620208,-1.23623,9.74147e-09,-0.000191869,0.000188508,1.23316,0.8593147390941656,9.741470075042002e-09,-0.00019185059432058615,0.8593147390941656,0.00018852576874950344,-0.709522744478078
871,0.8603,1092.11,1091.99,0.0436189,1.34731e-05,-0.130803,0.112465,0.620746,0.620746,-1.2373,4.94766e-09,-0.000192464,0.000189,1.23424,0.8603153195558082,4.947660059428927e-09,-0.00019244547999253125,0.8603153195558082,0.00018901786162528467,-0.7098333889170735
872,0.8613,1092.28,1092.16,0.0435494,1.34796e-05,-0.130842,0.112504,0.621283,0.621283,-1.23838,9.83602e-09,-0.00019306,0.000189492,1.23531,0.8613145771590633,9.836019998488155e-09,-0.0001930413651174412,0.8613145771590633,0.0001895099547430945,-0.71014659969278
873,0.8623,1092.46,1092.34,0.04348,1.34861e-05,-0.130881,0.112542,0.62182,0.62182,-1.23945,9.88337e-09,-0.000193655,0.000189984,1.23639,0.8623143715077546,9.883369900265393e-09,-0.00019363625008084195,0.8623143715077546,0.00019000204810315502,-0.7104565769636944
874,0.8633,1092.64,1092.52,0.0434108,1.34925e-05,-0.130919,0.112581,0.622357,0.622357,-1.24052,9.93079e-09,-0.00019425,0.000190475,1.23746,0.8633147028901917,9.930789968137788e-09,-0.00019423113469030362,0.8633147028901917,0.00019049314151464714,-0.7107662227363122
875,0.8643,1092.82,1092.7,0.0433417,1.34989e-05,-0.130957,0.112619,0.622894,0.622894,-1.24159,9.97826e-09,-0.000194844,0.000190966,1.23853,0.8643155715948392,9.97825999604629e-09,-0.00019482501914058759,0.8643155715948392,0.0001909842351672797,-0.7110755373651467
876,0.8653,1093.0,1092.88,0.0432728,1.35052e-05,-0.130995,0.112658,0.62343,0.62343,-1.24267,1.00258e-08,-0.000195439,0.000191457,1.2396,0.8653151125942715,1.0025799968005344e-08,-0.00019541990304272616,0.8653151125942715,0.0001914753290610527,-0.7113874073446895
877,0.8663,1093.17,1093.05,0.043204,1.35116e-05,-0.131032,0.112696,0.623966,0.623966,-1.24374,1.00734e-08,-0.000196033,0.000191948,1.24067,0.8663151894912873,1.0073399892007728e-08,-0.00019601378678690828,0.8663151894912873,0.00019196642319618817,-0.7116960576614635
878,0.8673,1093.35,1093.23,0.0431354,1.35179e-05,-0.13107,0.112734,0.624502,0.624502,-1.24481,1.0121e-08,-0.000196626,0.000192439,1.24174,0.8673158025732046,1.0121000038054717e-08,-0.00019660667037502133,0.8673158025732046,0.00019245751757224205,-0.7120043778990224
879,0.8683,1093.53,1093.41,0.043067,1.35241e-05,-0.131107,0.112772,0.625037,0.625037,-1.24588,1.01687e-08,-0.00019722,0.000192929,1.24281,0.8683150838114775,1.0168700104173922e-08,-0.00019720055341421183,0.8683150838114775,0.00019294761199639687,-0.7123123684103619
880,0.8693,1093.71,1093.58,0.0429986,1.35304e-05,-0.131144,0.11281,0.625572,0.625572,-1.24695,1.02164e-08,-0.000197813,0.00019342,1.24388,0.869314899808248,1.0216399948248522e-08,-0.0001977934362985545,0.869314899808248,0.00019343870685428755,-0.7126200295481007
881,0.8703,1093.88,1093.76,0.0429304,1.35366e-05,-0.131181,0.112848,0.626107,0.626107,-1.24802,5.48569e-09,-0.000198406,0.00019391,1.24495,0.8703152508496885,5.485689902329227e-09,-0.00019838631883117852,0.8703152508496885,0.00019392880175939098,-0.7129273616644799
882,0.8713,1094.06,1093.94,0.0428624,1.35427e-05,-0.131217,0.112886,0.626641,0.626641,-1.24909,1.03121e-08,-0.000198999,0.0001944,1.24602,0.8713142659069231,1.0312100062748186e-08,-0.00019897920101230593,0.8713142659069231,0.00019441889690452463,-0.7132343651113642
883,0.8723,1094.23,1094.11,0.0427945,1.35489e-05,-0.131254,0.112924,0.627176,0.627176,-1.25015,1.036e-08,-0.000199591,0.000194889,1.24708,0.8723156868954116,1.0359999969011824e-08,-0.00019957108304147209,0.8723156868954116,0.00019490799209487264,-0.7135381756363212
884,0.8733,1094.41,1094.29,0.0427268,1.3555e-05,-0.13129,0.112961,0.62771,0.62771,-1.25122,1.04079e-08,-0.000200183,0.000195379,1.24815,0.8733157704707635,1.0407900097320066e-08,-0.00020016296472014083,0.8733157704707635,0.00019539808771984468,-0.7138445258617913
885,0.8743,1094.59,1094.47,0.0426592,1.3561e-05,-0.131326,0.112999,0.628243,0.628243,-1.25229,1.04559e-08,-0.000200775,0.000195868,1.24922,0.8743145139179087,1.045589992365592e-08,-0.00020075484604853422,0.8743145139179087,0.0001958871833891429,-0.7141505484678278
886,0.8753,1094.76,1094.64,0.0425917,1.35671e-05,-0.131361,0.113036,0.628777,0.628777,-1.25335,1.0504e-08,-0.000201366,0.000196357,1.25028,0.87531566515193,1.0503999892108595e-08,-0.0002013457272277419,0.87531566515193,0.00019637627929758317,-0.7144533883529569
887,0.8763,1094.94,1094.82,0.0425244,1.35731e-05,-0.131397,0.113074,0.62931,0.62931,-1.25442,1.05521e-08,-0.000201957,0.000196846,1.25135,0.876315474827065,1.0552100082605875e-08,-0.00020193660805789548,0.876315474827065,0.00019686537544516547,-0.714758759824547
888,0.8773,1095.11,1094.99,0.0424572,1.35791e-05,-0.131432,0.113111,0.629843,0.629843,-1.25548,1.06003e-08,-0.000202548,0.000197335,1.25241,0.8773158175427993,1.0600299971130767e-08,-0.0002025274885387729,0.8773158175427993,0.0001973544718318898,-0.7150609553472103
889,0.8783,1095.29,1095.17,0.0423902,1.35851e-05,-0.131467,0.113148,0.630375,0.630375,-1.25655,1.06485e-08,-0.000203139,0.000197824,1.25348,0.878314815267565,1.0648500081700263e-08,-0.00020311836867037414,0.878314815267565,0.0001978435684577562,-0.7153656770697943
890,0.8793,1095.46,1095.34,0.0423233,1.3591e-05,-0.131502,0.113185,0.630907,0.630907,-1.25761,1.06967e-08,-0.000203729,0.000198312,1.25454,0.8793143446005158,1.0696699970225154e-08,-0.00020370824865656445,0.8793143446005158,0.00019833166512461808,-0.7156672296010234
891,0.8803,1095.64,1095.52,0.0422566,1.35969e-05,-0.131537,0.113222,0.631439,0.631439,-1.25868,1.0745e-08,-0.000204319,0.0001988,1.2556,0.880314405824542,1.0745000000866867e-08,-0.00020429812829458882,0.880314405824542,0.0001988197620295118,-0.7159713029570935
892,0.8813,1095.81,1095.69,0.04219,1.36028e-05,-0.131571,0.113259,0.631971,0.631971,-1.25974,1.07934e-08,-0.000204909,0.000199288,1.25667,0.8813149992226852,1.0793399951580795e-08,-0.00020488800758478032,0.8813149992226852,0.00019930785917265936,-0.7162722138650026
893,0.8823,1095.99,1095.86,0.0421235,1.36086e-05,-0.131606,0.113296,0.632502,0.632502,-1.2608,1.08418e-08,-0.000205499,0.000199776,1.25773,0.8823142427629536,1.0841799902294724e-08,-0.00020547788652680588,0.8823142427629536,0.0001997959565540608,-0.7165728059763412
894,0.8833,1096.16,1096.04,0.0420572,1.36144e-05,-0.13164,0.113332,0.633033,0.633033,-1.26186,1.08903e-08,-0.000206088,0.000200264,1.25879,0.8833140170424403,1.0890299995125474e-08,-0.0002060667653268622,0.8833140170424403,0.00020028405417349404,-0.7168730796288549
895,0.8843,1096.33,1096.21,0.041991,1.36202e-05,-0.131674,0.113369,0.633564,0.633564,-1.26292,1.09388e-08,-0.000206677,0.000200751,1.25985,0.8843143223430434,1.0938800087956224e-08,-0.00020665564378019585,0.8843143223430434,0.0002007711518303701,-0.717173035159931
896,0.8853,1096.51,1096.39,0.041925,1.3626e-05,-0.131707,0.113406,0.634095,0.634095,-1.26398,1.09873e-08,-0.000207265,0.000201238,1.26091,0.8853151589468093,1.098729995874237e-08,-0.00020724352209378072,0.8853151589468093,0.00020125824972461182,-0.7174726729065997
897,0.8863,1096.68,1096.56,0.0418591,1.36317e-05,-0.131741,0.113442,0.634625,0.634625,-1.26504,6.36155e-09,-0.000207853,0.000201725,1.26197,0.8863146408203515,6.3615499534819264e-09,-0.00020783140006175316,0.8863146408203515,0.00020174534785599718,-0.7177719932055339
898,0.8873,1096.85,1096.73,0.0417933,1.36374e-05,-0.131774,0.113478,0.635155,0.635155,-1.2661,1.10846e-08,-0.000208441,0.000202212,1.26303,0.8873146525596887,1.1084599904620518e-08,-0.00020841927768411317,0.8873146525596887,0.00020223244622452619,-0.7180709963930499
899,0.8883,1097.03,1096.91,0.0417277,1.36431e-05,-0.131807,0.113515,0.635685,0.635685,-1.26716,1.11333e-08,-0.000209029,0.000202699,1.26409,0.8883151944457239,1.1133300059640305e-08,-0.0002090071549606387,0.8883151944457239,0.00020271954483042087,-0.7183696828051079
900,0.8893,1097.2,1097.08,0.0416622,1.36487e-05,-0.13184,0.113551,0.636214,0.636214,-1.26822,1.1182e-08,-0.000209616,0.000203185,1.26514,0.8893143774441876,1.1181999992615488e-08,-0.0002095940321011902,0.8893143774441876,0.00020320564347020564,-0.7186680527773118
901,0.8903,1097.37,1097.25,0.0415968,1.36543e-05,-0.131873,0.113587,0.636743,0.636743,-1.26928,1.12308e-08,-0.000210203,0.000203671,1.2662,0.8903140891502885,1.1230800067707492e-08,-0.0002101809088972395,0.8903140891502885,0.00020369174234624587,-0.7189661066449102
902,0.8913,1097.54,1097.42,0.0415316,1.36599e-05,-0.131906,0.113623,0.637272,0.637272,-1.27033,1.12797e-08,-0.00021079,0.000204157,1.26726,0.8913143298437869,1.1279700062871711e-08,-0.00021076778534889762,0.8913143298437869,0.00020417784145854156,-0.7192610373672073
903,0.8923,1097.71,1097.59,0.0414666,1.36655e-05,-0.131938,0.113659,0.637801,0.637801,-1.27139,1.13286e-08,-0.000211377,0.000204643,1.26831,0.8923150998045908,1.1328600058035931e-08,-0.0002113546614559425,0.8923150998045908,0.00020466394080709271,-0.7195584630041614
904,0.8933,1097.89,1097.77,0.0414016,1.3671e-05,-0.13197,0.113694,0.638329,0.638329,-1.27245,1.13775e-08,-0.000211963,0.000205129,1.26937,0.8933145059973044,1.1377500053200151e-08,-0.00021194053743045504,0.8933145059973044,0.00020515004039189932,-0.7198555735369752
905,0.8943,1098.06,1097.94,0.0413368,1.36765e-05,-0.132002,0.11373,0.638857,0.638857,-1.2735,1.14265e-08,-0.000212549,0.000205614,1.27042,0.8943144400158214,1.1426499968436588e-08,-0.0002125264130615756,0.8943144400158214,0.00020563514000726535,-0.7201495708091825
906,0.8953,1098.23,1098.11,0.0412722,1.3682e-05,-0.132034,0.113766,0.639385,0.639385,-1.27456,1.14755e-08,-0.000213134,0.0002061,1.27148,0.8953149021389075,1.1475500105717629e-08,-0.0002131112885626063,0.8953149021389075,0.0002061212400641388,-0.7204460550996898
907,0.8963,1098.4,1098.28,0.0412077,1.36874e-05,-0.132066,0.113801,0.639912,0.639912,-1.27561,1.15246e-08,-0.000213719,0.000206585,1.27253,0.8963139963305311,1.1524599941026281e-08,-0.00021369616372135525,0.8963139963305311,0.00020660634015068347,-0.7207394326916454
908,0.8973,1098.57,1098.45,0.0411433,1.36929e-05,-0.132097,0.113837,0.64044,0.64044,-1.27666,1.15737e-08,-0.000214304,0.00020707,1.27358,0.8973155144981226,1.1573699998379539e-08,-0.00021428103853804448,0.8973155144981226,0.00020709144047237338,-0.7210325023987971
909,0.8983,1098.74,1098.62,0.041079,1.36983e-05,-0.132129,0.113872,0.640967,0.640967,-1.27772,1.16228e-08,-0.000214889,0.000207554,1.27464,0.8983156632903222,1.1622800055732796e-08,-0.00021486591301256297,0.8983156632903222,0.00020757554082173613,-0.7213280512776754
910,0.8993,1098.91,1098.79,0.0410149,1.37036e-05,-0.13216,0.113907,0.641493,0.641493,-1.27877,6.66773e-09,-0.000215473,0.000208039,1.27569,0.8993144399844555,6.667729923748311e-09,-0.0002154497873604333,0.8993144399844555,0.00020806064161349447,-0.7216205032596743
911,0.9003,1099.08,1098.96,0.0409509,1.3709e-05,-0.132191,0.113942,0.64202,0.64202,-1.27982,1.17213e-08,-0.000216057,0.000208523,1.27674,0.900315642488015,1.172129993065596e-08,-0.0002160336613672431,0.900315642488015,0.00020854474243203747,-0.7219126483282498
912,0.9013,1099.25,1099.13,0.0408871,1.37143e-05,-0.132222,0.113978,0.642546,0.642546,-1.28087,1.17706e-08,-0.000216641,0.000209007,1.27779,0.9013154714479277,1.1770600050198254e-08,-0.00021661753503310344,0.9013154714479277,0.00020902884348483752,-0.7222044868054919
913,0.9023,1099.42,1099.3,0.0408233,1.37196e-05,-0.132252,0.114013,0.643071,0.643071,-1.28193,1.18199e-08,-0.000217224,0.000209491,1.27884,0.9023139241413367,1.1819899947695944e-08,-0.00021720040857520218,0.9023139241413367,0.00020951294477189464,-0.7224987940390872
914,0.9033,1099.59,1099.47,0.0407598,1.37249e-05,-0.132283,0.114047,0.643597,0.643597,-1.28298,1.18693e-08,-0.000217808,0.000209975,1.27989,0.9033148044738859,1.1869299987310455e-08,-0.0002177842815596076,0.9033148044738859,0.00020999704629343086,-0.7227900173863329
915,0.9043,1099.76,1099.64,0.0406963,1.37301e-05,-0.132313,0.114082,0.644122,0.644122,-1.28403,1.19187e-08,-0.00021839,0.000210458,1.28094,0.9043143070927149,1.1918700026924967e-08,-0.00021836615463988185,0.9043143070927149,0.0002104801478386431,-0.7230809351095444
916,0.9053,1099.93,1099.81,0.040633,1.37353e-05,-0.132343,0.114117,0.644647,0.644647,-1.28507,7.42306e-09,-0.000218973,0.000210941,1.28199,0.9053143345881867,7.42305994450021e-09,-0.00021894902716246278,0.9053143345881867,0.00021096324961722424,-0.7233687812311027
917,0.9063,1100.1,1099.98,0.0405698,1.37405e-05,-0.132373,0.114152,0.645172,0.645172,-1.28612,1.20177e-08,-0.000219555,0.000211424,1.28304,0.9063148872359341,1.2017699946298421e-08,-0.00021953089956483485,0.9063148872359341,0.00021144635162917425,-0.7236590915712092
918,0.9073,1100.27,1100.15,0.0405068,1.37457e-05,-0.132403,0.114186,0.645696,0.645696,-1.28717,1.20672e-08,-0.000220137,0.000211907,1.28409,0.9073140579967227,1.2067199905985149e-08,-0.00022011277162847787,0.9073140579967227,0.0002119294538742711,-0.7239490972454362
919,0.9083,1100.44,1100.32,0.0404438,1.37508e-05,-0.132433,0.114221,0.646221,0.646221,-1.28822,1.21168e-08,-0.000220718,0.00021239,1.28513,0.9083156607748948,1.2116800007788697e-08,-0.00022069364357424348,0.9083156607748948,0.00021241255635295886,-0.724238798573515
920,0.9093,1100.61,1100.49,0.0403811,1.37559e-05,-0.132462,0.114255,0.646744,0.646744,-1.28927,1.21664e-08,-0.0002213,0.000212872,1.28618,0.9093139709008222,1.2166400109592246e-08,-0.00022127551496120557,0.9093139709008222,0.000212894658851992,-0.7245281958748412
921,0.9103,1100.78,1100.66,0.0403184,1.3761e-05,-0.132492,0.114289,0.647268,0.647268,-1.29031,1.22161e-08,-0.00022188,0.000213355,1.28723,0.9103147135932614,1.2216099909423406e-08,-0.0002218553864532513,0.9103147135932614,0.00021337776179675139,-0.724814537627611
922,0.9113,1100.94,1100.82,0.0402559,1.37661e-05,-0.132521,0.114324,0.647791,0.647791,-1.29136,1.22658e-08,-0.000222461,0.000213837,1.28827,0.9113140694972601,1.226579993129917e-08,-0.00022243625738649353,0.9113140694972601,0.00021385986476096797,-0.7251033307201955
923,0.9123,1101.11,1100.99,0.0401935,1.37711e-05,-0.13255,0.114358,0.648314,0.648314,-1.2924,1.23155e-08,-0.000223041,0.000214319,1.28932,0.9123139482010969,1.2315499953174935e-08,-0.00022301612820530003,0.9123139482010969,0.00021434196795766525,-0.7253890746436513
924,0.9133,1101.28,1101.16,0.0401312,1.37761e-05,-0.132579,0.114392,0.648837,0.648837,-1.29345,7.87622e-09,-0.000223621,0.0002148,1.29036,0.9133143499782677,7.876219898506065e-09,-0.00022359599868781999,0.9133143499782677,0.0002148230711718213,-0.7256772647889718
925,0.9143,1101.45,1101.33,0.0400691,1.37811e-05,-0.132607,0.114426,0.64936,0.64936,-1.29449,1.24151e-08,-0.000224201,0.000215282,1.29141,0.9143152751024113,1.2415100059115503e-08,-0.00022417586883394236,0.9143152751024113,0.00021530517483281386,-0.7259624121312719
926,0.9153,1101.61,1101.49,0.0400071,1.37861e-05,-0.132636,0.11446,0.649882,0.649882,-1.29554,1.2465e-08,-0.00022478,0.000215763,1.29245,0.915314808531543,1.24649999211357e-08,-0.0002247547388685156,0.915314808531543,0.00021578627851037702,-0.726250000588172
927,0.9163,1101.78,1101.66,0.0399452,1.3791e-05,-0.132664,0.114493,0.650404,0.650404,-1.29658,1.25149e-08,-0.000225359,0.000216244,1.29349,0.9163148638533274,1.2514900005200502e-08,-0.00022533360856802354,0.9163148638533274,0.0002162673824190886,-0.7265345525948692
928,0.9173,1101.95,1101.83,0.0398834,1.3796e-05,-0.132693,0.114527,0.650926,0.650926,-1.29762,1.25648e-08,-0.000225938,0.000216725,1.29454,0.9173154413402627,1.2564800089265304e-08,-0.00022591247793224412,0.9173154413402627,0.00021674848655939272,-0.7268188088213119
929,0.9183,1102.12,1102.0,0.0398218,1.38009e-05,-0.132721,0.114561,0.651447,0.651447,-1.29867,1.26148e-08,-0.000226516,0.000217205,1.29558,0.9183146229494086,1.2614800093402323e-08,-0.00022649034718780214,0.9183146229494086,0.000217228590714047,-0.727105498533611
930,0.9193,1102.28,1102.16,0.0397603,1.38057e-05,-0.132749,0.114594,0.651968,0.651968,-1.29971,1.26648e-08,-0.000227094,0.000217686,1.29662,0.9193143252678058,1.2664800097539342e-08,-0.00022706821610940509,0.9193143252678058,0.00021770969531664797,-0.7273891612849377
931,0.9203,1102.45,1102.33,0.039699,1.38106e-05,-0.132776,0.114628,0.652489,0.652489,-1.30075,1.27149e-08,-0.000227672,0.000218166,1.29766,0.9203145485668147,1.2714900021748576e-08,-0.00022764608469694192,0.9203145485668147,0.00021818979993248888,-0.727672529180355
932,0.9213,1102.62,1102.49,0.0396377,1.38154e-05,-0.132804,0.114661,0.65301,0.65301,-1.30179,1.2765e-08,-0.00022825,0.000218646,1.2987,0.9213152931179365,1.2764999945957811e-08,-0.00022822395295052367,0.9213152931179365,0.0002186699047788121,-0.7279556025263532
933,0.9223,1102.78,1102.66,0.0395766,1.38202e-05,-0.132832,0.114694,0.65353,0.65353,-1.30283,1.28151e-08,-0.000228827,0.000219126,1.29974,0.9223146368772168,1.2815100092211651e-08,-0.00022880082109888455,0.9223146368772168,0.0002191500098556176,-0.7282383816291045
934,0.9233,1102.95,1102.83,0.0395156,1.3825e-05,-0.132859,0.114727,0.65405,0.65405,-1.30387,1.28653e-08,-0.000229403,0.000219606,1.30078,0.9233145004303867,1.2865299936493102e-08,-0.00022937668914380094,0.9233145004303867,0.00021963011516290543,-0.7285208667944629
935,0.9243,1103.11,1102.99,0.0394548,1.38297e-05,-0.132886,0.114761,0.65457,0.65457,-1.30491,1.29155e-08,-0.00022998,0.000220085,1.30182,0.9243148840478088,1.2915500002819158e-08,-0.0002299535566270272,0.9243148840478088,0.00022010922048032455,-0.7288030583279643
936,0.9253,1103.28,1103.16,0.039394,1.38345e-05,-0.132913,0.114794,0.655089,0.655089,-1.30595,1.29657e-08,-0.000230556,0.000220564,1.30285,0.9253138626851622,1.2965700069145214e-08,-0.0002305294240079192,0.9253138626851622,0.00022058832602755984,-0.7290849565348272
937,0.9263,1103.44,1103.32,0.0393334,1.38392e-05,-0.13294,0.114827,0.655609,0.655609,-1.30698,1.3016e-08,-0.000231132,0.000221043,1.30389,0.9263152862413178,1.3016000055543486e-08,-0.00023110529105707656,0.9263152862413178,0.00022106743180394517,-0.7293638553720383
938,0.9273,1103.61,1103.49,0.0392729,1.38439e-05,-0.132967,0.114859,0.656128,0.656128,-1.30802,1.30663e-08,-0.000231707,0.000221522,1.30493,0.9273153033568715,1.3066300041941759e-08,-0.0002316801580062311,0.9273153033568715,0.00022154653781014666,-0.7296451706531493
939,0.9283,1103.77,1103.65,0.0392126,1.38485e-05,-0.132994,0.114892,0.656646,0.656646,-1.30906,1.31166e-08,-0.000232283,0.000222,1.30596,0.9283139113011385,1.311660002834003e-08,-0.00023225602439269633,0.9283139113011385,0.00022202464382359288,-0.7299261935184505
940,0.9293,1103.94,1103.82,0.0391524,1.38532e-05,-0.13302,0.114925,0.657165,0.657165,-1.31009,1.3167e-08,-0.000232857,0.000222479,1.307,0.9293149659723206,1.316699993481052e-08,-0.000232829890913,0.9293149659723206,0.00022250375028809444,-0.7302042263276494
941,0.9303,1104.1,1103.98,0.0390922,1.38578e-05,-0.133046,0.114957,0.657683,0.657683,-1.31113,1.32174e-08,-0.000233432,0.000222957,1.30804,0.9303146100101478,1.3217400063325613e-08,-0.00023340475687050333,0.9303146100101478,0.0002229818567591746,-0.7304846680772816
942,0.9313,1104.27,1104.15,0.0390323,1.38624e-05,-0.133073,0.11499,0.658201,0.658201,-1.31217,1.32679e-08,-0.000234006,0.000223435,1.30907,0.9313147719977237,1.3267899889868318e-08,-0.00023397862273155656,0.9313147719977237,0.00022345996345873864,-0.7307648183191047
943,0.9323,1104.43,1104.31,0.0389724,1.3867e-05,-0.133099,0.115022,0.658719,0.658719,-1.3132,1.33183e-08,-0.00023458,0.000223913,1.3101,0.9323154522034165,1.3318300018383411e-08,-0.0002345524882630956,0.9323154522034165,0.00022393807038700864,-0.7310419877894546
944,0.9333,1104.59,1104.47,0.0389127,1.38716e-05,-0.133125,0.115055,0.659236,0.659236,-1.31423,1.33689e-08,-0.000235153,0.00022439,1.31114,0.9333147175800478,1.3368899987042937e-08,-0.000235125353700405,0.9333147175800478,0.0002244151773191927,-0.7313188719222242
945,0.9343,1104.76,1104.64,0.038853,1.38761e-05,-0.133151,0.115087,0.659753,0.659753,-1.31527,1.34194e-08,-0.000235727,0.000224867,1.31217,0.934314499710448,1.3419400035630247e-08,-0.0002356992185736928,0.934314499710448,0.00022489228447897247,-0.7315981550430295
946,0.9353,1104.92,1104.8,0.0387936,1.38806e-05,-0.133176,0.115119,0.66027,0.66027,-1.3163,9.13877e-09,-0.0002363,0.000225345,1.3132,0.9353147988618482,9.138769963001891e-09,-0.0002362720833539722,0.9353147988618482,0.00022537039209180598,-0.7318744666184457
947,0.9363,1105.09,1104.96,0.0387342,1.38851e-05,-0.133202,0.115151,0.660787,0.660787,-1.31733,1.35206e-08,-0.000236872,0.000225821,1.31424,0.9363156153016172,1.3520599972949299e-08,-0.00023684394804279751,0.9363156153016172,0.00022584649948131919,-0.7321504937394583
948,0.9373,1105.25,1105.13,0.0386749,1.38896e-05,-0.133227,0.115183,0.661303,0.661303,-1.31837,1.35713e-08,-0.000237444,0.000226298,1.31527,0.9373150119812814,1.3571300083725646e-08,-0.0002374158124044401,0.9373150119812814,0.00022632360732388612,-0.7324289124231589
949,0.9383,1105.41,1105.29,0.0386158,1.3894e-05,-0.133253,0.115215,0.661819,0.661819,-1.3194,1.3622e-08,-0.000238016,0.000226775,1.3163,0.9383149244827034,1.3621999972457388e-08,-0.000237987676439122,0.9383149244827034,0.00022680071539404878,-0.7327043687589974
950,0.9393,1105.57,1105.45,0.0385568,1.38984e-05,-0.133278,0.115247,0.662335,0.662335,-1.32043,9.37063e-09,-0.000238588,0.000227251,1.31733,0.9393153530721148,9.370630049687634e-09,-0.00023855954014662117,0.9393153530721148,0.00022727682346457279,-0.7329795415208757
951,0.9403,1105.74,1105.62,0.0384979,1.39028e-05,-0.133303,0.115279,0.66285,0.66285,-1.32146,1.37234e-08,-0.000239159,0.000227727,1.31836,0.9403143577005588,1.3723399971965478e-08,-0.00023913040376610795,0.9403143577005588,0.0002277529317615823,-0.7332544310007246
952,0.9413,1105.9,1105.78,0.0384392,1.39072e-05,-0.133328,0.115311,0.663365,0.663365,-1.32249,1.37742e-08,-0.00023973,0.000228203,1.31939,0.9413138769488893,1.3774200002814041e-08,-0.00023970126705963324,0.9413138769488893,0.00022822904028529933,-0.7335290374901743
953,0.9423,1106.06,1105.94,0.0383805,1.39116e-05,-0.133352,0.115342,0.66388,0.66388,-1.32352,1.3825e-08,-0.000240301,0.000228679,1.32042,0.9423139110822047,1.3825000033662604e-08,-0.00024027213002719705,0.9423139110822047,0.00022870514903572392,-0.7338033612805548
954,0.9433,1106.22,1106.1,0.038322,1.39159e-05,-0.133377,0.115374,0.664395,0.664395,-1.32455,1.38758e-08,-0.000240871,0.000229154,1.32145,0.9433144603657382,1.3875800064511168e-08,-0.00024084199290974606,0.9433144603657382,0.00022918025778340123,-0.7340774026628964
955,0.9443,1106.39,1106.26,0.0382636,1.39203e-05,-0.133402,0.115405,0.66491,0.66491,-1.32557,1.39267e-08,-0.000241441,0.000229629,1.32247,0.9443155250648609,1.3926700015431948e-08,-0.0002414118554673328,0.9443155250648609,0.0002296553667568979,-0.7343485054262664
956,0.9453,1106.55,1106.43,0.0382053,1.39246e-05,-0.133426,0.115437,0.665424,0.665424,-1.3266,1.39776e-08,-0.00024201,0.000230104,1.3235,0.9453151601289476,1.3977599966352727e-08,-0.0002419807179422362,0.9453151601289476,0.00023013047595621394,-0.7346219855992103
957,0.9463,1106.71,1106.59,0.0381472,1.39289e-05,-0.13345,0.115468,0.665938,0.665938,-1.32763,1.40286e-08,-0.00024258,0.000230579,1.32453,0.9463153091375294,1.4028600059390328e-08,-0.00024255057985078654,0.9463153091375294,0.00023060558538090525,-0.7348951842325939
958,0.9473,1106.87,1106.75,0.0380891,1.39331e-05,-0.133475,0.115499,0.666451,0.666451,-1.32866,9.83626e-09,-0.000243149,0.000231054,1.32555,0.9473140250398433,9.836260028706079e-09,-0.00024311944167765276,0.9473140250398433,0.00023108069503141593,-0.7351681016162536
959,0.9483,1107.03,1106.91,0.0380312,1.39374e-05,-0.133499,0.11553,0.666965,0.666965,-1.32968,1.41305e-08,-0.000243717,0.000231528,1.32658,0.9483152017290808,1.4130500103348709e-08,-0.00024368730342450018,0.9483152017290808,0.0002315548046760707,-0.7354380924338798
960,0.9493,1107.19,1107.07,0.0379734,1.39416e-05,-0.133523,0.115561,0.667478,0.667478,-1.33071,1.41815e-08,-0.000244285,0.000232002,1.32761,0.9493149438394939,1.4181499974341705e-08,-0.0002442551648488278,0.9493149438394939,0.00023202891454543462,-0.735710450909979
961,0.9503,1107.35,1107.23,0.0379157,1.39458e-05,-0.133546,0.115592,0.667991,0.667991,-1.33173,1.42326e-08,-0.000244853,0.000232476,1.32863,0.9503151989491829,1.4232599987451522e-08,-0.00024482302595063565,0.9503151989491829,0.00023250302463950767,-0.7359798888133597
962,0.9513,1107.51,1107.39,0.0378581,1.395e-05,-0.13357,0.115623,0.668503,0.668503,-1.33276,1.42837e-08,-0.000245421,0.00023295,1.32965,0.951314016006392,1.4283700000561339e-08,-0.0002453908867299237,0.951314016006392,0.00023297713495828987,-0.7362516895264852
963,0.9523,1107.67,1107.55,0.0378007,1.39542e-05,-0.133594,0.115654,0.669016,0.669016,-1.33378,1.43348e-08,-0.000245988,0.000233423,1.33068,0.9523152969031945,1.4334800013671156e-08,-0.00024595774743252363,0.9523152969031945,0.00023345024526832958,-0.7365205756479339
964,0.9533,1107.83,1107.71,0.0377433,1.39583e-05,-0.133617,0.115685,0.669528,0.669528,-1.33481,1.43859e-08,-0.000246555,0.000233897,1.3317,0.9533151382727576,1.4385900026780973e-08,-0.000246524607813825,0.9533151382727576,0.00023392435603608597,-0.7367918197403287
965,0.9543,1107.99,1107.87,0.0376861,1.39624e-05,-0.133641,0.115715,0.67004,0.67004,-1.33583,1.44371e-08,-0.000247122,0.00023437,1.33272,0.9543154916921757,1.4437099959963007e-08,-0.00024709146787371683,0.9543154916921757,0.0002343974667942117,-0.7370601552098395
966,0.9553,1108.15,1108.03,0.037629,1.39665e-05,-0.133664,0.115746,0.670551,0.670551,-1.33685,1.44883e-08,-0.000247688,0.000234843,1.33375,0.9553144021083053,1.448829989314504e-08,-0.0002476573278598071,0.9553144021083053,0.00023487057777615838,-0.7373282171167119
967,0.9563,1108.31,1108.19,0.037572,1.39706e-05,-0.133687,0.115777,0.671063,0.671063,-1.33787,1.45395e-08,-0.000248254,0.000235315,1.33477,0.9563157794128991,1.4539500048371679e-08,-0.000248223187525598,0.9563157794128991,0.00023534268874647601,-0.7375960057398379
968,0.9573,1108.47,1108.35,0.0375152,1.39747e-05,-0.13371,0.115807,0.671574,0.671574,-1.33889,1.45908e-08,-0.00024882,0.000235788,1.33579,0.9573157122372573,1.4590799901625928e-08,-0.0002487890468710896,0.9573157122372573,0.0002358158001753985,-0.7378635213578244
969,0.9583,1108.63,1108.51,0.0374584,1.39788e-05,-0.133733,0.115837,0.672084,0.672084,-1.33992,1.46421e-08,-0.000249385,0.00023626,1.33681,0.9583141978426855,1.4642099976924783e-08,-0.0002493539061456662,0.9583141978426855,0.00023628791159180373,-0.738133382928259
970,0.9593,1108.79,1108.67,0.0374018,1.39828e-05,-0.133756,0.115868,0.672595,0.672595,-1.34094,1.46934e-08,-0.00024995,0.000236732,1.33783,0.9593151521198202,1.4693400052223637e-08,-0.00024991876510116473,0.9593151521198202,0.00023676002323114176,-0.7384003507009621
971,0.9603,1108.95,1108.83,0.0373452,1.39868e-05,-0.133779,0.115898,0.673105,0.673105,-1.34196,1.47447e-08,-0.000250514,0.000237204,1.33885,0.9603146576996597,1.4744699905477887e-08,-0.0002504826239879687,0.9603146576996597,0.00023723213509341257,-0.7386670463053664
972,0.9613,1109.11,1108.99,0.0372888,1.39908e-05,-0.133801,0.115928,0.673615,0.673615,-1.34298,1.06566e-08,-0.000251079,0.000237675,1.33987,0.961314673157353,1.0656600046843323e-08,-0.00025104748230575513,0.961314673157353,0.00023770324694072364,-0.738933470018942
973,0.9623,1109.27,1109.15,0.0372325,1.39948e-05,-0.133824,0.115958,0.674125,0.674125,-1.34399,1.48475e-08,-0.000251643,0.000238147,1.34089,0.9623151987530036,1.4847499896220029e-08,-0.00025161134055595724,0.9623151987530036,0.00023817535924797184,-0.7391970141020574
974,0.9633,1109.43,1109.3,0.0371764,1.39988e-05,-0.133846,0.115988,0.674634,0.674634,-1.34501,1.04886e-08,-0.000252206,0.000238618,1.3419,0.9633142714315954,1.048859998853402e-08,-0.0002521741987403514,0.9633142714315954,0.00023864647153959417,-0.739462897524076
975,0.9643,1109.58,1109.46,0.0371203,1.40027e-05,-0.133868,0.116018,0.675144,0.675144,-1.34603,1.49503e-08,-0.000252769,0.000239089,1.34292,0.9643158170824582,1.4950300109006776e-08,-0.0002527370566077769,0.9643158170824582,0.00023911758405303907,-0.7397285098832698
976,0.9653,1109.74,1109.62,0.0370643,1.40066e-05,-0.13389,0.116048,0.675652,0.675652,-1.34705,1.50018e-08,-0.000253332,0.00023956,1.34394,0.9653139430200592,1.5001800024450063e-08,-0.00025329991415845576,0.9653139430200592,0.00023958869678830652,-0.7399938514559816
977,0.9663,1109.9,1109.78,0.0370085,1.40105e-05,-0.133913,0.116077,0.676161,0.676161,-1.34806,1.50533e-08,-0.000253895,0.00024003,1.34495,0.9663145424480077,1.5053300161937955e-08,-0.00025386277139205493,0.9663145424480077,0.00024005880950550562,-0.7402563250945111
978,0.9673,1110.06,1109.94,0.0369528,1.40144e-05,-0.133935,0.116107,0.67667,0.67667,-1.34908,1.51048e-08,-0.000254457,0.0002405,1.34597,0.9673156513107053,1.5104800077381242e-08,-0.00025442462856339887,0.9673156513107053,0.0002405289224436391,-0.7405211285701837
979,0.9683,1110.21,1110.09,0.0368971,1.40183e-05,-0.133956,0.116137,0.677178,0.677178,-1.3501,1.51563e-08,-0.000255019,0.00024097,1.34699,0.9683153015512345,1.5156300214869134e-08,-0.00025498648541877333,0.9683153015512345,0.00024099903560270697,-0.740785662084015
980,0.9693,1110.37,1110.25,0.0368416,1.40221e-05,-0.133978,0.116166,0.677686,0.677686,-1.35111,1.52079e-08,-0.000255581,0.00024144,1.348,0.9693154597430946,1.5207900050384637e-08,-0.0002555483419585114,0.9693154597430946,0.00024146914898270921,-0.7410473363975374
981,0.9703,1110.53,1110.41,0.0367863,1.4026e-05,-0.134,0.116196,0.678193,0.678193,-1.35213,1.52595e-08,-0.000256142,0.00024191,1.34901,0.9703141558292494,1.5259500107944746e-08,-0.00025610919843854774,0.9703141558292494,0.00024193926258364584,-0.741311333453025
982,0.9713,1110.69,1110.57,0.036731,1.40298e-05,-0.134021,0.116225,0.678701,0.678701,-1.35314,1.53111e-08,-0.000256703,0.000242379,1.35003,0.9713153296970425,1.5311100165504854e-08,-0.0002566700546040579,0.9713153296970425,0.00024240837616318345,-0.7415724771064931
983,0.9723,1110.84,1110.72,0.0366758,1.40336e-05,-0.134043,0.116254,0.679208,0.679208,-1.35415,1.53627e-08,-0.000257263,0.000242849,1.35104,0.9723150399743397,1.5362700223064962e-08,-0.00025722991071197576,0.9723150399743397,0.00024287849020554475,-0.7418333571380226
984,0.9733,1111.0,1110.88,0.0366208,1.40374e-05,-0.134064,0.116283,0.679715,0.679715,-1.35517,1.54144e-08,-0.000257823,0.000243318,1.35205,0.9733152572332562,1.5414400200697287e-08,-0.00025778976650647767,0.9733152572332562,0.00024334760422561885,-0.7420965528611039
985,0.9743,1111.16,1111.04,0.0365658,1.40412e-05,-0.134086,0.116313,0.680221,0.680221,-1.35618,1.54661e-08,-0.000258383,0.000243786,1.35307,0.9743140074159027,1.546610017832961e-08,-0.0002583496219874526,0.9743140074159027,0.00024381571822185144,-0.7423569038433362
986,0.9753,1111.31,1111.19,0.036511,1.40449e-05,-0.134107,0.116342,0.680728,0.680728,-1.35719,1.55178e-08,-0.000258943,0.000244255,1.35408,0.9753152384082722,1.5517800155961936e-08,-0.00025890947715490054,0.9753152384082722,0.0002442848326813518,-0.7426169920038237
987,0.9763,1111.47,1111.35,0.0364562,1.40487e-05,-0.134128,0.116371,0.681234,0.681234,-1.3582,1.55695e-08,-0.000259502,0.000244723,1.35509,0.9763150008374701,1.556950013359426e-08,-0.0002594683322683089,0.9763150008374701,0.0002447529471161225,-0.7428768176078825
988,0.9773,1111.62,1111.5,0.0364016,1.40524e-05,-0.134149,0.1164,0.68174,0.68174,-1.35922,1.56213e-08,-0.000260061,0.000245191,1.3561,0.9773152692744664,1.56213000312988e-08,-0.0002600271870693005,0.9773152692744664,0.0002452210617700512,-0.7431389495439082
989,0.9783,1111.78,1111.66,0.0363471,1.40561e-05,-0.13417,0.116428,0.682245,0.682245,-1.36023,1.16608e-08,-0.000260619,0.000245659,1.35711,0.9783140656603109,1.1660800103285851e-08,-0.000260585041818584,0.9783140656603109,0.00024568917664313794,-0.7433982482369863
990,0.9793,1111.94,1111.81,0.0362927,1.40598e-05,-0.134191,0.116457,0.682751,0.682751,-1.36124,1.57249e-08,-0.000261178,0.000246127,1.35812,0.979315345880067,1.5724900048752488e-08,-0.0002611438959952972,0.979315345880067,0.00024615729173516065,-0.7436572851705952
991,0.9803,1112.09,1111.97,0.0362385,1.40634e-05,-0.134211,0.116486,0.683256,0.683256,-1.36225,1.57767e-08,-0.000261735,0.000246594,1.35913,0.9803151525596749,1.5776700168501634e-08,-0.00026170075038300933,0.9803151525596749,0.00024662440679978914,-0.7439160606089784
992,0.9813,1112.25,1112.13,0.0361843,1.40671e-05,-0.134232,0.116515,0.683761,0.683761,-1.36325,1.58285e-08,-0.000262293,0.000247062,1.36014,0.9813154642691655,1.5828500066206175e-08,-0.0002622586041983732,0.9813154642691655,0.00024709252232946177,-0.7441720165490697
993,0.9823,1112.4,1112.28,0.0361302,1.40707e-05,-0.134253,0.116543,0.684265,0.684265,-1.36426,1.58804e-08,-0.00026285,0.000247529,1.36115,0.9823142989483531,1.5880400106027537e-08,-0.00026281545796524863,0.9823142989483531,0.000247559637830852,-0.7444302723712111
994,0.9833,1112.56,1112.44,0.0360762,1.40744e-05,-0.134273,0.116572,0.68477,0.68477,-1.36527,1.59323e-08,-0.000263407,0.000247995,1.36215,0.9833156204817288,1.59323001458489e-08,-0.00026337231142192774,0.9833156204817288,0.00024802575330218346,-0.7446882674866512
995,0.9843,1112.71,1112.59,0.0360224,1.4078e-05,-0.134293,0.1166,0.685274,0.685274,-1.36628,1.59842e-08,-0.000263963,0.000248462,1.36316,0.9843154634937261,1.598420018567026e-08,-0.00026392816483244985,0.9843154634937261,0.0002484928692392252,-0.7449460021585708
996,0.9853,1112.87,1112.74,0.0359687,1.40816e-05,-0.134314,0.116628,0.685778,0.685778,-1.36729,1.60361e-08,-0.000264519,0.000248928,1.36417,0.9853158105536106,1.6036100225491623e-08,-0.0002644840179338859,0.9853158105536106,0.00024895898514554204,-0.745203476649885
997,0.9863,1113.02,1112.9,0.035915,1.40851e-05,-0.134334,0.116657,0.686281,0.686281,-1.36829,1.60881e-08,-0.000265075,0.000249395,1.36517,0.9863146755998182,1.60881001853852e-08,-0.0002650398707262358,0.9863146755998182,0.00024942610151845734,-0.745458145817429
998,0.9873,1113.17,1113.05,0.0358615,1.40887e-05,-0.134354,0.116685,0.686784,0.686784,-1.3693,1.61401e-08,-0.000265631,0.000249861,1.36618,0.9873140432015257,1.614010014527878e-08,-0.00026559572320949965,0.9873140432015257,0.0002498922178595375,-0.7457151033047786
999,0.9883,1113.33,1113.21,0.0358081,1.40922e-05,-0.134374,0.116713,0.687287,0.687287,-1.3703,1.61921e-08,-0.000266186,0.000250326,1.36718,0.988313913611583,1.6192100105172358e-08,-0.00026615057564993716,0.988313913611583,0.00025035733416767236,-0.7459692611013957
