,Time,S11,S22,S33,S12,S13,S23,LE11,LE22,LE33,LE12,LE13,LE23,SDV_EPBAR,E11,E12,E13,E22,E23,E33
0,1e-05,0.91294,-1.11022e-16,-1.11022e-16,0.0,0.0,-7.43552e-18,9.99995e-06,-2.99999e-06,-2.99999e-06,0.0,0.0,0.0,0.0,9.999999999621423e-06,0.0,0.0,-2.999985500018454e-06,0.0,-2.999985500018454e-06
1,2e-05,1.82587,1.11022e-16,1.66533e-16,0.0,0.0,0.0,1.99998e-05,-5.99994e-06,-5.99994e-06,0.0,0.0,0.0,0.0,1.9999999997244444e-05,0.0,0.0,-5.999922000343716e-06,0.0,-5.999922000343716e-06
2,3.5e-05,3.19525,-1.66533e-16,-1.66533e-16,0.0,0.0,-2.97421e-17,3.49994e-05,-1.04998e-05,-1.04998e-05,0.0,0.0,0.0,0.0,3.5000012486241516e-05,0.0,0.0,-1.0499744877323636e-05,0.0,-1.0499744877323636e-05
3,5.75e-05,5.24928,-1.94289e-15,-1.94289e-15,0.0,0.0,-2.97421e-17,5.74983e-05,-1.72495e-05,-1.72495e-05,0.0,0.0,0.0,0.0,5.749995305892597e-05,0.0,0.0,-1.7249351228265652e-05,0.0,-1.7249351228265652e-05
4,9.125e-05,8.33024,-1.2268e-14,-1.2601e-14,0.0,0.0,-2.97421e-17,9.12458e-05,-2.73738e-05,-2.73738e-05,0.0,0.0,0.0,0.0,9.124996302456445e-05,0.0,0.0,-2.737342534098186e-05,0.0,-2.737342534098186e-05
5,0.00014188,12.9515,-6.86673e-14,-6.87783e-14,0.0,0.0,0.0,0.000141865,-4.25595e-05,-4.25595e-05,0.0,0.0,0.0,0.0,0.00014187506331508892,0.0,0.0,-4.255859435731146e-05,0.0,-4.255859435731146e-05
6,0.00021781,19.8829,-3.51108e-13,-3.51219e-13,0.0,0.0,5.94842e-17,0.000217789,-6.53366e-05,-6.53366e-05,0.0,0.0,0.0,0.0,0.0002178127177461242,0.0,0.0,-6.533446561085565e-05,0.0,-6.533446561085565e-05
7,0.00033172,30.2791,-1.77597e-12,-1.77497e-12,0.0,0.0,-5.94842e-17,0.000331664,-9.94991e-05,-9.94991e-05,0.0,0.0,0.0,0.0,0.0003317190065854625,0.0,0.0,-9.949415012866503e-05,0.0,-9.949415012866503e-05
8,0.00050258,45.8711,-8.98531e-12,-8.98431e-12,0.0,0.0,-1.78452e-16,0.000502452,-0.000150736,-0.000150736,0.0,0.0,0.0,0.0,0.0005025782501502096,0.0,0.0,-0.00015072463989995732,0.0,-0.00015072463989995732
9,0.00075887,69.2541,-4.54513e-11,-4.54511e-11,0.0,0.0,-1.78452e-16,0.000758579,-0.000227574,-0.000227574,0.0,0.0,0.0,0.0,0.0007588667938165372,0.0,0.0,-0.0002275481070015406,0.0,-0.0002275481070015406
10,0.0011433,104.317,-2.29861e-10,-2.29858e-10,0.0,0.0,-1.78452e-16,0.00114265,-0.000342794,-0.000342794,0.0,0.0,0.0,0.0,0.0011433030732321825,0.0,0.0,-0.00034273525284966855,0.0,-0.00034273525284966855
11,0.00172,129.412,-0.0338098,-0.0193232,2.40779,-0.894743,0.000315926,0.00171848,-0.000557667,-0.000594031,-6.98816e-05,5.72279e-06,2.17882e-08,0.000300743,0.0017199574329469502,-6.987915833789327e-05,5.7228063752301495e-06,-0.0005575115326595936,2.1788200132988322e-08,-0.0005938545985165744
12,0.0025849,131.804,-0.0902656,-0.0749063,3.83025,-1.71655,0.000395079,0.00258163,-0.000933122,-0.00107164,-0.000386586,5.62061e-05,-1.81167e-07,0.00113825,0.00258496527626062,-0.0003865112852604602,5.6207679592468196e-05,-0.0009326867770491631,-1.8116698363712658e-07,-0.0010710659989143778
13,0.0034499,134.182,-0.0283344,-0.0377614,4.91955,-2.35249,-0.000905935,0.0034441,-0.00130719,-0.00154904,-0.000692484,0.000102963,-6.00885e-07,0.00197689,0.003450037727156907,-0.0006922442882902891,0.00010296830087153097,-0.0013063359993061852,-6.008848194571925e-07,-0.0015478408567927149
14,0.0043149,136.419,0.00149942,-0.0229601,5.93269,-2.93056,-0.00132819,0.00430586,-0.00168097,-0.00202685,-0.000982548,0.00014355,-1.1339e-06,0.00281722,0.004315143534921129,-0.000982065457767134,0.00014356030379425455,-0.0016795579612386424,-1.1338993571863298e-06,-0.0020247973265933306
15,0.0056123,139.537,-0.00576693,-0.0535169,7.31663,-3.68853,-0.00393187,0.00559717,-0.00224055,-0.00274504,-0.00138609,0.000194254,-1.10459e-06,0.00407999,0.005612863421925907,-0.0013851298209387464,0.00019427286853002101,-0.002238041841416738,-1.1045893899552794e-06,-0.0027412758227592926
16,0.0075585,144.095,0.122769,0.133295,8.9783,-4.67418,0.00244193,0.00753113,-0.00307748,-0.00382059,-0.00194352,0.000247031,-3.4866e-07,0.0059777,0.0075595602854492405,-0.0019416325879438867,0.0002470615146701327,-0.003072749412431963,-3.4865993925325967e-07,-0.003813300831954969
17,0.0082884,145.542,0.0105095,-0.00035028,9.51768,-4.93166,0.00738745,0.00825544,-0.00339163,-0.00422548,-0.00214821,0.000268056,1.1662e-07,0.00669052,0.008289610109837087,-0.0021459042482731006,0.00026809193022003797,-0.003385884919868909,1.166200067626022e-07,-0.004216565220212853
18,0.0093831,147.712,-0.0277693,-0.0761287,10.4636,-5.40325,-0.0010398,0.00934094,-0.00386099,-0.0048326,-0.00243328,0.000291293,2.26819e-07,0.00776122,0.00938470273560399,-0.0024303219739424398,0.0002913354299256543,-0.0038535459616442225,2.2681902578369773e-07,-0.0048209417760248785
19,0.011025,151.064,0.101558,0.0848672,11.656,-6.0808,0.00261101,0.010967,-0.0045626,-0.00574106,-0.00283482,0.000313116,1.06893e-06,0.00936838,0.011027357991395315,-0.0028308056919599256,0.00031316502593159434,-0.004552207152762833,1.0689305713906805e-06,-0.005724611607161756
20,0.013488,155.378,-0.146882,-0.158469,13.1125,-6.77286,0.00310504,0.0134013,-0.00561382,-0.00710714,-0.00339364,0.000338565,2.40333e-06,0.011784,0.01349149990244336,-0.003387888112227011,0.0003386223195982474,-0.005598091957733309,2.403332888034626e-06,-0.007081944006330665
21,0.014412,157.322,0.210078,0.137608,13.5879,-7.06813,0.00466831,0.0143126,-0.00600399,-0.00761694,-0.00359841,0.000344759,3.0034e-06,0.0126881,0.014415515670141765,-0.0035919434814563056,0.0003448184362142559,-0.005986002069828911,3.0034045102045326e-06,-0.007588004625464162
22,0.015798,159.592,0.174054,0.0784979,14.4363,-7.44782,-0.00248947,0.0156781,-0.00659174,-0.00838511,-0.00388529,0.000351417,3.49259e-06,0.0140482,0.015801646222043164,-0.0038777520263724163,0.0003514787541876174,-0.006570062139645727,3.492596098997325e-06,-0.008350053019120951
23,0.017876,162.979,0.189076,0.129207,15.5054,-7.99368,0.00138138,0.0177228,-0.00747094,-0.00953545,-0.00429145,0.00035124,4.93067e-06,0.0160889,0.017880780726864387,-0.004282254886607828,0.00035130169199137917,-0.007443101896497661,4.930682155679378e-06,-0.009490131754324338
24,0.018655,164.083,0.0745988,-0.00224546,15.8568,-8.12956,0.00253085,0.0184886,-0.00780066,-0.00996769,-0.00444166,0.000352687,5.50057e-06,0.0168543,0.01866057237285723,-0.00443181041645202,0.0003527492013724043,-0.007770313809819851,5.500585128270785e-06,-0.009918177223923519
25,0.019824,165.773,0.0188769,-0.066994,16.4925,-8.4064,-0.000276531,0.019636,-0.00829375,-0.0106152,-0.00465393,0.000350289,6.18978e-06,0.0180029,0.019830054317084622,-0.004643117248210871,0.0003503503583559553,-0.008259451741361445,6.18979915678608e-06,-0.010559057594373145
26,0.021578,168.489,0.172272,0.0923485,17.3185,-8.82752,3.26238e-05,0.0213548,-0.00903022,-0.0115842,-0.00495768,0.000340353,7.45725e-06,0.0197252,0.021584445506320327,-0.004945410988160814,0.0003404109266540445,-0.008989570014834358,7.457277805267282e-06,-0.011517361494340572
27,0.024208,172.288,0.268122,0.161617,18.3581,-9.29444,-0.00177414,0.0239274,-0.0101316,-0.0130379,-0.00538861,0.000322841,9.29711e-06,0.0223086,0.0242159571128715,-0.005374117484324148,0.00032289311876421145,-0.010080448236210682,9.297153218179588e-06,-0.012953274759509914
28,0.026838,175.505,-0.106302,-0.17403,19.2361,-9.63233,-0.000192078,0.0264935,-0.011233,-0.0144915,-0.00580142,0.00030482,1.1419e-05,0.0248915,0.026847572730767322,-0.005784624258405202,0.00030486646233707226,-0.011170145424124311,1.1419065196971445e-05,-0.014387003592753356
29,0.029469,178.867,-0.120618,-0.196646,20.0748,-9.99057,-0.00101456,0.0290531,-0.0123282,-0.0159411,-0.00619394,0.000281977,1.35164e-05,0.0274709,0.029479258372411055,-0.006174797097360352,0.0002820167592512135,-0.012252519064861134,1.3516491346843296e-05,-0.015814713138457948
30,0.032099,182.107,-0.0937314,-0.185357,20.8752,-10.3311,-0.00200306,0.0316061,-0.0134195,-0.0173884,-0.00656803,0.000255971,1.56326e-05,0.0300476,0.03211087675053026,-0.006546507636581489,0.00025600376337187036,-0.013329859932840749,1.5632722189629078e-05,-0.017238094225948353
31,0.034729,185.585,0.356354,0.195047,21.6463,-10.7074,-0.00576602,0.0341526,-0.0145037,-0.0188317,-0.00692443,0.000224905,1.75473e-05,0.0326202,0.0347424963857792,-0.006900511374046681,0.00022493029302572687,-0.014399027997960445,1.754745395476931e-05,-0.01865549137385014
32,0.03736,188.426,0.282246,0.0613312,22.3838,-11.0206,0.00593038,0.0366927,-0.0155873,-0.0202765,-0.00726523,0.000193477,2.04191e-05,0.0351917,0.03737418676421811,-0.0072389020147299865,0.00019349571788196407,-0.015466446779280218,2.041930847118678e-05,-0.020072314160670124
33,0.03999,191.021,-0.0223378,-0.160417,23.0779,-11.2343,-0.00518099,0.0392264,-0.0166703,-0.021718,-0.00759225,0.000163036,2.22285e-05,0.0377604,0.0400059143374043,-0.007563501670810657,0.00016304929109089983,-0.016532119451506566,2.2228747055041964e-05,-0.021483862302060786
34,0.04262,194.101,0.375563,0.177204,23.7637,-11.556,-0.00880437,0.0417537,-0.0177445,-0.0231542,-0.00790437,0.000126733,2.41678e-05,0.0403234,0.0426376454709636,-0.007873212614664893,0.00012674103096599332,-0.01758799343734241,2.4168092043641565e-05,-0.022888198483820177
35,0.045251,196.673,0.369488,0.0830659,24.421,-11.823,-0.000115074,0.0442746,-0.0188169,-0.0245918,-0.00820384,9.14353e-05,2.68393e-05,0.0428843,0.045269346445233394,-0.008170280340027203,9.143948033440985e-05,-0.01864096736764509,2.6839660177246927e-05,-0.024291885197920582
36,0.047881,198.906,-0.0145836,-0.196996,25.0448,-11.9965,-0.00741596,0.0467892,-0.0198902,-0.0260261,-0.00849193,5.73765e-05,2.88101e-05,0.0454422,0.04790108824601558,-0.00845597540904186,5.737814606288083e-05,-0.01969369497004214,2.8810515015020854e-05,-0.02569034020522898
37,0.048867,200.18,0.389479,0.131006,25.2912,-12.1462,-0.010677,0.0477306,-0.0202877,-0.026561,-0.00859727,4.19384e-05,2.95438e-05,0.0463984,0.04888804681900094,-0.008560419155443588,4.193927942708342e-05,-0.020083289289290707,2.954423642242965e-05,-0.026211359083331498
38,0.050347,201.189,0.0103332,-0.168776,25.7251,-12.2642,-0.00370098,0.0491409,-0.0208905,-0.0273672,-0.00874814,2.08508e-05,3.11574e-05,0.0478358,0.05036833721284961,-0.008709986362119615,2.0851017379364123e-05,-0.02067380508316563,3.115788539687081e-05,-0.02699611110959199
39,0.052566,203.192,0.0405031,-0.168786,26.293,-12.46,-0.0105892,0.0512527,-0.0217879,-0.0285727,-0.00896645,-1.18151e-05,3.28651e-05,0.0499876,0.05258884888041093,-0.008926371264643462,-1.181503020197816e-05,-0.021552258189621698,3.286564006321768e-05,-0.02816836058231742
40,0.055895,205.874,-0.226045,-0.402919,27.0368,-12.7017,-0.0108351,0.054412,-0.023132,-0.0303781,-0.00927962,-6.06536e-05,3.58125e-05,0.0532108,0.05591955140456073,-0.009236697198031996,-6.065176060754407e-05,-0.022866506361044814,3.5813141275209404e-05,-0.02992132254921076
41,0.059224,208.57,-0.386517,-0.558883,27.6849,-12.9114,-0.011215,0.0575614,-0.0244706,-0.0321784,-0.00958205,-0.000108536,3.87723e-05,0.0564258,0.05925030662693431,-0.009536288438725449,-0.00010853011018141512,-0.02417362220781405,3.877305165533862e-05,-0.03166618408384536
42,0.062553,211.39,-0.294983,-0.493702,28.3195,-13.1454,-0.013163,0.060701,-0.0258024,-0.0339729,-0.00987173,-0.000157538,4.16456e-05,0.0596327,0.06258115491923122,-0.00982316441356823,-0.00015752559154091905,-0.025472362754463962,4.164646718995968e-05,-0.03340230091978458
43,0.065882,214.189,-0.122133,-0.357494,28.9387,-13.3815,-0.0156519,0.0638306,-0.0271286,-0.0357627,-0.0101493,-0.000207061,4.4453e-05,0.0628319,0.06591181800477708,-0.01009796965721188,-0.00020703956435064175,-0.026763924682963625,4.445398804930889e-05,-0.03513077021301525
44,0.069211,216.857,0.00133206,-0.263504,29.5412,-13.6033,-0.0179497,0.0669506,-0.02845,-0.0375484,-0.0104154,-0.000256494,4.72119e-05,0.0660238,0.06924265628268977,-0.010361347543504151,-0.0002564611082261914,-0.028049109524257987,4.721301449928106e-05,-0.03685219976084375
45,0.07254,219.387,0.0616053,-0.225874,30.1276,-13.8085,-0.0195462,0.0700608,-0.029767,-0.03933,-0.0106705,-0.000305513,4.99543e-05,0.0692085,0.07257339173401522,-0.01061377216561632,-0.0003054663356557574,-0.02932832629787019,4.9955547736901806e-05,-0.03856661622608537
46,0.075869,221.828,0.10546,-0.201846,30.6996,-14.0047,-0.0211617,0.0731613,-0.0310793,-0.0411072,-0.0109152,-0.000354246,5.2657e-05,0.0723856,0.07590406624507207,-0.010855845356704585,-0.0003541832622941943,-0.030601303288730786,5.2658386404225155e-05,-0.04027375822002721
47,0.079198,224.592,0.589707,0.207011,31.2654,-14.2535,-0.0256437,0.0762523,-0.0323833,-0.0428781,-0.0111489,-0.000405266,5.51526e-05,0.0755536,0.07923483075846982,-0.011086981336353552,-0.0004051838908269989,-0.031864575356846614,5.515412093259897e-05,-0.04197183341713617
48,0.082527,226.882,0.633504,0.203539,31.8072,-14.4365,-0.0255586,0.0793338,-0.0336851,-0.0446474,-0.0113736,-0.000453651,5.78129e-05,0.0787156,0.08256562217065389,-0.011309165128363441,-0.00045354811594355837,-0.033124074067065634,5.7814571197800646e-05,-0.04366537401978565
49,0.085856,228.65,0.132016,-0.222989,32.3333,-14.5388,-0.0250545,0.0824057,-0.0349871,-0.0464136,-0.0115895,-0.000498826,6.05179e-05,0.0818715,0.08589626859261568,-0.011522600438441444,-0.0004987016069951666,-0.03438212735222024,6.051973124510113e-05,-0.0453529614890007
50,0.089185,231.245,0.634681,0.204971,32.8641,-14.7738,-0.0299134,0.0854683,-0.0362771,-0.0481706,-0.0117952,-0.000548529,6.29246e-05,0.0850161,0.0892270322998594,-0.011725909328495043,-0.0005483785854716317,-0.035626971310953826,6.292657979423133e-05,-0.04702880367718498
51,0.092514,233.322,0.635854,0.165743,33.3705,-14.9337,-0.0297234,0.0885214,-0.0375655,-0.0499264,-0.0119929,-0.000595104,6.55137e-05,0.0881549,0.0925576330936555,-0.011921271804003708,-0.0005949269607352647,-0.03686866944741163,6.55158460693972e-05,-0.04870056243719367
52,0.095844,234.989,0.205889,-0.199668,33.864,-15.0291,-0.0295239,0.0915653,-0.0388533,-0.0516785,-0.0121827,-0.000638894,6.8126e-05,0.091287,0.0958883358644409,-0.012108791350447401,-0.0006386899506859445,-0.03810819167522983,6.812832062874641e-05,-0.0503658748587783
53,0.099173,236.987,0.216217,-0.202839,34.3539,-15.1814,-0.0311036,0.0945999,-0.0401336,-0.0534239,-0.012364,-0.000683841,7.06567e-05,0.0944096,0.09921896962313004,-0.01228787979171786,-0.0006836072340326016,-0.03933891374258325,7.065919624338335e-05,-0.0520219206092557
54,0.1025,238.897,0.182334,-0.247238,34.8326,-15.3236,-0.0321157,0.0976254,-0.0414099,-0.055165,-0.0125377,-0.00072788,7.31932e-05,0.0975246,0.10254969262625857,-0.012459430487388734,-0.000727615159614059,-0.040564223389292664,7.319587868770405e-05,-0.05367100921260792
55,0.1058,240.807,0.196559,-0.248196,35.3032,-15.4682,-0.0335895,0.100642,-0.0426814,-0.0569013,-0.0127038,-0.000771461,7.56899e-05,0.100631,0.10588066560963294,-0.012623447354007,-0.0007711635004707951,-0.041783370742072834,7.56927645526595e-05,-0.05531269459770749
56,0.1092,242.697,0.235495,-0.227262,35.765,-15.6121,-0.0352411,0.103649,-0.0439483,-0.058633,-0.0128625,-0.00081453,7.81489e-05,0.10373,0.1092110534998536,-0.012780131579689713,-0.0008141983604891267,-0.042996566728413566,7.815195370475259e-05,-0.05694719396473635
57,0.1125,244.545,0.27209,-0.20825,36.2178,-15.7516,-0.0368746,0.106647,-0.0452109,-0.0603601,-0.0130142,-0.000856948,8.05759e-05,0.106821,0.11254145802014826,-0.012929881474912364,-0.0008565809249249101,-0.04420411677649805,8.05791463249772e-05,-0.05857453477137353
58,0.1158,246.783,0.789748,0.230893,36.6716,-15.9569,-0.0416732,0.109636,-0.0464654,-0.0620807,-0.0131582,-0.000901755,8.27837e-05,0.109903,0.11587181918344203,-0.013072009338528146,-0.0009013485411446531,-0.045402410924844094,8.278712666509591e-05,-0.060192958697468435
59,0.1191,248.437,0.791926,0.0488913,37.0931,-16.0671,-0.0369665,0.112616,-0.0477169,-0.063803,-0.0132971,-0.000939431,8.5449e-05,0.112979,0.11920207682399164,-0.013209084116367342,-0.0009389898728451307,-0.04659634254902467,8.545265086978837e-05,-0.06181019528164966
60,0.1225,249.772,0.282639,-0.247952,37.5228,-16.1388,-0.0399847,0.115588,-0.048971,-0.0655179,-0.0134292,-0.000977953,8.77978e-05,0.116048,0.12253329313175354,-0.013339430586781664,-0.0009774749598111532,-0.04779125664833783,8.780165433974751e-05,-0.06341771821326214
61,0.1237,250.807,0.759803,0.131781,37.6966,-16.2515,-0.044942,0.1167,-0.0494351,-0.0661575,-0.0134769,-0.000994831,8.85062e-05,0.117195,0.12378224444194585,-0.013386493173491054,-0.0009943363196953658,-0.048233074194435566,8.851011678934206e-05,-0.0640165647091685
62,0.1256,251.34,0.324239,-0.23379,37.9796,-16.2722,-0.0396198,0.118366,-0.0501385,-0.067121,-0.0135452,-0.00101561,9.00448e-05,0.118917,0.1256560260878985,-0.013453876574837986,-0.0010150944427137487,-0.04890231165164016,9.004885415464514e-05,-0.06491795043676485
63,0.1284,252.744,0.358642,-0.199811,38.3751,-16.3826,-0.0441519,0.120859,-0.0511864,-0.0685599,-0.0136425,-0.0010489,9.18801e-05,0.121493,0.12846578747326887,-0.013549862842839544,-0.0010483500966763648,-0.04989844490408879,9.188432110573963e-05,-0.06626247244954075
64,0.1326,254.562,0.105939,-0.421519,38.8954,-16.5015,-0.0450054,0.124587,-0.052755,-0.0707136,-0.0137812,-0.00109648,9.48148e-05,0.125349,0.1326805593824063,-0.013686673988790976,-0.0010958790854551648,-0.051387605949063886,9.481929506516273e-05,-0.06827129898129314
65,0.1368,256.447,-0.0369303,-0.562455,39.3583,-16.6109,-0.0457872,0.128301,-0.0543166,-0.0728593,-0.0139142,-0.00114203,9.77315e-05,0.12919,0.13689515664245766,-0.013817844938089019,-0.0011413781319141725,-0.05286780302493699,9.773627587872369e-05,-0.07026836593557428
66,0.141,258.479,0.0353575,-0.513988,39.8184,-16.7472,-0.0479247,0.132002,-0.0558703,-0.0749966,-0.0140398,-0.00118718,0.000100542,0.133018,0.14111060148615584,-0.013941701638401138,-0.0011864755806089144,-0.05433821973036268,0.00010054705451634227,-0.07225335933823118
67,0.1453,260.513,0.160692,-0.419697,40.2724,-16.8875,-0.0502629,0.135689,-0.0574173,-0.0771267,-0.0141584,-0.0012314,0.000103269,0.136833,0.14532564192595965,-0.014058641217932655,-0.0012306421381289567,-0.05580002750459212,0.00010327433242673933,-0.07422744920666646
68,0.1495,262.479,0.25525,-0.351165,40.7185,-17.0215,-0.0526027,0.139362,-0.0589581,-0.0792499,-0.0142702,-0.00127437,0.000105929,0.140636,0.14954015822980193,-0.014168863300315304,-0.0012735583353751245,-0.05725373060174832,0.00010593461067465171,-0.07619096428128402
69,0.1537,264.374,0.315694,-0.312596,41.1569,-17.1481,-0.0545881,0.143022,-0.0604929,-0.0813662,-0.0143754,-0.00131602,0.000108536,0.144427,0.15375518400085175,-0.014272567280971149,-0.0013151544254259573,-0.05869954777210895,0.00010854189024467331,-0.07814395405853403
70,0.1579,266.22,0.364462,-0.284024,41.5881,-17.2707,-0.0564805,0.146669,-0.0620216,-0.0834755,-0.0144741,-0.00135643,0.000111087,0.148204,0.15797061131630108,-0.014369853777412844,-0.0013555104646363336,-0.06013741446001142,0.00011109317038937583,-0.08008637572105548
71,0.1621,268.027,0.410537,-0.257625,42.0125,-17.3904,-0.0583405,0.150302,-0.0635442,-0.0855779,-0.0145665,-0.00139567,0.000113584,0.15197,0.16218516965688612,-0.014460921795516612,-0.0013946965055705585,-0.06156736033870225,0.00011359045090686415,-0.08201837050019589
72,0.1663,270.27,0.985803,0.229675,42.4402,-17.5783,-0.0636592,0.153922,-0.0650565,-0.0876711,-0.014652,-0.00143683,0.000115819,0.155721,0.16639990403764382,-0.014545181784537231,-0.0014357982539825453,-0.06298547943862876,0.00011582570727930452,-0.08393787998757674
73,0.1705,271.961,0.980684,0.20485,42.8481,-17.6847,-0.0647264,0.157529,-0.0665666,-0.0897607,-0.0147321,-0.00147427,0.000118152,0.159462,0.17061470531590905,-0.014624113554216778,-0.0014731837978342321,-0.06439939721881682,0.00011815898022238258,-0.08585008482614731
74,0.1748,273.655,1.00897,0.222233,43.2519,-17.7933,-0.0667,0.161123,-0.0680708,-0.0918429,-0.0148063,-0.00151075,0.000120401,0.163191,0.1748294639513044,-0.014697225732495656,-0.0015096093916824316,-0.06580566972281532,0.0001204082484913549,-0.0877515474797621
75,0.179,275.277,0.992716,0.195205,43.6478,-17.8938,-0.0680606,0.164705,-0.0695693,-0.0939185,-0.0148751,-0.00154579,0.000122632,0.166908,0.1790452490546679,-0.014765012231482966,-0.0015445958820023975,-0.06720451158271357,0.00012263951961100084,-0.08964304669086542
76,0.1832,276.892,1.003,0.191399,44.0384,-17.996,-0.0695858,0.168273,-0.071062,-0.0959871,-0.0149385,-0.00157975,0.000124818,0.170612,0.18325959642807077,-0.014827474149643693,-0.001578502851782626,-0.06859585671948709,0.00012482579009076566,-0.09152426466989749
77,0.1874,277.985,0.460393,-0.29502,44.4117,-18.0213,-0.0672463,0.171829,-0.0725532,-0.0980511,-0.0149975,-0.00160925,0.000127199,0.174306,0.18747475766788035,-0.014885597614009871,-0.0016079558515146308,-0.06998373152131254,0.0001272070901359168,-0.09339742482135571
78,0.1916,279.543,0.469418,-0.297939,44.7925,-18.1212,-0.0689921,0.175372,-0.0740352,-0.100105,-0.0150509,-0.00163992,0.000129416,0.177986,0.19168944263986765,-0.014938201318565825,-0.0016385760659453075,-0.07136099482701208,0.00012942437461171963,-0.09525758490519254
79,0.1958,281.605,1.07686,0.218535,45.1791,-18.3018,-0.0745399,0.178902,-0.0755066,-0.10215,-0.0150982,-0.00167315,0.00013136,0.181651,0.19590353987805909,-0.01498479363972638,-0.0016717510648569522,-0.07272638949202659,0.00013136862810259053,-0.097105892605299
80,0.2,283.114,1.11117,0.198554,45.5431,-18.3977,-0.0747249,0.18242,-0.0769758,-0.104192,-0.0151414,-0.00170211,0.000133466,0.185308,0.2001181376620842,-0.015027345377517043,-0.001700662232310357,-0.07408773958792614,0.00013347490698278897,-0.09894772122557849
81,0.2042,284.612,1.119,0.225233,45.9076,-18.4926,-0.0773367,0.185926,-0.0784402,-0.106227,-0.0151796,-0.00173073,0.000135417,0.188952,0.20433313642798856,-0.015064970614277029,-0.0017292331505055492,-0.07544265319220178,0.00013542616929584916,-0.10077949814771614
82,0.2085,286.06,1.11636,0.211879,46.2631,-18.5811,-0.0787844,0.189419,-0.079899,-0.108255,-0.0152134,-0.00175812,0.000137364,0.192584,0.20854722769924305,-0.015098260855662016,-0.001756575412355521,-0.07679041415386567,0.0001373734348661948,-0.10260126942501813
83,0.2127,287.494,1.12369,0.206669,46.6134,-18.6695,-0.0802118,0.192901,-0.0813523,-0.110277,-0.0152427,-0.00178449,0.000139277,0.196205,0.2127627240660972,-0.015127118053858912,-0.0017828987443873068,-0.0781311401704392,0.000139286699491592,-0.10441397639389327
84,0.2169,288.898,1.12172,0.193718,46.9583,-18.755,-0.0815789,0.19637,-0.0828003,-0.112292,-0.0152678,-0.00180975,0.000141158,0.199814,0.21697710357082767,-0.0151518380529585,-0.0018081133899027213,-0.0794650403027104,0.00014116796325924774,-0.1062167653116477
85,0.2211,290.286,1.12607,0.186436,47.2982,-18.8398,-0.0829786,0.199827,-0.0842429,-0.1143,-0.0152887,-0.00183402,0.000143005,0.203411,0.22119147375963566,-0.015172421164448835,-0.001832339213009182,-0.08079204663576622,0.00014301522570248082,-0.10800968135676325
86,0.2253,291.65,1.12621,0.175662,47.6329,-18.9225,-0.0843396,0.203272,-0.0856802,-0.116302,-0.0153056,-0.00185724,0.00014482,0.206997,0.22540573328085234,-0.015189064609893665,-0.0018555163970044308,-0.08211227521758557,0.000144830486922487,-0.10979365961659959
87,0.2295,292.997,1.12956,0.167838,47.9628,-19.0042,-0.0857114,0.206705,-0.0871122,-0.118297,-0.0153185,-0.00187949,0.000146603,0.210571,0.22961978043643172,-0.015201768589019338,-0.0018777248646945077,-0.08342574976724293,0.0001466137467449613,-0.11156785092139421
88,0.2337,294.322,1.13113,0.158636,48.2877,-19.0842,-0.0870604,0.210127,-0.088539,-0.120286,-0.0153277,-0.00190075,0.000148353,0.214134,0.2338347470197757,-0.01521082869107182,-0.0018989447186960051,-0.08473258538924211,0.00014836400485052081,-0.11333318625792943
89,0.238,295.147,0.591075,-0.325077,48.5946,-19.0893,-0.0837611,0.213537,-0.0899649,-0.122271,-0.0153342,-0.00191784,0.000150343,0.217687,0.23804930524494572,-0.015217229799881715,-0.0019160021199748911,-0.08603673518117605,0.00015035430207510636,-0.11509147420508237
90,0.2422,296.476,0.637174,-0.289213,48.9148,-19.1724,-0.0864215,0.216935,-0.0913818,-0.124246,-0.0153364,-0.0019365,0.000152088,0.221226,0.24226335239552022,-0.015219396319593015,-0.0019346261936121767,-0.08733081272536192,0.00015209956596629048,-0.1168374438309907
91,0.2464,298.255,1.21313,0.199535,49.2398,-19.3321,-0.0917221,0.220322,-0.0927892,-0.126213,-0.0153341,-0.00195771,0.000153615,0.224752,0.24647803190067408,-0.015217131321599742,-0.0019557949356953097,-0.08861439986738562,0.0001536267993882401,-0.11857291718137664
92,0.2506,299.004,0.662415,-0.318006,49.5225,-19.3512,-0.0825974,0.223697,-0.0941995,-0.12818,-0.0153306,-0.00197304,0.000155855,0.228271,0.2506920023334651,-0.01521368457552763,-0.00197109483608493,-0.08989882105676394,0.00015586714602155993,-0.12030498021083269
93,0.2548,300.292,0.70439,-0.261,49.8382,-19.4081,-0.0909393,0.227061,-0.0956012,-0.130136,-0.0153223,-0.00198853,0.000157318,0.231777,0.25490641489688204,-0.015205510815188505,-0.0019865541840929923,-0.09117361623036868,0.0001573303751254418,-0.12202398193778541
94,0.259,301.953,1.20461,0.162992,50.148,-19.5532,-0.0957348,0.230413,-0.0969941,-0.132084,-0.0153102,-0.00200681,0.000158757,0.23527,0.2591199190874298,-0.015193594729777216,-0.0020047977031362185,-0.09243863927049512,0.0001587696025593388,-0.12373261447256889
95,0.2632,302.665,0.665122,-0.343323,50.4177,-19.5693,-0.0866764,0.233755,-0.0983894,-0.134032,-0.0152971,-0.00201961,0.000160884,0.238756,0.2633349372292202,-0.01518069368136643,-0.00201757195997021,-0.09370407659946578,0.00016089694252485742,-0.12543792183094793
96,0.2674,304.434,1.30497,0.229838,50.7335,-19.709,-0.099009,0.237085,-0.0997716,-0.135966,-0.0152785,-0.00203627,0.00016203,0.242226,0.2675488548490552,-0.015162375871913825,-0.0020341982087243027,-0.09495589349483635,0.00016204312756951111,-0.12712769035726734
97,0.2717,305.498,1.29486,0.0135144,50.9979,-19.75,-0.0942333,0.240404,-0.101151,-0.137903,-0.0152592,-0.00204487,0.00016382,0.245689,0.27176283873620743,-0.015143368322345974,-0.002042780677715017,-0.09620345069733183,0.00016383341922887595,-0.12881680758288605
98,0.2759,306.285,0.768549,-0.261799,51.2888,-19.7778,-0.0967324,0.243712,-0.102532,-0.13983,-0.0152359,-0.00205574,0.000165326,0.249141,0.2759767962497446,-0.015120420895491371,-0.0020536284137314675,-0.0974507322857514,0.00016533966709619818,-0.13049396113823797
99,0.279,307.528,1.20295,0.109857,51.5113,-19.8921,-0.10187,0.246186,-0.103559,-0.141268,-0.0152162,-0.00206689,0.000166254,0.251721,0.27913747098619335,-0.015101018576670788,-0.002064755453741296,-0.09837717457415007,0.00016626782096218484,-0.13174341225146502
100,0.2838,308.85,1.27553,0.138734,51.8309,-19.9705,-0.102543,0.249886,-0.105097,-0.143423,-0.0151833,-0.00207934,0.000167848,0.255581,0.2838790461335192,-0.015068614867143837,-0.0020771796701950507,-0.0997628046569855,0.00016786208726360385,-0.13361249054286695
101,0.2855,309.144,1.08449,-0.0571316,51.9348,-19.9616,-0.100782,0.25127,-0.105674,-0.14423,-0.015171,-0.00208223,0.000168527,0.257026,0.28565716490773396,-0.015056500136601314,-0.0020800636629784153,-0.10028209168998226,0.0001685412014726939,-0.13431138322187341
102,0.2882,310.049,1.34724,0.13737,52.1391,-20.0567,-0.101954,0.253342,-0.106533,-0.145437,-0.0151494,-0.0020898,0.000169417,0.259188,0.28832380824188464,-0.015035225127234986,-0.0020876178883036944,-0.1010546175258713,0.00016943135187030833,-0.1353556390471572
103,0.2922,310.977,1.28454,-0.0426187,52.3934,-20.0907,-0.0988158,0.256442,-0.107821,-0.147247,-0.0151162,-0.00209471,0.00017099,0.262425,0.29232380884503595,-0.015002523753869346,-0.002092517626070989,-0.10221171384850314,0.00017100461962327174,-0.13691922986391936
104,0.2982,311.682,0.207071,-0.770686,52.7687,-20.0719,-0.101394,0.261074,-0.109756,-0.149948,-0.0150617,-0.00210303,0.000173027,0.267264,0.298323737835567,-0.014948839928543012,-0.002100820181785701,-0.10394725450509978,0.00017304197003475963,-0.13924726559647072
105,0.3042,312.867,-0.19508,-1.13034,53.1013,-20.1064,-0.100486,0.265685,-0.111678,-0.152635,-0.0150054,-0.00211087,0.000175201,0.27208,0.3043241318678134,-0.014893379987048316,-0.0021086436806873055,-0.10566781389471003,0.00017521634859152257,-0.14155700367102353
106,0.3087,314.851,0.759276,-0.325816,53.3694,-20.2777,-0.107461,0.269129,-0.113104,-0.154637,-0.01496,-0.00212107,0.00017642,0.275673,0.308823968448795,-0.014848655131253108,-0.002118822120611652,-0.1069422227226452,0.0001764355629234604,-0.14327388737564617
107,0.3132,316.477,1.34431,0.149781,53.642,-20.4231,-0.111959,0.272561,-0.114526,-0.156635,-0.0149115,-0.00213041,0.000177589,0.279256,0.3133235692068208,-0.014800874132347208,-0.0021281422872877487,-0.10821124839084384,0.00017760476986006246,-0.14498391725994475
108,0.3177,317.106,0.809035,-0.331429,53.8769,-20.433,-0.103107,0.275981,-0.115951,-0.158632,-0.0148627,-0.00213454,0.000179415,0.282832,0.3178228251557569,-0.014752795241889438,-0.0021322634895498682,-0.1094811423475529,0.00017943109583362649,-0.14668968060559273
109,0.3211,318.384,1.31633,0.12099,54.0932,-20.5306,-0.114484,0.278539,-0.11701,-0.160121,-0.0148229,-0.00214038,0.000180018,0.285502,0.3211981311183436,-0.014713581622794236,-0.002138091020114641,-0.11042370264404122,0.00018003420421242033,-0.14795931419438657
110,0.3261,319.142,0.814125,-0.34424,54.3658,-20.549,-0.106004,0.282364,-0.118602,-0.162354,-0.0147626,-0.00214367,0.000181952,0.2895,0.3262613912817136,-0.014654167060434986,-0.002141373980394712,-0.11183878140786374,0.00018196855426921843,-0.14985979836551655
111,0.328,320.091,1.40998,0.110802,54.4902,-20.625,-0.115362,0.283794,-0.119192,-0.163186,-0.0147387,-0.00214641,0.000182207,0.290993,0.32815930175381425,-0.014630617013605796,-0.0021441081092842262,-0.11236264197277013,0.00018222360070363486,-0.1505668208511376
112,0.3309,320.284,0.841171,-0.331778,54.6527,-20.5969,-0.109578,0.285936,-0.120086,-0.164437,-0.0147025,-0.00214618,0.000183248,0.293233,0.33100726806117486,-0.01459494599630018,-0.0021438786024027268,-0.11315583516066241,0.00018326479094032955,-0.15162879735345114
113,0.3352,321.258,0.797633,-0.340503,54.908,-20.6493,-0.114329,0.28914,-0.121417,-0.166306,-0.0146453,-0.00214864,0.000184303,0.296582,0.3352786544550119,-0.014538579215136571,-0.002146333325442007,-0.11433543954320191,0.00018431998484125245,-0.15321292230529637
114,0.3416,322.086,0.0474679,-0.980223,55.2405,-20.6535,-0.112186,0.293926,-0.123412,-0.1691,-0.0145578,-0.00214854,0.000186247,0.301589,0.3416846153318138,-0.014452347568238433,-0.0021462335400703747,-0.11610057902923432,0.00018626434504920297,-0.15557554328190049
115,0.348,323.344,-0.196506,-1.20311,55.5529,-20.7032,-0.112206,0.29869,-0.125394,-0.171879,-0.0144685,-0.00214815,0.000188134,0.30657,0.3480916502788265,-0.01436433423313932,-0.0021458443770255853,-0.11785073270637347,0.00018815169831087886,-0.15791894118758953
116,0.3528,325.339,0.826279,-0.340932,55.8045,-20.8775,-0.119527,0.302248,-0.126864,-0.173949,-0.0143988,-0.00215206,0.000189139,0.310287,0.3528967034911077,-0.01429563303302639,-0.0021497459791464113,-0.1191465394779756,0.0001891568879084371,-0.15966024610696328
117,0.3576,326.939,1.43688,0.153639,56.058,-21.021,-0.124113,0.305794,-0.128331,-0.176016,-0.0143266,-0.00215493,0.000190107,0.313992,0.3577025910044338,-0.014224462608509958,-0.0021526098052658815,-0.12043780413036254,0.00019012507148086222,-0.16139543444331683
118,0.3624,327.489,0.862366,-0.360545,56.2727,-21.025,-0.114488,0.309327,-0.129802,-0.178081,-0.0142547,-0.0021525,0.000191781,0.317689,0.3625078377284985,-0.014153582799272924,-0.0021501850331615557,-0.12173068897055372,0.0001917993911515481,-0.163125366102019
119,0.366,328.769,1.40973,0.128051,56.4766,-21.1235,-0.126503,0.311968,-0.130894,-0.17962,-0.0141977,-0.0021537,0.000192214,0.320451,0.3661109767787667,-0.014097387951954476,-0.002151382452221129,-0.12268923559648737,0.00019223247429445145,-0.1644123255942429
120,0.3714,329.456,0.87997,-0.360247,56.7256,-21.1366,-0.11735,0.315917,-0.132537,-0.181928,-0.0141124,-0.00214988,0.000193962,0.324584,0.37151641503927557,-0.014013286872286757,-0.0021475706632215763,-0.12412947370281058,0.00019398081184496263,-0.16633863812700822
121,0.3734,330.407,1.50105,0.11346,56.8435,-21.2124,-0.127052,0.317394,-0.133144,-0.182788,-0.0140791,-0.00215001,0.000194127,0.326127,0.37354364152250863,-0.013980452968058166,-0.0021477003840288944,-0.12466096578810615,0.0001941458438654564,-0.16705527869860426
122,0.3765,330.552,0.904465,-0.349347,56.9896,-21.1793,-0.120855,0.319606,-0.134066,-0.184081,-0.0140293,-0.00214572,0.000195065,0.328443,0.3765852828726748,-0.013931347971911645,-0.002143419588481299,-0.12546765643611446,0.00019508402641421618,-0.1681315802443465
123,0.381,331.974,1.41011,0.119125,57.2398,-21.3033,-0.130584,0.322914,-0.135435,-0.18601,-0.0139512,-0.00214553,0.00019568,0.331902,0.38114656719322504,-0.013854333002792929,-0.0021432299957130363,-0.1266640720810882,0.00019569914658013055,-0.16973470771250354
124,0.3856,332.53,0.964193,-0.289429,57.4307,-21.3105,-0.122571,0.32621,-0.136806,-0.187937,-0.0138742,-0.00214071,0.000197031,0.335354,0.38570633665079535,-0.013778396862930253,-0.002138420314490297,-0.1278605952342241,0.00019705041188244898,-0.1713330883963433
125,0.3901,333.44,0.911828,-0.324771,57.6469,-21.3368,-0.127908,0.329497,-0.138169,-0.189856,-0.0137951,-0.0021356,0.000197847,0.338793,0.39026864742939105,-0.013700383648740155,-0.002133321228789953,-0.12904851149408259,0.000197866573008465,-0.17292177536702602
126,0.397,334.201,0.181197,-0.942098,57.9497,-21.34,-0.125768,0.334405,-0.140212,-0.192725,-0.0136746,-0.0021257,0.000199459,0.343933,0.39710885809711116,-0.01358152738402374,-0.0021234422997694624,-0.13082604901226091,0.00019947889326887847,-0.17529126213942092
127,0.4038,335.423,-0.00648102,-1.1145,58.2377,-21.3937,-0.125974,0.33929,-0.142241,-0.195577,-0.0135528,-0.00211606,0.000201004,0.349047,0.4039504318075411,-0.013461374296884654,-0.0021138227233870044,-0.13258781504276795,0.0002010242026575515,-0.17763998059526065
128,0.409,337.277,0.928716,-0.328476,58.4684,-21.554,-0.132667,0.342938,-0.143748,-0.197702,-0.0134594,-0.00211259,0.000201797,0.352862,0.4090813961715778,-0.013369227286045504,-0.002110360052344107,-0.13389402073230672,0.00020181736238433778,-0.17938564021625314
129,0.4141,338.83,1.55608,0.17647,58.7006,-21.6951,-0.137265,0.346573,-0.14525,-0.199823,-0.0133639,-0.00210843,0.000202535,0.356666,0.4142127275913985,-0.013274999547948418,-0.0021062088228073206,-0.1351939354328423,0.00020255551159786833,-0.18112431875295876
130,0.4192,339.284,0.939524,-0.371707,58.8938,-21.6929,-0.126928,0.350195,-0.146756,-0.201942,-0.0132693,-0.00209892,0.000204018,0.36046,0.41934429374700843,-0.013181650947586498,-0.002096718807728326,-0.13649535315256556,0.0002040388130875037,-0.18285767917756246
131,0.4231,340.529,1.49535,0.125549,59.0827,-21.7891,-0.139248,0.352902,-0.147874,-0.203521,-0.0131955,-0.00209502,0.00020428,0.363293,0.42319166381615836,-0.013108821066036835,-0.002092826977342588,-0.13746021189120616,0.00020430086657996505,-0.184146928771719
132,0.4288,341.644,1.51611,0.11808,59.3254,-21.8467,-0.139389,0.35695,-0.149551,-0.205887,-0.0130844,-0.00208522,0.000205205,0.367532,0.42896441984664935,-0.01299917136512918,-0.00208304743912735,-0.13890547892074645,0.00020522605598616295,-0.18607495538334629
133,0.431,341.895,1.34966,-0.0583959,59.406,-21.8393,-0.137271,0.358464,-0.150179,-0.206773,-0.013043,-0.00208007,0.000205643,0.369118,0.4311295105383832,-0.012958308684972053,-0.002077908153587993,-0.13944607651457286,0.00020566414597111837,-0.18679577360325195
134,0.4343,342.692,1.5884,0.108526,59.5562,-21.9169,-0.137747,0.36073,-0.151116,-0.208097,-0.0129791,-0.00207501,0.000206185,0.371491,0.43437612703654027,-0.012895234705704861,-0.0020728586550280426,-0.1402520378890073,0.00020620625758804856,-0.18787174354971758
135,0.4391,343.173,1.06592,-0.284746,59.7508,-21.9188,-0.133086,0.36412,-0.152525,-0.21008,-0.0128833,-0.00206429,0.000207293,0.375043,0.43924691342549416,-0.012800665539398959,-0.0020621608187324503,-0.1414625697476568,0.0002073144866785448,-0.18948059817569007
136,0.4464,343.532,-0.0881507,-1.22503,60.0375,-21.8564,-0.133498,0.369183,-0.154633,-0.213042,-0.012738,-0.00204496,0.000208712,0.38035,0.4465522985250523,-0.01265721505467643,-0.00204287049386076,-0.1432704604643419,0.00020873378186481162,-0.19187780462849102
137,0.4537,344.983,0.037363,-1.13054,60.3154,-21.9448,-0.135723,0.374221,-0.156722,-0.215984,-0.0125914,-0.0020296,0.000210009,0.385627,0.45385841766582247,-0.012512459992116698,-0.002027541754627049,-0.1450583004234286,0.00021003105343386785,-0.19425180625855565
138,0.4592,346.817,0.989458,-0.331532,60.5338,-22.1039,-0.142443,0.377982,-0.158275,-0.218177,-0.0124798,-0.00202107,0.000210652,0.389564,0.4593366745792402,-0.012402250233061629,-0.002019029013251461,-0.1463849944383241,0.00021067418869047394,-0.19601687594113548
139,0.4647,347.869,1.07175,-0.271225,60.7416,-22.1729,-0.143143,0.38173,-0.159827,-0.220367,-0.0123674,-0.00200936,0.000211456,0.39349,0.46481653127214817,-0.012291238007217542,-0.0020073425876573348,-0.14770877740565636,0.00021147835839596674,-0.1977756723977575
140,0.4702,349.27,1.55968,0.141643,60.9575,-22.2892,-0.148332,0.385463,-0.16137,-0.222547,-0.0122532,-0.00199934,0.000211995,0.3974,0.4702949104161611,-0.012178435225681739,-0.001997342651130496,-0.14902284869540228,0.00021201747252796999,-0.1995226165709335
141,0.4756,350.263,1.61217,0.151312,61.1569,-22.348,-0.148493,0.389183,-0.16291,-0.224723,-0.0121388,-0.0019865,0.000212684,0.401298,0.47577459337404204,-0.01206542197443694,-0.001984528214741599,-0.1503323449375049,0.00021270661884553732,-0.20126256161052236
142,0.4811,350.739,1.05451,-0.303326,61.3455,-22.3323,-0.145224,0.392889,-0.164449,-0.226891,-0.0120243,-0.00197075,0.000213565,0.405184,0.4812539610139892,-0.011952296988971156,-0.001968809347275169,-0.15163897774680035,0.0002135878066280572,-0.2029923486103108
143,0.4852,351.876,1.54882,0.108366,61.5078,-22.4389,-0.150416,0.395659,-0.165593,-0.228509,-0.0119369,-0.00196295,0.000213903,0.408086,0.4853627224934709,-0.011865937845888408,-0.001961024673627909,-0.1526089478275856,0.0002139258788780296,-0.2042808642999634
144,0.4914,353.014,1.66393,0.172833,61.73,-22.5071,-0.150718,0.3998,-0.167306,-0.230931,-0.0118052,-0.00194719,0.000214637,0.412426,0.49152636253624693,-0.0117357920199882,-0.0019452954554308732,-0.1540592861305482,0.00021466003616898988,-0.2062057640520606
145,0.4937,353.155,1.39247,-0.0862645,61.8016,-22.4861,-0.147714,0.401349,-0.167949,-0.231838,-0.0117563,-0.00193924,0.000215038,0.41405,0.4938385271810155,-0.011687464718625029,-0.0019373608889898808,-0.154603051170371,0.000215061122328164,-0.20692540901573975
146,0.4972,353.57,1.17682,-0.220668,61.933,-22.5054,-0.147123,0.403667,-0.168911,-0.233194,-0.0116816,-0.00192953,0.000215537,0.416481,0.4973052612795754,-0.011613635014734447,-0.001927669653713271,-0.1554159319767876,0.000215560229768208,-0.20800008936316772
147,0.5024,354.369,1.0952,-0.282736,62.1237,-22.5448,-0.149184,0.407134,-0.170348,-0.235222,-0.0115687,-0.0019151,0.000216152,0.420115,0.502505427900398,-0.011502039894701555,-0.0019132673660741117,-0.15662872768012526,0.00021617536252671599,-0.20960463762007664
148,0.5102,354.907,0.240487,-1.00347,62.3822,-22.5321,-0.145652,0.412313,-0.1725,-0.238253,-0.0113994,-0.00189039,0.000217412,0.425547,0.5103070884735177,-0.01133467302284985,-0.0018886043382002615,-0.1584417111882267,0.00021743563570164604,-0.21199669896317053
149,0.518,355.984,0.0183748,-1.20181,62.6354,-22.5804,-0.145397,0.417465,-0.174637,-0.241265,-0.0112295,-0.00186682,0.0002186,0.430948,0.5181082691792094,-0.011166684513576608,-0.0018650785753544508,-0.1602382010183545,0.00021862389472104837,-0.21436659405222047
150,0.5238,357.817,1.02558,-0.358316,62.84,-22.742,-0.152442,0.421311,-0.176223,-0.243509,-0.0111006,-0.00185332,0.000219093,0.434977,0.523958155703439,-0.011039215684020887,-0.0018516036629597776,-0.16156900762294324,0.00021911700262422507,-0.21612757885126432
151,0.5297,358.842,1.13138,-0.278015,63.0324,-22.8123,-0.153247,0.425143,-0.177809,-0.245749,-0.0109712,-0.00183664,0.000219751,0.438994,0.5298091667334333,-0.010911235878415582,-0.0018349544088545056,-0.16289770524112535,0.00021977514701965184,-0.2178814879630645
152,0.5355,360.199,1.6224,0.135714,63.2322,-22.9258,-0.15845,0.428961,-0.179386,-0.24798,-0.0108405,-0.00182159,0.000220148,0.442995,0.5356611424449085,-0.010781953528527288,-0.0018199319118743507,-0.16421677519992806,0.0002201722343493362,-0.21962444936702719
153,0.5414,361.159,1.68886,0.157391,63.4163,-22.9855,-0.15854,0.432763,-0.180959,-0.250205,-0.0107098,-0.00180394,0.0002207,0.446983,0.5415108393357284,-0.010652654280331686,-0.0018023138781938508,-0.16553042875315138,0.00022072435603681662,-0.2213588547256915
154,0.5472,361.577,1.11407,-0.307828,63.5899,-22.9683,-0.155048,0.436551,-0.182531,-0.252424,-0.0105794,-0.00178344,0.000221455,0.450958,0.5473611558992164,-0.010523634974573981,-0.0017818506158806535,-0.16684118439529028,0.00022147952296869278,-0.2230847438448933
155,0.5516,362.684,1.61313,0.105697,63.7405,-23.0723,-0.160287,0.439383,-0.1837,-0.254078,-0.0104803,-0.00177213,0.000221693,0.453926,0.5517494936460186,-0.010425573007909694,-0.001770560704766777,-0.16781457799132515,0.00022171757570910167,-0.22436869955449046
156,0.5582,363.271,1.13595,-0.298015,63.9357,-23.0719,-0.156583,0.443616,-0.185456,-0.256556,-0.0103322,-0.00174925,0.000222512,0.458366,0.5583319712375527,-0.010279006182266626,-0.0017477209539099592,-0.1692746133061933,0.00022253675763139746,-0.2262883345069977
157,0.5607,364.09,1.68837,0.0975543,64.021,-23.1541,-0.160327,0.445199,-0.186106,-0.257481,-0.0102761,-0.0017429,0.000222635,0.460025,0.5608007642821733,-0.010223481277054414,-0.0017413820318119555,-0.16981440935482317,0.00022265978501101458,-0.22700368689609274
158,0.5644,364.225,1.20415,-0.311079,64.1237,-23.1292,-0.153733,0.447568,-0.18709,-0.258869,-0.0101928,-0.00172818,0.000223282,0.462511,0.5645026844859249,-0.010141029458974327,-0.001726687556804385,-0.17063091019172438,0.00022330692928118623,-0.22807586151736114
159,0.5699,364.986,1.08908,-0.340931,64.3059,-23.1737,-0.158107,0.451111,-0.188558,-0.260942,-0.010066,-0.00171006,0.000223732,0.466228,0.5700555485871261,-0.01001550738357826,-0.001708598680498219,-0.1718475307975511,0.00022375702987043056,-0.22967440279594564
160,0.5783,365.519,0.293042,-1.00719,64.5461,-23.1676,-0.155051,0.456403,-0.190756,-0.26404,-0.00987644,-0.00168013,0.000224813,0.471781,0.5783863062930592,-0.009827828135480776,-0.0016787193717151538,-0.17366581090298205,0.00022483827233621412,-0.23205717867050946
161,0.5866,366.599,0.137804,-1.14731,64.7835,-23.2212,-0.15511,0.461667,-0.192938,-0.267119,-0.00968667,-0.0016516,0.000225817,0.477303,0.5867168385338764,-0.009639905331934817,-0.0016502368592776762,-0.17546690639380813,0.00022584249857815486,-0.23441803820899731
162,0.5928,368.343,1.09276,-0.350237,64.9737,-23.3729,-0.161796,0.465597,-0.194558,-0.269413,-0.00954321,-0.00163395,0.000226199,0.481422,0.5929649051184249,-0.009497818081078857,-0.0016326158304531546,-0.17680156863714236,0.0002262245849229405,-0.23617227035577903
163,0.5991,369.3,1.16859,-0.295838,65.1511,-23.4371,-0.16227,0.469511,-0.196177,-0.271703,-0.00939972,-0.0016132,0.000226755,0.485528,0.5992119873218054,-0.009355680725594673,-0.0016118994923003394,-0.17813324861170055,0.00022678071085824314,-0.23791943459009068
164,0.6053,370.64,1.68603,0.138244,65.3372,-23.5499,-0.167704,0.47341,-0.197787,-0.273982,-0.0092552,-0.00159429,0.000227029,0.489617,0.6054594864452714,-0.009212502462761063,-0.0015930197948127445,-0.17945538947244932,0.00022705477303386346,-0.2396542386385887
165,0.6116,371.557,1.74853,0.156841,65.5074,-23.6081,-0.167592,0.477294,-0.199393,-0.276256,-0.00911097,-0.00157279,0.000227476,0.493692,0.6117072163279043,-0.009069590876169986,-0.0015715538139798868,-0.18077212649411356,0.0002275018746271673,-0.24138130048637296
166,0.6178,371.926,1.15977,-0.316346,65.6682,-23.5897,-0.163901,0.481163,-0.200998,-0.278522,-0.00896723,-0.00154859,0.000228131,0.497753,0.617954990072527,-0.008927144301772438,-0.0015473915532200344,-0.18208593261964168,0.00022815702385559078,-0.24309838426881158
167,0.6225,373.014,1.67024,0.104398,65.8085,-23.6917,-0.169253,0.484055,-0.202191,-0.280213,-0.00885836,-0.00153454,0.000228285,0.500785,0.6226408884469266,-0.008819240326326194,-0.0015333631955223304,-0.18306112228572913,0.00022831105900356086,-0.2443772233378455
168,0.6295,373.548,1.17866,-0.30831,65.9878,-23.6899,-0.165263,0.488377,-0.203983,-0.282744,-0.00869608,-0.00150769,0.000229,0.505322,0.6296691194335318,-0.008658378460667637,-0.0015065540064124194,-0.1845237658345622,0.00022902622250153826,-0.24628728638114716
169,0.632,374.326,1.72082,0.082287,66.0643,-23.7678,-0.169089,0.48991,-0.204613,-0.28364,-0.00863787,-0.00150035,0.00022907,0.506929,0.6321693181062653,-0.008600670785312237,-0.0014992250376215654,-0.18503735406480692,0.00022909623853584193,-0.2469623105165769
170,0.6358,374.436,1.26048,-0.299369,66.152,-23.7444,-0.162832,0.492205,-0.205566,-0.284985,-0.0085515,-0.00148444,0.000229617,0.509338,0.6359194483197368,-0.008515039927332602,-0.0014833387639169304,-0.18581364350571183,0.00022964336400121965,-0.24797446538220058
171,0.6414,375.179,1.21376,-0.278587,66.3129,-23.7922,-0.167346,0.495637,-0.206986,-0.286994,-0.00842045,-0.00146456,0.000229932,0.51294,0.6415435693376708,-0.008385097309010936,-0.0014634880553761054,-0.18696896765765292,0.000229958436388511,-0.24948376807904982
172,0.6499,376.008,0.877215,-0.558404,66.5297,-23.8263,-0.16686,0.500764,-0.209111,-0.289995,-0.00822442,-0.0014334,0.000230647,0.518321,0.6499813750495114,-0.008190691985621279,-0.0014323731728965727,-0.1886948242293296,0.00023067360106443502,-0.25173269109424357
173,0.6583,376.986,0.728645,-0.689655,66.7412,-23.8756,-0.166667,0.505864,-0.211223,-0.29298,-0.00802862,-0.00140239,0.000231373,0.523674,0.6584177745952173,-0.007996476710056988,-0.0014014071106623893,-0.19040649260250753,0.00023139976879704705,-0.25396293871075926
174,0.6667,378.143,0.796954,-0.636544,66.9538,-23.949,-0.167933,0.510939,-0.213323,-0.295948,-0.00783263,-0.00137209,0.000232027,0.528999,0.6668556377688957,-0.007802034885823317,-0.0013711491148914456,-0.19210485506331032,0.00023205392034642003,-0.2561738940279453
175,0.6752,379.314,0.896342,-0.557465,67.1641,-24.0251,-0.169407,0.515987,-0.215412,-0.298902,-0.00763653,-0.00134176,0.000232637,0.534297,0.6752911984704446,-0.007607445786026679,-0.0013408602425156735,-0.19379078645264092,0.00023266406208533041,-0.2583679141817803
176,0.6836,380.444,0.963647,-0.505224,67.3711,-24.0969,-0.170632,0.521011,-0.217491,-0.301842,-0.00744042,-0.00131117,0.000233226,0.539569,0.6837290395603881,-0.007412808597694109,-0.0013103107921791368,-0.19546515429914435,0.00023325319929812238,-0.2605451104673119
177,0.692,381.546,1.01221,-0.468617,67.5751,-24.1661,-0.171708,0.526009,-0.219559,-0.304767,-0.00724433,-0.00128038,0.000233796,0.544815,0.6921653821586151,-0.007218153090956636,-0.0012795606632525214,-0.1971272131988181,0.00023382333241483977,-0.2627048558517395
178,0.7005,382.632,1.05607,-0.435901,67.7764,-24.2341,-0.172737,0.530983,-0.221617,-0.307677,-0.00704828,-0.00124944,0.000234345,0.550035,0.700603180176748,-0.007023499129539035,-0.0012486597748252448,-0.1987778263305635,0.0002343724609346065,-0.26484726600259634
179,0.7089,383.703,1.0974,-0.405262,67.9751,-24.3013,-0.173734,0.535932,-0.223664,-0.310573,-0.0068523,-0.00121837,0.000234876,0.555229,0.7090403258116866,-0.006828876524452299,-0.0012176280886097013,-0.20041625062069224,0.00023490358552735735,-0.2669731884986687
180,0.7174,384.76,1.1353,-0.377443,68.1712,-24.3675,-0.174695,0.540856,-0.225702,-0.313456,-0.00665642,-0.00118718,0.000235389,0.560398,0.7174763929283154,-0.0066343151100630715,-0.0011864755806089144,-0.20204414291623152,0.00023541670616444854,-0.2690834613762132
181,0.7258,385.803,1.1698,-0.352422,68.3648,-24.4327,-0.175619,0.545756,-0.227729,-0.316324,-0.00646067,-0.00115588,0.000235886,0.565542,0.725912679275619,-0.00643984474407977,-0.001155212228025726,-0.20365996125340902,0.00023591382329013477,-0.2711767268314905
182,0.7342,386.831,1.20118,-0.329966,68.5559,-24.497,-0.176509,0.550633,-0.229746,-0.319178,-0.00626508,-0.00112448,0.000236369,0.570661,0.7343505143486955,-0.006245495307529714,-0.0011238480092740089,-0.205264560329395,0.00023639693735311162,-0.273253823026959
183,0.7427,387.847,1.22987,-0.309697,68.7446,-24.5604,-0.177368,0.555485,-0.231754,-0.322019,-0.00606966,-0.00109299,0.000236838,0.575755,0.7427860310588503,-0.006051276825752905,-0.0010923929039897695,-0.20685878795205148,0.00023686604833339509,-0.2753155788049062
184,0.7511,389.353,1.83094,0.185238,68.9387,-24.6835,-0.182509,0.560315,-0.233746,-0.324844,-0.00587378,-0.00106364,0.000237031,0.580823,0.7512240489980544,-0.005856563080215871,-0.0010630745354764937,-0.20843715267326768,0.0002370590940672379,-0.2773599232985896
185,0.7595,390.32,1.82822,0.177603,69.1205,-24.7418,-0.182949,0.565121,-0.235734,-0.327658,-0.0056785,-0.00103185,0.000237357,0.585869,0.7596606887840813,-0.005662407793148971,-0.0010313178258457567,-0.2100092164645928,0.00023738517140148296,-0.27939057400888634
186,0.768,390.746,1.2156,-0.33243,69.2924,-24.7355,-0.178925,0.569904,-0.237717,-0.330461,-0.00548422,-0.000997651,0.000237954,0.590893,0.7680973059447114,-0.005469209119023488,-0.000997153511694715,-0.2115742159784897,0.00023798231329874575,-0.2814076140277283
187,0.7764,392.239,1.83812,0.180001,69.4808,-24.8594,-0.18435,0.574664,-0.239681,-0.333246,-0.00528921,-0.000968178,0.000238123,0.595889,0.7765335113612248,-0.005275246757808438,-0.0009677094669001685,-0.2131211646174912,0.00023815135353211225,-0.28340610962580914
188,0.7849,393.132,1.78439,0.130583,69.6558,-24.9111,-0.18439,0.579402,-0.24164,-0.336021,-0.00509491,-0.000936024,0.000238458,0.600864,0.7849706990520813,-0.005081952960369174,-0.0009355860661852677,-0.21466115134650643,0.00023848643336887854,-0.2853919011115915
189,0.7933,393.613,1.26886,-0.297892,69.8231,-24.914,-0.181005,0.584117,-0.243594,-0.338784,-0.00490151,-0.00090209,0.000239011,0.605817,0.7934067081610239,-0.0048895172021337086,-0.0009016832391367524,-0.2161942051754031,0.0002390395654048305,-0.2873636380798176
190,0.8017,394.981,1.78169,0.122824,70.0037,-25.0247,-0.185635,0.588811,-0.245531,-0.34153,-0.0047076,-0.000872091,0.000239204,0.610743,0.8018447478348607,-0.0046965366185866,-0.0008717108391634865,-0.21771096754138974,0.0002392326115581156,-0.289317853164357
191,0.8102,395.395,1.21264,-0.35341,70.1656,-25.0219,-0.181435,0.593482,-0.247468,-0.344268,-0.00451499,-0.000837906,0.000239794,0.61565,0.8102808518344815,-0.004504812755130705,-0.0008375550547941035,-0.21922479478225998,0.00023982275287948163,-0.291261039446425
192,0.8186,396.313,1.22943,-0.339485,70.336,-25.0795,-0.182381,0.598131,-0.249391,-0.34699,-0.00432238,-0.000806019,0.00024022,0.620532,0.8187164408479872,-0.004313051960184944,-0.0008056942539421685,-0.22072478280117602,0.00024024885513473926,-0.2931876036536276
193,0.827,397.268,1.29927,-0.284798,70.5045,-25.1422,-0.183514,0.602759,-0.251305,-0.349699,-0.00413008,-0.000774344,0.000240619,0.625392,0.8271529676010798,-0.0041215629489985695,-0.00077404427305372,-0.22221488908028142,0.00024064795107370252,-0.29509976724035525
194,0.8355,398.629,1.84642,0.161656,70.6771,-25.2539,-0.188388,0.607366,-0.253206,-0.352394,-0.00393758,-0.000744443,0.000240768,0.630227,0.8355900812914514,-0.003929837896922028,-0.0007441659710581972,-0.2236920540859536,0.00024079698694134954,-0.29699691581168963
195,0.8439,399.028,1.29841,-0.293888,70.8314,-25.2514,-0.184331,0.611952,-0.255106,-0.355082,-0.00374643,-0.000710366,0.000241308,0.635045,0.8440274294561669,-0.0037394208869101497,-0.0007101137498065624,-0.2251656388343759,0.0002413371171174905,-0.29888405065649004
196,0.8524,399.91,1.31344,-0.281626,70.9937,-25.3065,-0.1852,0.616516,-0.256994,-0.357754,-0.00355538,-0.000678519,0.000241694,0.639838,0.8524628055299357,-0.0035490671203060042,-0.0006782888580381119,-0.2266271460113477,0.00024172321034798827,-0.30075493186273505
197,0.8608,401.207,1.81696,0.128181,71.1601,-25.4119,-0.189786,0.62106,-0.25887,-0.360413,-0.00336422,-0.000648483,0.000241847,0.644608,0.860899550285573,-0.0033585673525889925,-0.0006482727803430732,-0.22807663344111362,0.00024187624734350877,-0.30261175475885005
198,0.8692,402.109,1.87716,0.16824,71.3168,-25.4717,-0.190328,0.625584,-0.260739,-0.363063,-0.00317376,-0.000616656,0.000242113,0.649358,0.8693373317216371,-0.003168728947589572,-0.0006164659067648959,-0.2295180108264654,0.00024214231171781897,-0.3044573870658531
199,0.8777,402.454,1.30068,-0.302623,71.4645,-25.4643,-0.186351,0.630086,-0.262606,-0.365702,-0.0029844,-0.000582572,0.000242639,0.654089,0.8777720607177628,-0.0029799511051810113,-0.0005824023378807608,-0.2309551587052533,0.00024266843922315928,-0.3062905041595134
200,0.8861,403.759,1.83892,0.137311,71.6268,-25.5714,-0.19148,0.634569,-0.264456,-0.368325,-0.00279463,-0.000552748,0.000242764,0.658795,0.8862090101581517,-0.0027907286566981604,-0.0005525952629672481,-0.23237657644483933,0.00024279346956457282,-0.30810771984683927
201,0.8945,404.585,1.83967,0.129377,71.7778,-25.6237,-0.191557,0.639032,-0.266301,-0.370939,-0.00260569,-0.000520812,0.000243044,0.663483,0.8946459740512063,-0.0026022981364998143,-0.0005206764009718645,-0.23379153595976632,0.00024307353758579175,-0.3099139644769231
202,0.903,404.968,1.33273,-0.283704,71.9216,-25.6226,-0.188042,0.643475,-0.268142,-0.373543,-0.00241777,-0.00048714,0.000243541,0.66815,0.9030826142316328,-0.0024148495482478882,-0.0004870213665746359,-0.23520082809061738,0.00024357065851687842,-0.31170861086972457
203,0.9114,406.191,1.80387,0.100306,72.078,-25.721,-0.192654,0.647898,-0.269967,-0.376132,-0.00222959,-0.000457197,0.000243682,0.672794,0.9115185910444039,-0.0022271063104286615,-0.0004570925013777094,-0.23659531372416898,0.0002437116928704075,-0.31348829248424426
204,0.9199,407.019,1.83201,0.115235,72.2248,-25.7748,-0.192973,0.652302,-0.271788,-0.378711,-0.00204218,-0.000425517,0.00024395,0.67742,0.9199554833198798,-0.0020400961691843245,-0.00042542648048105036,-0.23798420868521253,0.00024397975822099127,-0.31525652506194013
205,0.9283,407.864,1.8844,0.154965,72.371,-25.8302,-0.193849,0.656686,-0.2736,-0.381279,-0.00185525,-0.000393972,0.000244181,0.682025,0.9283910454002622,-0.0018535300875057725,-0.0003938944032222391,-0.2393637310743365,0.00024421081460701544,-0.3170126904241518
206,0.9367,408.639,1.86479,0.136526,72.5148,-25.8778,-0.194138,0.661052,-0.275405,-0.383836,-0.0016689,-0.000362222,0.000244432,0.68661,0.93682880693456,-0.0016675081607828712,-0.00036215640553149964,-0.24073544119893775,0.0002444618759354089,-0.31875685810603926
207,0.9452,409.428,1.86937,0.137738,72.6575,-25.9275,-0.194624,0.665398,-0.277202,-0.386382,-0.0014831,-0.000330635,0.000244675,0.691175,0.9452645825922952,-0.0014820007506943789,-0.0003305803462719803,-0.24209861443312142,0.00024470493536932203,-0.32048909706938655
208,0.9536,410.196,1.85796,0.126041,72.7986,-25.9751,-0.194971,0.669725,-0.278991,-0.388917,-0.00129787,-0.000299064,0.000244924,0.695721,0.95369997926059,-0.0012970281309830911,-0.0002990192848196793,-0.24345328789518372,0.00024495399633184256,-0.32220947570709746
209,0.962,410.965,1.8542,0.120566,72.9385,-26.0231,-0.195376,0.674034,-0.280772,-0.391441,-0.00111321,-0.000267597,0.000245171,0.700247,0.9621366361946369,-0.001112590611605735,-0.00026756119911630627,-0.24479949843311444,0.00024520105686587357,-0.32391806184764693
210,0.9705,411.723,1.84685,0.112242,73.0769,-26.0703,-0.195749,0.678324,-0.282546,-0.393955,-0.000929119,-0.000236198,0.000245419,0.704753,0.9705722838906818,-0.0009286875025897867,-0.00023617010744847455,-0.2461380364885989,0.0002454491177066309,-0.3256155971442313
211,0.9789,412.477,1.84167,0.105699,73.2141,-26.1173,-0.196136,0.682596,-0.284312,-0.396457,-0.000745601,-0.000204888,0.000245666,0.709241,0.9790085757767526,-0.0007453231086440582,-0.0002048670118871554,-0.24746818185210406,0.0002456961783630085,-0.3273007978549738
212,0.9874,413.224,1.83583,0.0986702,73.3499,-26.1638,-0.196512,0.68685,-0.286071,-0.398949,-0.000562662,-0.00017366,0.000245913,0.713709,0.9874452102568423,-0.0005625037354214379,-0.00017364492197502468,-0.24879072180533357,0.00024594323908044835,-0.3289750772481468
213,0.9958,413.965,1.8307,0.0922453,73.4844,-26.21,-0.19689,0.691086,-0.287822,-0.40143,-0.000380304,-0.000142518,0.000246159,0.718158,0.9958818844279622,-0.00038023169360024145,-0.0001425078447923056,-0.2501049383191123,0.0002461892996128423,-0.3306378265880363
214,1.0,414.272,1.81368,-0.0113354,73.5444,-26.2272,-0.193211,0.693191,-0.288692,-0.402665,-0.000290014,-0.000125737,0.00024645,0.72037,1.0000876408002806,-0.0002899719500050191,-0.00012572909543473454,-0.250757063307272,0.0002464803712962649,-0.33146397861831567
