,Time,S11,S22,S33,S12,S13,S23,LE11,LE22,LE33,LE12,LE13,LE23,SDV_EPBAR,E11,E12,E13,E22,E23,E33
0,1e-05,0.851785,0.0611554,-5.55112e-17,0.228235,7.18207e-18,1.92443e-18,9.12912e-06,-2.12914e-06,-3e-06,6.49996e-06,1.02269e-22,2.74029e-23,0.0,9.129161670617947e-06,6.499981124896692e-06,0.0,-2.1291377333421124e-06,0.0,-2.9999955000192813e-06
1,2e-05,1.70356,0.12231,2.22045e-16,0.456468,3.59094e-18,9.6219e-19,1.82581e-05,-4.25827e-06,-5.99996e-06,1.29999e-05,1.09612e-22,-4.09088e-22,0.0,1.8258266680115653e-05,1.2999984499106887e-05,0.0,-4.258260933531766e-06,0.0,-5.9999420002343484e-06
2,3.5e-05,2.98121,0.214041,-1.11022e-16,0.798812,3.59087e-18,9.62171e-19,3.19515e-05,-7.45192e-06,-1.04998e-05,2.27496e-05,4.38455e-22,-1.63636e-21,0.0,3.19520104545834e-05,2.2749858774151477e-05,0.0,-7.451892234500157e-06,0.0,-1.0499744877323636e-05
3,5.75e-05,4.89764,0.351635,-1.66533e-15,1.31232,1.60302e-17,1.19931e-17,5.24912e-05,-1.22423e-05,-1.72495e-05,3.73739e-05,1.63633e-21,4.38454e-22,0.0,5.249257768724647e-05,3.737459841279822e-05,0.0,-1.2242225063352485e-05,0.0,-1.7249351228265652e-05
4,9.125e-05,7.77222,0.55802,-1.25455e-14,2.08256,8.33161e-18,4.07215e-17,8.32998e-05,-1.94277e-05,-2.73738e-05,5.93098e-05,1.19786e-21,2.07484e-21,0.0,8.330326952465938e-05,5.931155886096384e-05,0.0,-1.9427511283476306e-05,0.0,-2.737342534098186e-05
5,0.00014188,12.0839,0.867585,-6.89448e-14,3.23787,1.32116e-17,-3.4949e-17,0.000129511,-3.02053e-05,-4.25596e-05,9.22122e-05,5.0267e-21,-5.66869e-21,0.0,0.0001295193869115252,9.221645167567516e-05,0.0,-3.0204843824543914e-05,0.0,-4.255869435310089e-05
6,0.00021781,18.551,1.3319,-3.50497e-13,4.97073,6.2965e-17,9.17361e-18,0.000198823,-4.63708e-05,-6.53367e-05,0.000141563,6.5453e-21,1.75381e-21,0.0,0.0001988427666026471,0.00014157302051431842,0.0,-4.636972489102664e-05,0.0,-6.533456560431361e-05
7,0.00033172,28.2507,2.02831,-1.77602e-12,7.56976,1.05009e-16,8.20218e-17,0.000302781,-7.06166e-05,-9.94992e-05,0.000215581,3.27155e-21,8.76611e-22,0.0,0.00030282684279359096,0.00021560423925381933,0.0,-7.061410670661239e-05,0.0,-9.949425011879232e-05
8,0.00050258,42.7983,3.07278,-8.98892e-12,11.4678,1.04983e-16,8.20148e-17,0.000458697,-0.00010698,-0.000150736,0.000326594,6.54415e-21,1.7535e-21,0.0,0.00045880221755600914,0.00032664733762688414,0.0,-0.00010697427784389646,0.0,-0.00015072463989995732
9,0.00075887,64.6149,4.63914,-4.54522e-11,17.3135,-1.86392e-16,2.50271e-16,0.00069252,-0.000161514,-0.000227574,0.000493077,-1.35606e-20,2.4434e-20,0.0,0.0006927598473382979,0.0004931985824463414,0.0,-0.00016150095731615188,0.0,-0.0002275481070015406
10,0.0011433,97.3295,6.98794,-2.29861e-10,26.0793,2.28126e-16,-3.77649e-16,0.00104314,-0.000243289,-0.000342794,0.000742721,-1.31002e-20,-3.5102e-21,0.0,0.0010436842597596474,0.0007429968855396929,0.0,-0.00024325940763114673,0.0,-0.00034273525284966855
11,0.00172,118.372,9.52711,-0.0432408,33.8182,-1.93279,-0.196005,0.00158071,-0.00038462,-0.000635894,0.00107766,4.57168e-05,-6.96868e-06,0.00035733,0.001581959980584191,0.0010782408841842894,4.5717845028825366e-05,-0.00038454604320981023,-6.9686557188086695e-06,-0.0006356918622587582
12,0.0025849,120.421,10.4415,0.0747243,35.4558,-3.03161,-0.370145,0.00242493,-0.000637236,-0.00121399,0.00144731,0.000270824,-1.87451e-05,0.00130232,0.002427872520740726,0.0014483578585824386,0.0002708606761303578,-0.0006370330082603459,-1.874492431175323e-05,-0.0012132534122402117
13,0.0034499,122.275,10.9469,0.0508033,36.8755,-3.9003,-0.521782,0.0032655,-0.000887813,-0.00179374,0.00182732,0.000494468,-3.25752e-05,0.00225128,0.0032708375534706846,0.0018289905665895834,0.000494590269453532,-0.0008874190106434865,-3.2574669433960146e-05,-0.0017921322098690684
14,0.0043149,124.19,11.5731,0.0709464,38.1374,-4.68885,-0.623731,0.00410261,-0.00113212,-0.00237531,0.00221573,0.000713938,-4.66192e-05,0.00320233,0.004111037225004166,0.0022181865437271853,0.0007141929143945625,-0.0011314793939232182,-4.661811334194521e-05,-0.0023724911834980267
15,0.0056123,126.697,12.2178,-0.0842396,39.9262,-5.76534,-0.792876,0.00534985,-0.00148997,-0.00325154,0.00282228,0.00103369,-7.2192e-05,0.00463541,0.0053641860012618725,0.0028262663815452616,0.0010342244416412516,-0.0014888605457857862,-7.218939422026782e-05,-0.0032462594686509805
16,0.0060989,127.788,12.6451,0.0911137,40.5798,-6.20867,-0.848203,0.0058162,-0.0016219,-0.00357853,0.00305257,0.00114974,-8.20138e-05,0.0051727,0.005833146930869004,0.0030572338361571916,0.0011504012044138978,-0.0016205854309908618,-8.201043696021149e-05,-0.0035721346923940356
17,0.0068287,129.052,13.0246,-0.00279737,41.5464,-6.82383,-0.941515,0.00651288,-0.00181737,-0.00407295,0.00340632,0.00132184,-9.82469e-05,0.00598199,0.0065341349214766975,0.003412128100848788,0.0013227140155531725,-0.001815719583099007,-9.824207393138717e-05,-0.00406466678866646
18,0.0079234,130.946,13.533,-0.0575183,42.9004,-7.71866,-1.0589,0.0075531,-0.00210554,-0.0048147,0.00394966,0.00157061,-0.000124028,0.00719868,0.007581696612155575,0.003957470186199297,0.0015718440538738943,-0.0021033249055836256,-0.0001240203088456182,-0.004803127911449101
19,0.0095656,133.625,14.0371,-0.255424,44.6976,-8.82619,-1.20002,0.00910525,-0.00252987,-0.00592939,0.00478455,0.00193221,-0.000165145,0.00902908,0.009146828888360936,0.004796014235795454,0.0019340779206198366,-0.002526672575815736,-0.00016513136431517417,-0.005911845859591036
20,0.011208,136.303,14.5658,-0.370205,46.3037,-9.76762,-1.32054,0.0106501,-0.00294611,-0.00704445,0.00563411,0.00228396,-0.00020839,0.0108628,0.010707014182805175,0.005650011447220438,0.0022865702234777796,-0.0029417744766219167,-0.00020836828831216625,-0.007019696022257715
21,0.01285,138.988,15.2467,-0.318864,47.8161,-10.6798,-1.43379,0.0121875,-0.00335367,-0.00815925,0.00649905,0.00262282,-0.000253845,0.0126994,0.01226207021168535,0.006520214650649558,0.0026262626014930124,-0.0033480527300100427,-0.00025381278408398433,-0.008126053666801192
22,0.014492,141.608,15.9719,-0.19689,49.2419,-11.5544,-1.5394,0.0137179,-0.00375389,-0.00927419,0.00737774,0.00294993,-0.000301215,0.0145388,0.013812422110617284,0.007405022577069653,0.0029542853250841272,-0.0037468529631086156,-0.00030116963931647867,-0.009231317338691425
23,0.016134,144.354,16.9701,0.184713,50.6043,-12.428,-1.64288,0.0152414,-0.00414537,-0.0103881,0.00826947,0.00326456,-0.000350527,0.0163798,0.0153581424892264,0.00830375651230364,0.003269894479326574,-0.004136789813891428,-0.0003504655725886652,-0.010334330039504902
24,0.017776,146.633,17.4557,0.126802,51.85,-13.1331,-1.7322,0.0167596,-0.00453451,-0.0115052,0.00917023,0.00357562,-0.000401086,0.0182243,0.01690082997891129,0.009212405379859234,0.003582020155092902,-0.0045242446315300056,-0.0004010055757630582,-0.011439268281257298
25,0.019418,148.597,17.6559,-0.0884899,53.0526,-13.8809,-1.80909,0.0182721,-0.00492135,-0.0126223,0.0100811,0.00387362,-0.000452531,0.0200712,0.01844005623067213,0.010132085474464425,0.0038811321625746853,-0.0049092599982631935,-0.000452428623290535,-0.012542972885676296
26,0.020034,149.596,18.1051,0.166554,53.5228,-14.2231,-1.84413,0.0188378,-0.00506315,-0.0130388,0.0104246,0.00398123,-0.0004722,0.0207626,0.01901635076002095,0.010479125446527737,0.003989165623842883,-0.005050353861404178,-0.00047208853112590266,-0.012954163101162819
27,0.020958,150.658,18.3667,0.110133,54.2131,-14.693,-1.89613,0.0196844,-0.00527599,-0.013667,0.0109446,0.00414065,-0.000502267,0.0218025,0.019879415286239377,0.011004711232221132,0.004149234335364627,-0.005262096409646921,-0.0005021408850457432,-0.013574030575143947
28,0.022343,152.156,18.5597,-0.0808796,55.1678,-15.3166,-1.95669,0.0209512,-0.00559369,-0.0146095,0.0117296,0.00437454,-0.000547605,0.0233635,0.021172217217378497,0.011798661515253439,0.0043841222676817004,-0.005578074445848791,-0.0005474550917466958,-0.014503299064761555
29,0.022863,152.942,18.9176,0.147221,55.5462,-15.6193,-1.98296,0.0214253,-0.00571068,-0.0149606,0.0120253,0.00445831,-0.00056481,0.0239478,0.021656469748553286,0.012097894618897431,0.004468263049791643,-0.005694405062027341,-0.0005646505248577682,-0.014849246221882773
30,0.023642,153.653,18.9386,0.0312094,56.1076,-16.0182,-2.02689,0.022135,-0.00588835,-0.0154899,0.0124726,0.00458237,-0.000591179,0.0248269,0.0223817966969575,0.012550707271160366,0.004592885112652212,-0.00587104764457147,-0.0005910042881253075,-0.01537054854102815
31,0.024811,155.155,19.5319,0.194457,56.8773,-16.5787,-2.07477,0.0231973,-0.00614798,-0.0162826,0.0131456,0.00476446,-0.000630592,0.0261441,0.023468449953276682,0.013232383255393332,0.0047758280866398994,-0.006129119841379649,-0.0006303932186503269,-0.016150755031502095
32,0.026565,156.948,19.7085,0.0411334,57.961,-17.2874,-2.14484,0.0247863,-0.00653964,-0.017472,0.0141626,0.00502949,-0.000690681,0.0281222,0.025096034093391673,0.014263364754395269,0.005042159115655087,-0.006518303091571642,-0.0006904425347824539,-0.017320249687124978
33,0.027222,157.87,20.0814,0.119892,58.3037,-17.4622,-2.15793,0.0253817,-0.00668332,-0.0179177,0.0145419,0.00513144,-0.000712794,0.0288623,0.025706558007023927,0.0146481478181415,0.0051446283870593135,-0.006661036287585187,-0.0007125400227048218,-0.0177581324624142
34,0.028209,158.757,20.0937,0.133533,58.959,-17.991,-2.19707,0.0262718,-0.00690292,-0.0185842,0.0151199,0.00526956,-0.00074691,0.0299753,0.026619945857264016,0.015234783969095833,0.0052834685512130886,-0.0068791495743009135,-0.0007466311321600028,-0.01841257854874312
35,0.029688,160.26,20.3693,-0.0713113,59.7451,-18.4511,-2.23481,0.0276055,-0.00722613,-0.0195877,0.0159842,0.00548356,-0.000797623,0.0316436,0.027990062338137278,0.016112630699697927,0.005498622234106021,-0.0072000842969173195,-0.0007973049833329693,-0.019397107456170737
36,0.030243,161.064,20.7895,0.175846,60.0708,-18.6908,-2.26141,0.0281045,-0.00734492,-0.0199615,0.0163095,0.0055607,-0.000817103,0.0322679,0.02850315738581166,0.01644322590685965,0.0055761893895520664,-0.00731801199444948,-0.0008167692622492728,-0.01976358831786329
37,0.031075,161.694,20.7046,0.0207457,60.5535,-19.0373,-2.28841,0.028852,-0.00752746,-0.0205248,0.0168004,0.00567369,-0.000846192,0.0332072,0.02927225090885055,0.01694232037917276,0.005689815862397696,-0.007499199627041597,-0.0008458340805128639,-0.0203155999998772
38,0.032324,163.195,21.3509,0.257576,61.2376,-19.534,-2.33153,0.029971,-0.00779312,-0.0213676,0.0175382,0.0058397,-0.000890157,0.0346138,0.030424651205334108,0.01769289727691814,0.005856784287559869,-0.007762832369781036,-0.0008897609277885854,-0.02114093016921048
39,0.034196,165.135,21.779,0.269759,62.1686,-20.1224,-2.37912,0.0316459,-0.00819251,-0.0226327,0.0186474,0.00608587,-0.000955971,0.036724,0.032151955580888236,0.018822348516435827,0.006104426531942986,-0.008159042845643172,-0.0009555142052960486,-0.022378501787467475
40,0.034898,165.644,21.6214,0.0692998,62.4953,-20.3098,-2.38685,0.0322733,-0.00834449,-0.0231074,0.0190632,0.0061777,-0.000980328,0.0375155,0.032799730903689595,0.019246062933071517,0.006196821343674275,-0.00830977138015998,-0.0009798476354906382,-0.02284246858143779
41,0.035952,166.545,21.7236,-0.0374207,63.0203,-20.6568,-2.41379,0.0332125,-0.00856881,-0.0238184,0.0196895,0.00631069,-0.00101742,0.0387022,0.03377019206818055,0.019884616684521017,0.00633064435730879,-0.008532202383449983,-0.00101690260375642,-0.023536980657975715
42,0.037532,168.019,22.0039,-0.0428927,63.7829,-21.1752,-2.45258,0.0346184,-0.00890282,-0.0248825,0.0206314,0.00650356,-0.0010732,0.0404811,0.035224591711880304,0.020845698555429282,0.006524754067054106,-0.008863307243286545,-0.0010726243268358582,-0.024575482324054043
43,0.038124,168.785,22.3872,0.190628,64.0753,-21.3881,-2.47396,0.0351447,-0.00902581,-0.0252798,0.0209849,0.00657427,-0.0010944,0.0411469,0.035769573813958955,0.021206631300972667,0.00659592794873709,-0.008985199649201525,-0.001093801362722746,-0.024962941511062597
44,0.039013,169.403,22.3,0.058901,64.5081,-21.7031,-2.49298,0.0359332,-0.00921453,-0.0258778,0.0215174,0.00667748,-0.00112592,0.0421478,0.036586600193230234,0.021750568642604717,0.0066998240759281735,-0.009172206315819609,-0.0011252863898971732,-0.0255458393682092
45,0.040346,170.842,22.8974,0.286651,65.1253,-22.1461,-2.52936,0.0371138,-0.00949012,-0.0267729,0.0223167,0.00682962,-0.00117358,0.0436467,0.03781111702347406,0.022567580347350846,0.006852995038582721,-0.009445230924327142,-0.001172891624306116,-0.026417683035546924
46,0.042346,172.352,22.8257,-0.0481267,65.9587,-22.6583,-2.55597,0.0388817,-0.009909,-0.0281171,0.0235161,0.00705453,-0.00124406,0.0458956,0.03964748607739188,0.0237947837099588,0.00707947181318791,-0.009860067616535129,-0.0012432864781606323,-0.02772549320987172
47,0.043096,173.342,23.3569,0.256307,66.2804,-22.8528,-2.57966,0.0395435,-0.0100616,-0.0286182,0.0239655,0.00713817,-0.00127095,0.0467363,0.040335752505918476,0.024254980484228028,0.007163707462896074,-0.01001115144222775,-0.0012701426851039477,-0.02821257791595888
48,0.04422,174.298,23.5382,0.277887,66.7739,-23.1917,-2.60759,0.0405344,-0.0102938,-0.0293718,0.0246427,0.0072594,-0.00131129,0.0479995,0.04136713211571319,0.02494884087162208,0.007285813320448753,-0.010241000166393177,-0.001310430634934634,-0.028944641041210195
49,0.045908,175.686,23.7007,0.243138,67.4596,-23.67,-2.62607,0.0420184,-0.0106421,-0.0305009,0.0256587,0.00743504,-0.00137086,0.0498932,0.042913668185714515,0.02599071807794484,0.00746274853869644,-0.010585673197742396,-0.00136992080064946,-0.03004044089678548
50,0.04654,176.182,23.7372,0.148221,67.6926,-23.777,-2.639,0.0425744,-0.0107723,-0.0309247,0.0260388,0.00750288,-0.00139339,0.0506027,0.0434936894161857,0.02638077127480032,0.007531097129915176,-0.010714486557160452,-0.0013924196828829505,-0.030451422664745542
51,0.047489,177.007,23.9607,0.304903,68.1188,-24.1349,-2.65927,0.0434066,-0.0109667,-0.0315573,0.0266126,0.00759524,-0.00142727,0.0516667,0.04436244630412034,0.026969877559787525,0.007624156999484821,-0.010906784968962469,-0.0014262519345825675,-0.031064565137356337
52,0.048913,178.094,24.0853,0.13196,68.6434,-24.4271,-2.68146,0.0446539,-0.0112575,-0.0325092,0.0274705,0.00773972,-0.00147784,0.053262,0.045665892308508926,0.027851293046859515,0.0077697490550048265,-0.011194371458791208,-0.00147674853220503,-0.031986455934265856
53,0.051048,179.675,24.1468,-0.033984,69.4317,-24.9183,-2.70546,0.046521,-0.0116943,-0.033933,0.0287585,0.00794699,-0.00155309,0.0556523,0.04762007885919117,0.02917601845232798,0.007978651139711301,-0.011626187441861613,-0.0015518845798486725,-0.033363732902164434
54,0.053184,181.339,24.3021,-0.133008,70.1777,-25.3277,-2.73337,0.0483841,-0.0121292,-0.0353535,0.0300444,0.00815145,-0.00162827,0.0580384,0.04957371917663811,0.030500287150537764,0.008184763524874406,-0.012055937756963675,-0.0016269450876061908,-0.034735864932076366
55,0.055319,183.074,24.6064,-0.0993807,70.9147,-25.7523,-2.76532,0.0502427,-0.0125616,-0.0367706,0.0313299,0.00835022,-0.00170353,0.0604206,0.051526270835282606,0.031825847090779735,0.00838518032808433,-0.012483032424955853,-0.0017020798163634998,-0.036102771987138516
56,0.057455,184.809,24.9621,-0.0166348,71.637,-26.177,-2.79829,0.0520968,-0.012992,-0.0381848,0.032615,0.00854382,-0.00177885,0.0627994,0.05347771422059111,0.033152698872882747,0.008580422597837645,-0.012907968275045478,-0.0017772687840597046,-0.03746495202246569
57,0.05959,186.447,25.2347,0.00136933,72.3374,-26.5829,-2.82844,0.0539467,-0.0134214,-0.0395968,0.0338994,0.00873306,-0.00185406,0.065175,0.05542834632501625,0.03448053275168994,0.00877130441767826,-0.013331734604325907,-0.0018523422924997535,-0.03882309243742832
58,0.061725,188.036,25.4861,0.00683785,73.0207,-26.979,-2.85764,0.0557924,-0.0138495,-0.0410062,0.035183,0.00891784,-0.00192919,0.0675472,0.057378149245936205,0.03580924454832557,0.008957722401935708,-0.013754036888488308,-0.0019273303090632243,-0.04017682097435893
59,0.063861,189.6,25.7467,0.0249225,73.6895,-27.3702,-2.88677,0.0576338,-0.0142762,-0.0424129,0.0364658,0.0090981,-0.00200429,0.0699159,0.059326999125369095,0.03713883326310574,0.009139613514329348,-0.01417477826939062,-0.0020022827520576048,-0.041526055034029175
60,0.065996,191.478,26.4721,0.440423,74.3723,-27.8235,-2.92937,0.0594703,-0.0146975,-0.0438148,0.0377494,0.00927117,-0.0020801,0.0722803,0.061274240666514324,0.03847095944516177,0.009314280421605092,-0.014590018958712592,-0.002077938091250231,-0.04286879824171508
61,0.068131,192.633,26.2781,0.0477045,74.9724,-28.1451,-2.93917,0.0613037,-0.0151239,-0.0452193,0.0390299,0.00944477,-0.00215449,0.0746435,0.06322176560994097,0.039801573252406186,0.00948951259039843,-0.015010108205236294,-0.0021521707523175504,-0.044212145428196736
62,0.070267,194.427,26.939,0.455847,75.6356,-28.5671,-2.9841,0.0631319,-0.0155432,-0.0466157,0.0403116,0.00961003,-0.00223026,0.0770007,0.06516732553626814,0.041135141363407346,0.00965635461302572,-0.015423027892203733,-0.002227774818043482,-0.045545876160799526
63,0.072402,195.552,26.7648,0.100378,76.2125,-28.8775,-2.99309,0.0649571,-0.015967,-0.0480144,0.04159,0.00977528,-0.00230455,0.0793566,0.06711324424403764,0.042466979657778126,0.009823214112012035,-0.01584020320728985,-0.0023018965633659905,-0.04687993795020873
64,0.074538,196.903,26.9068,0.0631186,76.8162,-29.2133,-3.02194,0.0667781,-0.016388,-0.0494079,0.0428677,0.0099357,-0.00237939,0.0817075,0.0690582278318923,0.04379979100289488,0.009985222946401029,-0.016254447277244455,-0.002376561495430529,-0.048207185781972806
65,0.076673,198.27,27.1178,0.0636655,77.4047,-29.5643,-3.04773,0.068595,-0.0168072,-0.0507987,0.0441441,0.0100917,-0.0024541,0.0840547,0.07100236534294191,0.04513294769573428,0.01014279293131981,-0.01666674698888848,-0.002451091158431007,-0.04953001911645405
66,0.078808,199.991,27.8463,0.504868,78.0158,-29.9886,-3.08988,0.0704071,-0.0172208,-0.0521844,0.0454211,0.0102407,-0.00252961,0.0863974,0.07294488822047684,0.04646843499709896,0.010293315421113558,-0.01707336952699645,-0.002526413232716851,-0.050846173260962635
67,0.080944,200.939,27.5631,0.054313,78.5358,-30.2599,-3.09358,0.0722164,-0.0176403,-0.0535733,0.0466943,0.0103918,-0.0026035,0.0887389,0.07488792464458016,0.047801647151295645,0.01044598227476401,-0.01748562077273541,-0.00260011383314096,-0.05216353795523743
68,0.083079,202.615,28.2608,0.522494,79.1379,-30.6635,-3.13977,0.0740206,-0.018052,-0.0549533,0.0479691,0.0105338,-0.00267903,0.0910741,0.07682898794489157,0.04913823645209514,0.010589475792045722,-0.017890038687523258,-0.0026754446016408195,-0.05347065015800068
69,0.085214,203.527,27.9709,0.0866985,79.6394,-30.9212,-3.14252,0.0758221,-0.0184695,-0.0563365,0.0492397,0.0106777,-0.00275279,0.0934081,0.07877064378805376,0.05047211873128887,0.010734910081358295,-0.01829998401432953,-0.0027490045479228176,-0.05477898450207308
70,0.08735,205.128,28.6331,0.514724,80.2172,-31.3131,-3.18712,0.0776185,-0.0188791,-0.0577115,0.0505116,0.010813,-0.00282815,0.095736,0.08071028904030886,0.051809064269383365,0.010871671766411684,-0.01870200600115368,-0.0028241545512524002,-0.056077770278535
71,0.089485,206.052,28.4142,0.13474,80.7016,-31.5711,-3.19054,0.0794123,-0.0192937,-0.0590892,0.0517795,0.0109499,-0.00290183,0.0980624,0.0826506069076014,0.053143498767954434,0.011010069571390169,-0.019108767821913508,-0.0028976237609061872,-0.05737731653643141
72,0.091621,207.227,28.5356,0.117499,81.2268,-31.8722,-3.21731,0.0812019,-0.0197055,-0.0604613,0.0530467,0.011082,-0.00297619,0.100384,0.08458985315370082,0.05447888813359847,0.011143632823239047,-0.019512615673344835,-0.002971765536977866,-0.058669802207841126
73,0.093756,208.396,28.693,0.0969907,81.734,-32.1805,-3.23913,0.0829877,-0.0201159,-0.061831,0.0543122,0.0112104,-0.00305033,0.102701,0.086528444166184,0.05581417589165616,0.011273472001190443,-0.01991492513632398,-0.0030456824701463603,-0.05995825957828971
74,0.095891,209.573,28.8835,0.107611,82.2355,-32.4885,-3.26211,0.0847698,-0.0205251,-0.0631979,0.0555762,0.0113357,-0.00312445,0.105015,0.08846647287410048,0.0571495688005057,0.011400192506106022,-0.020315893905153093,-0.0031195739857082794,-0.0612423248389391
75,0.096692,210.289,29.3561,0.448478,82.455,-32.6681,-3.28525,0.0854366,-0.0206753,-0.0637078,0.0560507,0.01138,-0.00315276,0.105881,0.0891925043502062,0.05765130529847173,0.011444998527080141,-0.02046303140758554,-0.0031477952710946555,-0.06172087536067972
76,0.097893,210.639,29.0694,0.173108,82.7236,-32.8493,-3.28403,0.0864365,-0.0209075,-0.0644764,0.0567617,0.011447,-0.00319408,0.107181,0.0902821326041674,0.0584035627723809,0.01151276761222042,-0.02069045348696741,-0.00318898435322168,-0.06244175962456655
77,0.099695,211.601,29.2968,0.185914,83.1407,-33.1389,-3.30081,0.0879337,-0.0212499,-0.0656259,0.0578274,0.0115448,-0.00325644,0.109128,0.09191572561567463,0.05953210468597736,0.01161169839852949,-0.02102571167621603,-0.0032511435500135466,-0.06351886363774395
78,0.1024,212.873,29.3417,0.0465487,83.7448,-33.5064,-3.32465,0.0901748,-0.0217647,-0.0673469,0.0594239,0.0116885,-0.00334977,0.112044,0.09436556208724567,0.061224998684170195,0.011757077444823683,-0.021529557938689825,-0.0033441657798362057,-0.0651291616145605
79,0.1051,214.119,29.3199,-0.143827,84.3151,-33.8089,-3.34419,0.0924106,-0.0222791,-0.0690638,0.0610156,0.0118305,-0.00344264,0.114953,0.09681508190878008,0.06291549553959075,0.011900757150838492,-0.022032753701040297,-0.0034367209092962536,-0.06673286426450231
80,0.1078,215.454,29.4521,-0.199939,84.8856,-34.1313,-3.36872,0.0946408,-0.0227913,-0.0707755,0.0626042,0.0119682,-0.00353549,0.117855,0.09926392859839228,0.0646053850196282,0.012040105479010466,-0.022533540262207885,-0.003529247514145739,-0.06832897120291248
81,0.1105,216.881,29.7406,-0.12224,85.455,-34.4715,-3.39781,0.096865,-0.0233007,-0.0724824,0.0641901,0.0121015,-0.00362846,0.120751,0.10171163251082271,0.06629508219095936,0.012175019416884814,-0.023031334877745446,-0.0036218850936796665,-0.06991788403853083
82,0.1132,218.323,30.0783,7.82378e-05,86.0172,-34.8146,-3.42818,0.0990834,-0.0238081,-0.074185,0.0657735,0.0122308,-0.00372152,0.123641,0.10415838252807164,0.06798479121370349,0.012305902108279199,-0.023526923037079817,-0.0037146037267880017,-0.07150009453115902
83,0.1159,219.719,30.3789,0.0943519,86.5677,-35.1483,-3.45717,0.101296,-0.0243141,-0.0758838,0.0673543,0.0123566,-0.00381456,0.126525,0.10660414811793473,0.06967439668396769,0.012433258201294706,-0.0240208934289744,-0.0038072938080477847,-0.0730760911400331
84,0.1186,221.055,30.6252,0.146116,87.1059,-35.4705,-3.48431,0.103503,-0.0248189,-0.0775788,0.0689322,0.012479,-0.00390752,0.129402,0.10904912050743865,0.0713635682359206,0.012557187616424104,-0.024513443351911524,-0.0038998955778184463,-0.07464589637976926
85,0.1213,222.349,30.8418,0.175628,87.6337,-35.7848,-3.51036,0.105705,-0.0253225,-0.0792699,0.0705073,0.0125982,-0.00400041,0.132274,0.11149393742635394,0.07305240268466107,0.012677891627004056,-0.02500457470458506,-0.003992419019200444,-0.07620944027723786
86,0.124,223.621,31.0519,0.202288,88.1527,-36.0947,-3.53607,0.1079,-0.0258246,-0.080957,0.0720793,0.0127141,-0.00409323,0.13514,0.113936346181982,0.07474056761166681,0.012795267796461118,-0.025493997027869475,-0.004084864152422041,-0.07776665337407951
87,0.1267,225.275,31.8045,0.687666,88.6945,-36.4775,-3.57843,0.11009,-0.0263207,-0.0826377,0.0736503,0.0128235,-0.00418693,0.137999,0.11637854000627446,0.07643031199006423,0.012906073659728401,-0.025977329555397555,-0.0041781770288744635,-0.07931534914870264
88,0.1294,226.165,31.589,0.25315,89.137,-36.7172,-3.57677,0.112275,-0.0268216,-0.0843213,0.075215,0.0129363,-0.0042786,0.140854,0.11882049397936734,0.07811592089145458,0.013020335909106784,-0.02646509533988417,-0.004269459831375055,-0.08086410971440039
89,0.1321,227.268,31.5899,0.220559,89.6547,-36.9902,-3.60902,0.114455,-0.0273215,-0.0859961,0.0767788,0.0130433,-0.00437139,0.143702,0.1212621831304268,0.07980319750628118,0.013128734884290783,-0.02695164381579984,-0.004361849381717797,-0.08240219015536898
90,0.1348,228.862,32.3317,0.704445,90.1744,-37.3626,-3.65116,0.116628,-0.0278137,-0.0876647,0.0783406,0.0131433,-0.00446487,0.146543,0.12370133503311975,0.0814909517643796,0.013230052823591798,-0.027430460370293064,-0.004454917285976023,-0.08393201717124765
91,0.1375,229.711,32.124,0.283222,90.5949,-37.5919,-3.64897,0.118797,-0.0283105,-0.0893361,0.0798962,0.0132468,-0.00455632,0.14938,0.12614128840165906,0.08317462831303768,0.013334927561233112,-0.02791351291739319,-0.004545955720994255,-0.08546185435666853
92,0.1402,231.166,32.6684,0.714138,91.1232,-37.9343,-3.69823,0.12096,-0.0288018,-0.0909965,0.0814527,0.0133415,-0.00464986,0.152209,0.12857976827373707,0.08486190240242153,0.013430894922856096,-0.02839098170868426,-0.004639066137454129,-0.0869790935331538
93,0.1429,232.091,32.5792,0.420496,91.5396,-38.1652,-3.69805,0.123118,-0.0292953,-0.092659,0.0830025,0.0134385,-0.00474129,0.155034,0.1310178731826881,0.08654452490615494,0.013529202487503333,-0.028870352464748006,-0.004730067827431461,-0.08849572973699049
94,0.1456,233.41,33.0028,0.729183,92.0445,-38.4925,-3.7445,0.12527,-0.0297847,-0.0943125,0.0845529,0.0135276,-0.00483462,0.157851,0.13345444445613297,0.08823041009806776,0.013619511962672304,-0.029345507034444718,-0.004822952035692163,-0.09000165667966242
95,0.1483,234.371,33.0061,0.498892,92.4473,-38.7271,-3.74435,0.127418,-0.0302748,-0.095967,0.0860965,0.0136189,-0.00492593,0.160664,0.13589172130104288,0.08991149969024792,0.013712059648852248,-0.02982110824585049,-0.004913817503415685,-0.09150600412409948
96,0.151,235.603,33.3452,0.75228,92.9389,-39.0402,-3.78978,0.129559,-0.0307621,-0.0976131,0.0876408,0.0137028,-0.00501911,0.163469,0.13832627073154002,0.09159595033301815,0.013797113658622573,-0.030293761248545104,-0.005006535314110883,-0.09300024591759726
97,0.1537,236.555,33.3646,0.542348,93.3301,-39.2688,-3.78901,0.131697,-0.0312495,-0.0992597,0.0891783,0.0137886,-0.00511025,0.16627,0.1407626158232138,0.09327556998338937,0.013884101182685793,-0.030766280906917576,-0.005097214886151447,-0.09449248281687272
98,0.1564,237.301,33.0764,0.270269,93.7718,-39.4905,-3.81348,0.133829,-0.0317397,-0.100901,0.0907144,0.0138706,-0.00520217,0.169065,0.14319731618850962,0.09495624109541212,0.013967243087754433,-0.03124128284353056,-0.005188662147178613,-0.09597747331401019
99,0.1575,238.049,33.6461,0.695565,93.9723,-39.6605,-3.83979,0.134626,-0.0319182,-0.101512,0.0912903,0.013898,-0.00523724,0.170109,0.14410880763060252,0.0955870080065575,0.013995026170841474,-0.031414190842045,-0.005223549569042585,-0.0965296623668811
100,0.159,238.589,33.7098,0.695988,94.2239,-39.8526,-3.85276,0.135822,-0.0321908,-0.102432,0.0921537,0.0139395,-0.00528917,0.171678,0.14547798036661774,0.09653334630472554,0.014037107837616025,-0.03167819134871752,-0.0052752069688174474,-0.09736047284608329
101,0.1613,239.419,33.8259,0.622469,94.5519,-40.0967,-3.8499,0.137612,-0.0325984,-0.103811,0.0934451,0.0140012,-0.00536587,0.174027,0.1475302221599133,0.0979503242138533,0.014099675857373262,-0.03207279889144332,-0.005351499434589568,-0.09860435490023411
102,0.1647,240.087,33.1758,-0.000125816,95.065,-40.3331,-3.86469,0.140292,-0.0332165,-0.105876,0.0953782,0.0140928,-0.00548102,0.177543,0.15060972784973958,0.10007482476001117,0.014192571642243745,-0.032670889835400674,-0.005466026615400632,-0.100463816352652
103,0.1664,241.381,34.1676,0.7502,95.3765,-40.6042,-3.90874,0.141628,-0.0335151,-0.106899,0.0963439,0.0141324,-0.00554,0.179294,0.15214796976294465,0.10113768013540048,0.014232734463299312,-0.03295969118750819,-0.00552468249937188,-0.10138357133363796
104,0.1681,242.014,34.2744,0.766449,95.636,-40.7795,-3.91933,0.142962,-0.0338189,-0.107926,0.0973087,0.0141737,-0.00559803,0.181046,0.15368596076652952,0.1022005704250224,0.014274623140227982,-0.033253433411622346,-0.00558239022764051,-0.10230597666966423
105,0.1707,242.888,34.3542,0.640591,95.9784,-41.0213,-3.9134,0.14496,-0.0342738,-0.109466,0.0987514,0.0142347,-0.00568373,0.183669,0.1559933296100302,0.10379186279071528,0.014336495779335712,-0.03369310641355716,-0.005667608165157212,-0.1036873615262458
106,0.1716,243.131,34.2484,0.566953,96.1343,-41.0955,-3.92823,0.145708,-0.0344455,-0.110042,0.0992927,0.0142575,-0.00571643,0.184652,0.15685833609267186,0.10438950706387362,0.014359622915087966,-0.033859007064207525,-0.005700122302761179,-0.10420348894703957
107,0.1731,243.737,34.459,0.719373,96.3695,-41.2895,-3.93882,0.146828,-0.0347001,-0.110903,0.100104,0.0142874,-0.0057651,0.186124,0.15815474328160373,0.10528586182809896,0.014389952721241439,-0.0341049552504763,-0.005748513700194469,-0.10497443780194737
108,0.1752,244.374,34.4234,0.541416,96.6599,-41.4765,-3.9416,0.148507,-0.0350833,-0.112197,0.101318,0.0143345,-0.00583741,0.188329,0.1601009184524338,0.10662849367699345,0.014437731613198723,-0.03447501532358588,-0.005820405425892128,-0.1061318518710277
109,0.1785,245.225,34.1773,0.251066,97.1221,-41.7271,-3.9574,0.151019,-0.0356596,-0.114131,0.103134,0.0144019,-0.00594588,0.19163,0.16301875522824605,0.10863995687730377,0.014506107020534786,-0.03503128706715619,-0.005928238238097294,-0.10785892225412719
110,0.1817,246.189,34.0859,0.0444059,97.5641,-41.9501,-3.9728,0.153525,-0.0362339,-0.11606,0.104945,0.0144681,-0.00605395,0.194921,0.1659369351811395,0.11064952295205477,0.014573269547874634,-0.03558530949622574,-0.006035661768655887,-0.10957820361310189
111,0.185,247.324,34.2493,0.054247,98.0157,-42.2082,-3.99667,0.156023,-0.036805,-0.117982,0.106751,0.0145308,-0.00616213,0.198204,0.16885308640169705,0.11265716834861506,0.014636885286207768,-0.03613592948146993,-0.006143183014836628,-0.111287950712466
112,0.1882,248.535,34.5364,0.168984,98.4679,-42.4807,-4.02428,0.158515,-0.0373734,-0.119897,0.108552,0.0145904,-0.00627044,0.201477,0.17176950063588614,0.11466286950055715,0.014697359446683045,-0.03668363414674092,-0.0062508218173997765,-0.11298820577302959
113,0.1915,249.723,34.8087,0.273262,98.9132,-42.7485,-4.05122,0.160999,-0.0379401,-0.121808,0.110349,0.0146476,-0.00637874,0.204742,0.1746837941294901,0.11666771949526322,0.014755401795638612,-0.037229390876494795,-0.006358439025819895,-0.11468166669452151
114,0.1947,250.855,35.0227,0.330833,99.3494,-43.006,-4.07617,0.163477,-0.0385054,-0.123714,0.112142,0.0147027,-0.00648694,0.207999,0.17759827011573237,0.11867170074863731,0.01481131635870958,-0.03777349129735874,-0.006465945226526992,-0.11636747635084344
115,0.198,251.949,35.2008,0.360102,99.7781,-43.2564,-4.09987,0.165948,-0.0390695,-0.125615,0.11393,0.0147556,-0.00659503,0.211249,0.18051171351809359,0.12067367498118986,0.014865001297299063,-0.03831613020522462,-0.006573330518764742,-0.11804566615350609
116,0.2012,253.024,35.3713,0.38461,100.201,-43.5035,-4.12324,0.168412,-0.039632,-0.127511,0.115714,0.0148062,-0.00670303,0.214489,0.18342408094338314,0.12267474123773159,0.014916354765596607,-0.03885692526911322,-0.006680614805612994,-0.11971626734009555
117,0.2045,254.088,35.5438,0.412319,100.619,-43.7488,-4.14657,0.170869,-0.0401929,-0.129402,0.117493,0.0148546,-0.00681095,0.217722,0.1863353289138292,0.12467375719987794,0.014965477905937608,-0.039395879255954114,-0.006787808049411703,-0.12137931097522792
118,0.2077,255.571,36.3023,0.930348,101.063,-44.0709,-4.18827,0.173318,-0.0407472,-0.131285,0.11927,0.0148976,-0.00691982,0.220946,0.18924422462326929,0.12667407922616958,0.015009122359836757,-0.03992819457526242,-0.006895933174851376,-0.12303219705203527
119,0.211,256.306,36.1256,0.504253,101.398,-44.254,-4.17926,0.175763,-0.0413053,-0.133171,0.121038,0.0149458,-0.00702625,0.224164,0.19215548431715046,0.12866780092889152,0.015058046978608353,-0.040463861158206105,-0.007001623616266883,-0.12468459962297163
120,0.2142,257.599,36.5849,0.94185,101.869,-44.544,-4.23253,0.178199,-0.0418592,-0.135043,0.122807,0.0149853,-0.00713527,0.227371,0.19506311513343477,0.13066618131504848,0.015098142563346517,-0.04099520105734067,-0.007109874398402938,-0.12632165728842937
121,0.2174,258.468,36.582,0.698635,102.208,-44.7334,-4.22689,0.18063,-0.0424133,-0.136917,0.124567,0.0150285,-0.0072417,0.230572,0.19797184769826393,0.1326579059977533,0.015141995750327153,-0.04152643842353043,-0.007215542071265735,-0.12795739733553702
122,0.2207,259.121,36.2361,0.427845,102.619,-44.9232,-4.25521,0.183054,-0.0429707,-0.138784,0.126325,0.0150676,-0.00734928,0.233766,0.2008792538096862,0.13465086989848407,0.015181688578350894,-0.0420605427180577,-0.00732234007848187,-0.12958398198546028
123,0.2239,260.572,37.0267,0.984747,103.044,-45.2389,-4.2986,0.185471,-0.0435175,-0.140642,0.128079,0.0150998,-0.00745774,0.236949,0.20378528949554253,0.13664279393098044,0.01521437795501912,-0.042584200832123664,-0.007430000058970765,-0.1311997134675702
124,0.2272,261.186,36.7509,0.492485,103.353,-45.3973,-4.2866,0.187883,-0.0440692,-0.142502,0.129825,0.0151379,-0.00756359,0.240127,0.2066923240881593,0.13862910579483234,0.015253058359676386,-0.043112261449609335,-0.007535058033173114,-0.13281418008111923
125,0.2304,262.01,36.6453,0.454446,103.767,-45.6005,-4.31975,0.190287,-0.0446208,-0.144352,0.131569,0.0151702,-0.00767101,0.243295,0.2095967020988838,0.140616607553117,0.01528585156306872,-0.043639935180399436,-0.007641662891389789,-0.13441699079092773
126,0.2337,262.969,36.8064,0.485385,104.144,-45.8256,-4.3418,0.192685,-0.0451686,-0.146198,0.133308,0.0151999,-0.00777803,0.246456,0.21250079560699087,0.14260186551514487,0.015316006000651194,-0.04416368575552765,-0.0077478593979506405,-0.13601338310248645
127,0.2369,263.863,36.8926,0.45209,104.511,-46.0393,-4.36082,0.195078,-0.0457155,-0.148039,0.135042,0.015228,-0.00788483,0.249608,0.21540578444374914,0.14458485590575276,0.015344536781275453,-0.04468628971670885,-0.007853826267835373,-0.137602519215567
128,0.2402,265.241,37.6534,0.985487,104.913,-46.342,-4.4029,0.197462,-0.0462553,-0.149872,0.136775,0.0152506,-0.00799274,0.252752,0.21830676843281016,0.14657014121389156,0.015367483827107398,-0.04520182890097568,-0.007960882985093787,-0.1391818459027392
129,0.2434,265.86,37.4451,0.558573,105.206,-46.4986,-4.39215,0.199842,-0.0467994,-0.151708,0.138499,0.0152788,-0.00809819,0.25589,0.22120979176912692,0.1485485330210714,0.015396117593885483,-0.04572119327997837,-0.00806548799458695,-0.14076085805694705
130,0.2467,266.582,37.2638,0.458527,105.593,-46.6823,-4.42133,0.202215,-0.0473444,-0.153534,0.140221,0.0153021,-0.00820497,0.25902,0.22411116372131645,0.15052803745910537,0.015419776599051804,-0.04624113353305226,-0.008171401106977227,-0.14232839713140943
131,0.2499,267.949,38.046,1.016,105.986,-46.9822,-4.46423,0.204581,-0.0478799,-0.155352,0.14194,0.0153191,-0.00831261,0.26214,0.22701083969867408,0.15250749601268931,0.01543703888198289,-0.0467517346803864,-0.008278155791721864,-0.14388622760845238
132,0.2532,268.506,37.7818,0.550878,106.265,-47.1246,-4.45151,0.206942,-0.0484203,-0.157174,0.143652,0.0153421,-0.0084177,0.265255,0.22991123486038,0.15448227877757836,0.01546039420246248,-0.04726673087845945,-0.008382370364279024,-0.1454446467507896
133,0.2564,269.237,37.649,0.489712,106.642,-47.3089,-4.4811,0.209297,-0.0489608,-0.158985,0.145361,0.0153599,-0.00852419,0.268361,0.23281108905657044,0.15645697589007002,0.015478469558349417,-0.04778154406962165,-0.00848796210332703,-0.1469908459895214
134,0.2597,270.109,37.7809,0.50758,106.987,-47.5139,-4.50111,0.211645,-0.0494977,-0.160792,0.147065,0.0153753,-0.0086303,0.271459,0.2357091304628527,0.15842925848452794,0.015494108047196642,-0.048292652939156855,-0.008593165863983954,-0.14853084172563158
135,0.2629,271.44,38.5656,1.06113,107.364,-47.8069,-4.54334,0.213986,-0.0500275,-0.162592,0.148768,0.0153855,-0.00873754,0.274549,0.23860531419766962,0.160403744309205,0.015504466139924844,-0.04879673394877948,-0.008699478632284263,-0.15006210765774486
136,0.2661,271.917,38.2283,0.545007,107.625,-47.9322,-4.52732,0.216323,-0.050563,-0.164395,0.150462,0.0154021,-0.00884208,0.277634,0.24150331981754514,0.16237113416079474,0.015521323653979735,-0.04930596693844791,-0.00880310377220761,-0.15159316501466613
137,0.2694,272.657,38.1471,0.532513,107.991,-48.1151,-4.55801,0.218653,-0.0510977,-0.166187,0.152154,0.0154131,-0.00894818,0.28071,0.2443993951702974,0.16433953091384357,0.015532494449979284,-0.049814167158489076,-0.008908264184038783,-0.15311214864713696
138,0.2726,273.965,38.9277,1.08987,108.36,-48.4016,-4.60022,0.220976,-0.0516236,-0.167973,0.153844,0.0154186,-0.00905509,0.283776,0.24729349516095755,0.1663089283932251,0.015538079894058754,-0.05031373851417853,-0.009014216137752329,-0.15462334045367054
139,0.2759,274.4,38.5589,0.554036,108.609,-48.5164,-4.58258,0.223295,-0.0521554,-0.169762,0.155525,0.0154305,-0.00915924,0.286839,0.25018932519340176,0.16827114248073238,0.01555016486911498,-0.05081864740086417,-0.009117421932606562,-0.15613436728109575
140,0.2791,275.142,38.5127,0.56887,108.966,-48.6989,-4.61358,0.225607,-0.0526859,-0.171541,0.157206,0.0154367,-0.00926503,0.289892,0.25308310683580615,0.17023665782404884,0.015556461299655933,-0.051322054567860875,-0.00922224185599263,-0.1576342696829368
141,0.2824,276.381,39.226,1.073,109.322,-48.9708,-4.65315,0.227913,-0.0532083,-0.173313,0.158883,0.015438,-0.00937147,0.292937,0.2559760507625486,0.1722007911647101,0.01555778152391385,-0.05181751450115235,-0.00932769462827343,-0.1591256200304162
142,0.2856,276.876,38.9672,0.630723,109.568,-49.0946,-4.63824,0.230214,-0.0537354,-0.175088,0.160552,0.015445,-0.00947538,0.295976,0.2588693791530816,0.17415882781222725,0.0155648904532657,-0.052317169793538065,-0.009430630039422683,-0.1606168481983381
143,0.2889,277.978,39.4539,1.08634,109.947,-49.3467,-4.68809,0.232508,-0.0542573,-0.176851,0.162221,0.0154438,-0.00958187,0.299007,0.2617605404029333,0.176120135151542,0.015563671776128496,-0.05281163642033293,-0.009536110155241362,-0.16209537698887577
144,0.2921,278.553,39.2921,0.755428,110.196,-49.4694,-4.6755,0.234797,-0.0547813,-0.178616,0.163882,0.0154477,-0.00968566,0.302031,0.2646520183138883,0.17807529400594668,0.015567632482171634,-0.05330783310796294,-0.009638905067734016,-0.16357297428528905
145,0.2954,279.093,39.0423,0.571552,110.52,-49.6282,-4.69866,0.23708,-0.0553065,-0.180373,0.165542,0.0154473,-0.00979057,0.305049,0.2675425171206254,0.18003252304465356,0.015567226255200017,-0.05380490529143345,-0.00974279840038339,-0.16504128627965353
146,0.2966,279.738,39.5996,0.990766,110.672,-49.7635,-4.72423,0.237934,-0.0554982,-0.181028,0.166163,0.0154445,-0.0098305,0.306177,0.2686254607813723,0.18076555082303236,0.015564382670947507,-0.05398627350639018,-0.00978233858101829,-0.16558800516715833
147,0.2984,279.812,39.127,0.59105,110.801,-49.8305,-4.70534,0.239215,-0.0557951,-0.182016,0.167093,0.0154434,-0.00988843,0.30787,0.2702516113236848,0.18186417356568985,0.015563265550740946,-0.05426710329054174,-0.009839700228648107,-0.166411997099011
148,0.3012,280.49,39.2999,0.649671,111.065,-50.0116,-4.72017,0.241133,-0.0562333,-0.183491,0.168486,0.015438,-0.00997643,0.310404,0.2726902918612364,0.18351165756566812,0.01555778152391385,-0.05468143265968517,-0.00992683050123977,-0.16764063306151333
149,0.3053,281.292,39.237,0.499566,111.441,-50.2232,-4.73684,0.244001,-0.0568915,-0.185699,0.170571,0.0154295,-0.010108,0.314195,0.2763456068344232,0.1859818536562421,0.015549149319457944,-0.05530343661675052,-0.010057085859114134,-0.16947645505039477
150,0.3094,282.073,39.1266,0.304322,111.801,-50.3957,-4.75173,0.246861,-0.0575486,-0.187899,0.172647,0.015421,-0.0102391,0.317974,0.2800011802481912,0.18844650941193075,0.015540517188375125,-0.05592399282247962,-0.010186858868351356,-0.17130159845539727
151,0.3135,282.976,39.2003,0.264462,112.169,-50.5927,-4.77276,0.249712,-0.0582027,-0.190092,0.174717,0.0154103,-0.0103701,0.321742,0.28365567061372565,0.19090914163141637,0.01552965096297565,-0.05654131102284721,-0.010316515897118794,-0.17311694279737677
152,0.3176,283.973,39.4129,0.339804,112.539,-50.8053,-4.79782,0.252554,-0.0588537,-0.192277,0.176781,0.0153976,-0.0105013,0.325497,0.28730900896441636,0.19336971653952495,0.01551675381830564,-0.05715530275337888,-0.010446353852676893,-0.1749217098513277
153,0.3217,284.977,39.6477,0.434746,112.905,-51.0188,-4.8233,0.255387,-0.0595023,-0.194456,0.178838,0.0153833,-0.0106323,0.329242,0.29096112616820813,0.19582700450066515,0.01550223203255685,-0.05776663354800493,-0.01057597688982792,-0.17671759811471954
154,0.3258,285.946,39.8453,0.500345,113.266,-51.2258,-4.84741,0.258211,-0.060149,-0.196628,0.18089,0.0153677,-0.0107633,0.332975,0.2946119529296234,0.19828336087362342,0.015486390321302945,-0.05837577887771739,-0.010705582947473258,-0.1785038269448812
155,0.3299,286.882,40.0089,0.539199,113.621,-51.4268,-4.87029,0.261026,-0.0607938,-0.198793,0.182935,0.0153508,-0.0108941,0.336697,0.2982614197917959,0.2007363576809711,0.015469228746322283,-0.05898274246940538,-0.010834974194851688,-0.18028044227949613
156,0.334,287.8,40.16,0.568892,113.971,-51.6246,-4.89264,0.263833,-0.0614368,-0.200952,0.184974,0.0153326,-0.0110247,0.340408,0.30191075904862785,0.20318715685493638,0.015450747374539997,-0.05958762207636337,-0.010964150711811671,-0.18204830770717584
157,0.3381,288.71,40.31,0.598746,114.318,-51.8207,-4.91479,0.26663,-0.0620778,-0.203104,0.187007,0.0153131,-0.0111553,0.344109,0.30555730075295573,0.20563572447045808,0.015430946278027546,-0.0601902332530968,-0.011093310359420072,-0.1838066470972186
158,0.3422,289.61,40.4593,0.628984,114.661,-52.0151,-4.93674,0.26942,-0.0627168,-0.205249,0.189034,0.0152922,-0.0112856,0.347798,0.30920489164525056,0.2080820265735419,0.015409723993023983,-0.06079057986287839,-0.011222156506571546,-0.1855555055179937
159,0.3464,290.501,40.6052,0.6575,115.0,-52.2075,-4.95843,0.2722,-0.0633539,-0.207388,0.191055,0.0152699,-0.0114159,0.351476,0.3128495449648607,0.21052602918201746,0.01538708060865357,-0.061388759614054766,-0.011350985866163676,-0.1872957404469232
160,0.3505,291.866,41.4054,1.22375,115.366,-52.478,-4.99957,0.274971,-0.0639833,-0.209518,0.193071,0.0152435,-0.0115471,0.355143,0.3164924960316462,0.2129689112546027,0.015360274743564606,-0.061979335654977485,-0.011480688108164827,-0.1890249582490381
161,0.3546,292.474,41.2868,0.811633,115.615,-52.6242,-4.98459,0.277736,-0.0646153,-0.21165,0.195077,0.0152237,-0.0116754,0.358801,0.320137634865286,0.2154045690385724,0.015340170809154285,-0.06257197742031939,-0.011607507000274686,-0.19075211523448288
162,0.3587,293.044,40.9277,0.654064,115.989,-52.7657,-5.01938,0.280491,-0.065251,-0.213769,0.197081,0.0151989,-0.0118056,0.362448,0.32377962859213016,0.21784268196812273,0.015314990685152852,-0.06316771104028018,-0.01173618732559234,-0.192465095958261
163,0.3628,293.896,41.0621,0.678786,116.315,-52.9501,-5.04028,0.283238,-0.0658808,-0.215882,0.199077,0.0151716,-0.0119351,0.366083,0.327421050434924,0.22027592352856917,0.015287272964255916,-0.06375754225852015,-0.011864159202975788,-0.19416961575114944
164,0.3669,294.715,41.1633,0.674272,116.636,-53.1295,-5.05972,0.285977,-0.0665089,-0.217988,0.201068,0.0151431,-0.0120645,0.369708,0.3310618404778922,0.2227079131345837,0.015258337689306067,-0.06434541150656348,-0.011992015708280568,-0.1958649087702431
165,0.371,295.539,41.2803,0.684392,116.955,-53.3091,-5.07961,0.288708,-0.0671351,-0.220089,0.203052,0.0151134,-0.0121937,0.373322,0.33470193865586917,0.22513617367217464,0.01522818496444689,-0.06493113500071224,-0.012119658093975416,-0.19755262303225873
166,0.3751,296.367,41.4109,0.706512,117.271,-53.4889,-5.09974,0.29143,-0.0677594,-0.222182,0.20503,0.0150825,-0.0123228,0.376926,0.3383399464151984,0.22756189126751836,0.01519681489820135,-0.06551471630927164,-0.012247185214062761,-0.19923038899769419
167,0.3792,297.667,42.1964,1.26425,117.615,-53.747,-5.1399,0.294143,-0.068376,-0.224267,0.207004,0.0150475,-0.0124528,0.380518,0.34197579248491916,0.22998749172087973,0.015161283631480726,-0.06609074232812351,-0.012375584733835265,-0.2008982542828588
168,0.3833,298.194,42.0259,0.829233,117.843,-53.8761,-5.12314,0.29685,-0.0689959,-0.226355,0.208969,0.0150192,-0.01258,0.384102,0.3456134422928454,0.23240679332748404,0.015132554973666501,-0.06666949327456506,-0.01250120256999343,-0.2025650380001528
169,0.3874,299.235,42.3813,1.25004,118.226,-54.0939,-5.17743,0.299547,-0.0696128,-0.228427,0.210933,0.014983,-0.0127101,0.387674,0.3492474600168478,0.23482961870530428,0.015095807840303621,-0.06724508730393142,-0.012629667806694167,-0.2042156126555551
170,0.3916,299.575,41.9115,0.759802,118.493,-54.2205,-5.17562,0.302237,-0.0702334,-0.230499,0.212888,0.0149484,-0.0128379,0.391239,0.35288182170921933,0.23724607192324831,0.015060686132961187,-0.06782377541725582,-0.012755845672211108,-0.20586277086093596
171,0.3957,300.313,41.917,0.713537,118.793,-54.3456,-5.19208,0.30492,-0.0708499,-0.232562,0.214836,0.0149134,-0.0129659,0.39479,0.35651647734706793,0.2396585762877108,0.015025159630664087,-0.06839828494895162,-0.012882204836806022,-0.20749938721443228
172,0.3998,301.565,42.6832,1.25878,119.124,-54.5943,-5.23138,0.307593,-0.071458,-0.234616,0.216781,0.014873,-0.013095,0.398331,0.36014729631874376,0.24207205856925396,0.014984153442545445,-0.06896461974032897,-0.013009633518463182,-0.20912551287033798
173,0.4039,302.099,42.5616,0.875565,119.342,-54.7224,-5.2161,0.310261,-0.072069,-0.236672,0.218716,0.014839,-0.0132213,0.401864,0.3637810145299478,0.24447779480175558,0.014949644567982645,-0.06953330860552742,-0.013134282529999042,-0.21074988039386056
174,0.408,302.616,42.2493,0.743655,119.676,-54.8524,-5.24738,0.312919,-0.0726829,-0.238717,0.220649,0.0148005,-0.0133492,0.405386,0.3674107662696253,0.24688569686669481,0.014910569758861625,-0.0701043468092637,-0.013260494583830607,-0.21236224768099066
175,0.4121,303.84,42.9975,1.28151,119.999,-55.0929,-5.28624,0.315569,-0.073286,-0.240753,0.222577,0.014757,-0.0134778,0.408896,0.3710392103652711,0.24929201143210222,0.014866422109295563,-0.07066499779640412,-0.013387381125247622,-0.21396424675625692
176,0.4162,304.341,42.8491,0.885251,120.21,-55.2128,-5.26982,0.318213,-0.0738922,-0.242791,0.224495,0.0147199,-0.0136035,0.412399,0.37466903455045464,0.2516904528801105,0.014828771263462714,-0.0712281899539502,-0.01351139053728534,-0.2155645563519899
177,0.4203,304.865,42.5714,0.778004,120.536,-55.3427,-5.30111,0.320849,-0.0745007,-0.244817,0.226411,0.0146782,-0.0137309,0.415892,0.3782974422659009,0.2540909907687505,0.014786453786026721,-0.07179317568602106,-0.013637061180740928,-0.21715221372083793
178,0.4244,305.55,42.6045,0.733327,120.816,-55.4922,-5.3163,0.323477,-0.075105,-0.246838,0.22832,0.014635,-0.0138577,0.419373,0.381924371641962,0.25648733705491167,0.014742615958126981,-0.07235392162350462,-0.013762124072228321,-0.2187327514255898
179,0.4285,306.309,42.7497,0.775855,121.098,-55.655,-5.33476,0.326098,-0.0757067,-0.248853,0.230223,0.0145904,-0.0139843,0.422845,0.3855511462319161,0.2588807090284784,0.014697359446683045,-0.07291191837870503,-0.013886973884160936,-0.22030541993582753
180,0.4326,307.508,43.5109,1.31586,121.408,-55.8904,-5.37291,0.32871,-0.0763012,-0.250859,0.232123,0.0145423,-0.0141119,0.426306,0.389174936435591,0.2612748560951066,0.014648553677481857,-0.07346290844520365,-0.01401279387880694,-0.22186791955235796
181,0.4368,307.93,43.2862,0.871001,121.605,-55.9952,-5.35388,0.331316,-0.0768997,-0.252868,0.234013,0.0145008,-0.0142366,0.42976,0.3927998475276264,0.2636609196929549,0.01460644663623123,-0.07401727498376454,-0.01413573881763397,-0.22342961765097558
182,0.4409,308.935,43.709,1.32756,121.951,-56.2021,-5.40613,0.333913,-0.0774938,-0.254863,0.235904,0.0144517,-0.0143642,0.433202,0.3964216496060786,0.2660527632674483,0.014556630682693195,-0.07456723793802511,-0.014261527071899538,-0.22497733120616248
183,0.445,309.491,43.6387,1.053,122.158,-56.3098,-5.39067,0.336504,-0.0780882,-0.256859,0.237784,0.0144078,-0.0144887,0.436636,0.4000444694365479,0.2684351812335779,0.014512092624223705,-0.07511715172122746,-0.014384243872499813,-0.22652273362838193
184,0.4491,309.835,43.2107,0.773592,122.449,-56.4255,-5.41487,0.339088,-0.0786859,-0.258846,0.239661,0.0143602,-0.0146145,0.440062,0.40366686246178407,0.2708182698978039,0.014463802997916941,-0.07566978902753252,-0.014508226535947633,-0.22805810705800056
185,0.4506,310.486,43.8101,1.21704,122.584,-56.5433,-5.43975,0.340054,-0.0789039,-0.259587,0.240364,0.0143399,-0.0146623,0.441341,0.40502345978193466,0.2717119692400547,0.014443209591739947,-0.07587127105118596,-0.014555331916891623,-0.2286299041236941
186,0.4529,310.474,43.2607,0.766987,122.684,-56.5842,-5.41549,0.341503,-0.0792412,-0.260703,0.241414,0.0143129,-0.0147316,0.443263,0.4070608144821697,0.2730479680844051,0.014415819994842094,-0.07618292710771168,-0.014623620866150322,-0.22949027297557678
187,0.4564,311.074,43.3894,0.815021,122.917,-56.7303,-5.42882,0.343672,-0.0797395,-0.26237,0.242989,0.0142686,-0.014837,0.446136,0.41011604158478243,0.27505459844073554,0.014370882369392213,-0.0766431504809576,-0.014727474063351398,-0.23077364270466216
188,0.4616,311.64,43.129,0.521325,123.244,-56.8839,-5.44056,0.346915,-0.0804887,-0.264864,0.245343,0.0142027,-0.0149943,0.450435,0.4146964710596528,0.2780596124793444,0.014304037530805669,-0.07733467035692576,-0.014882445242878406,-0.2326897029195053
189,0.4668,312.169,42.8102,0.170019,123.558,-57.0047,-5.45082,0.350147,-0.0812368,-0.267349,0.247687,0.0141374,-0.0151508,0.454718,0.419276166855967,0.2810588980003699,0.014237805639649714,-0.0780246581679116,-0.015036604076954507,-0.2345941018121187
190,0.472,312.91,42.792,0.0665305,123.883,-57.1618,-5.47016,0.353368,-0.0819805,-0.269823,0.250022,0.0140702,-0.0153074,0.458986,0.4238550256828071,0.2840536655576451,0.01416965114912716,-0.0787100763252988,-0.015190837267981983,-0.23648537553398552
191,0.4772,313.84,43.0378,0.177332,124.215,-57.3465,-5.49634,0.356578,-0.0827196,-0.272288,0.252349,0.0140014,-0.0154639,0.463237,0.4284329439431134,0.2870451376653109,0.014099878677328759,-0.07939075013389485,-0.015344947842482526,-0.2383651213447694
192,0.4824,314.819,43.3559,0.347912,124.546,-57.537,-5.52401,0.359776,-0.0834551,-0.274743,0.254669,0.0139317,-0.0156205,0.467475,0.4330083847281623,0.29003454876071477,0.014029198379021945,-0.08006760929170331,-0.015499132750657063,-0.24023264165272407
193,0.4876,315.752,43.6178,0.474516,124.87,-57.7193,-5.54978,0.362962,-0.0841881,-0.277191,0.256981,0.0138614,-0.0157769,0.471698,0.4375812301165183,0.2930205591353383,0.013957914632029,-0.08074167265968757,-0.01565309664600434,-0.24209027747202705
194,0.4928,316.622,43.8036,0.540872,125.187,-57.8917,-5.57312,0.366137,-0.0849188,-0.279631,0.259285,0.0137907,-0.0159331,0.475907,0.4421528040554066,0.2960031130863514,0.013886230341533912,-0.08141312937288947,-0.015806839624669,-0.2439373228832129
195,0.498,317.459,43.9524,0.578358,125.5,-58.0587,-5.59523,0.369301,-0.0856472,-0.282062,0.261582,0.0137195,-0.016089,0.480101,0.4467230017675714,0.29898345384806735,0.013814044211790444,-0.0820819844228724,-0.015960263378679174,-0.24577307898566803
196,0.5032,318.29,44.101,0.616734,125.809,-58.2246,-5.61726,0.372455,-0.0863731,-0.284485,0.26387,0.0136477,-0.0162447,0.484282,0.45129316948107023,0.3019589306378814,0.013741254976580741,-0.08274805932924456,-0.01611346643850342,-0.24759835859603063
197,0.5084,319.117,44.2538,0.65927,126.115,-58.3896,-5.63915,0.375597,-0.0870963,-0.286899,0.266151,0.0135751,-0.0164001,0.488449,0.4558603038303517,0.3049320885561704,0.01366766003299813,-0.08341117612080395,-0.01626635052641756,-0.24941246565020558
198,0.5136,319.937,44.4045,0.701039,126.418,-58.553,-5.66078,0.378729,-0.0878171,-0.289305,0.268423,0.013502,-0.0165554,0.492601,0.46042720633805234,0.30790026483281374,0.013593563635306172,-0.08407161529418361,-0.016419112499906574,-0.25121620848508985
199,0.5188,320.746,44.5489,0.738597,126.718,-58.7145,-5.68203,0.381849,-0.0885354,-0.291704,0.270688,0.0134282,-0.0167104,0.49674,0.46499085481141433,0.3108660163783712,0.013518763190480287,-0.08472929042061861,-0.016571555722814102,-0.25301038782233065
200,0.524,321.545,44.687,0.771886,127.015,-58.8741,-5.70292,0.384959,-0.0892513,-0.294093,0.272946,0.0133537,-0.0168651,0.500864,0.46955406848915926,0.3138292961271507,0.01344325885519404,-0.08538429823358484,-0.01672368033600158,-0.2547928160475673
201,0.5292,322.334,44.8202,0.802065,127.308,-59.0319,-5.7235,0.388059,-0.0899647,-0.296475,0.275195,0.0132787,-0.0170196,0.504975,0.4741167546110139,0.31678742338138743,0.013367253461017636,-0.08603655238850483,-0.0168755847924682,-0.2565657871128947
202,0.5344,323.115,44.9495,0.829938,127.599,-59.1881,-5.74378,0.391148,-0.0906758,-0.298849,0.277437,0.0132031,-0.0171739,0.509072,0.4786773414660088,0.3197429727173926,0.013290645792462419,-0.08668624077201958,-0.01702726918698272,-0.25832860663959123
203,0.5396,323.886,45.0735,0.854132,127.886,-59.3424,-5.76363,0.394226,-0.0913845,-0.301215,0.279671,0.0131268,-0.0173278,0.513156,0.4832357220719208,0.32269457422977244,0.013213334665645338,-0.08733327692884085,-0.01717853704989425,-0.26008132687061114
204,0.5448,324.651,45.1974,0.879169,128.172,-59.4956,-5.7835,0.397294,-0.0920909,-0.303572,0.281898,0.01305,-0.0174816,0.517226,0.48779327698159025,0.3256434974538198,0.013135522869554439,-0.08797775704484168,-0.017329683367446225,-0.2618232615067727
205,0.55,325.906,45.9869,1.43839,128.478,-59.7172,-5.82096,0.400351,-0.092789,-0.30592,0.284118,0.0129703,-0.0176361,0.521282,0.4923484200180426,0.3285896950875373,0.013054779186060239,-0.08861421759024735,-0.01748149420367684,-0.2635544672578434
206,0.5552,326.171,45.5226,0.908837,128.712,-59.8407,-5.81703,0.403399,-0.0934935,-0.308266,0.286329,0.0128934,-0.0177885,0.525328,0.49690403723597587,0.3315304567173598,0.012976878268869507,-0.08925606275744813,-0.01763121861467032,-0.26528014346799267
207,0.5604,326.841,45.4589,0.87228,129.002,-59.9338,-5.83779,0.406437,-0.0941948,-0.3106,0.288533,0.0128168,-0.0179414,0.529358,0.5014585464977022,0.33446838625303554,0.012899287211769472,-0.08989454357117077,-0.017781411318819274,-0.2669929799553933
208,0.5656,328.077,46.2487,1.43258,129.302,-60.1523,-5.87518,0.409463,-0.0948862,-0.312924,0.290731,0.0127354,-0.018095,0.533373,0.5060088411831327,0.33740477367360455,0.012816840565414545,-0.0905235730032129,-0.017932268507911964,-0.26869451032585945
209,0.5708,328.671,46.3086,1.14486,129.492,-60.2938,-5.85975,0.412481,-0.095578,-0.315248,0.292917,0.0126605,-0.0182456,0.537378,0.5105608413790284,0.34033153829710305,0.012740983424941454,-0.09115253121368005,-0.018080156772008915,-0.2703920909311496
210,0.576,329.469,46.3958,1.40529,129.838,-60.446,-5.91202,0.415488,-0.0962707,-0.317557,0.295102,0.0125798,-0.0183992,0.541369,0.5151099339619944,0.34326336456204354,0.012659258525223205,-0.09178187185801123,-0.01823096807732394,-0.27207481214393314
211,0.5812,330.198,46.5139,1.42713,130.101,-60.587,-5.92939,0.418485,-0.09696,-0.319861,0.297277,0.0124991,-0.0185514,0.545348,0.5196575296022672,0.3461881419223434,0.012577540220438,-0.09240769090042755,-0.018380381953298164,-0.273750021194868
212,0.5864,330.901,46.6053,1.42911,130.361,-60.7256,-5.94579,0.421473,-0.0976473,-0.322158,0.299445,0.012418,-0.0187033,0.549313,0.5242050569231216,0.34910984379447285,0.012495423511803772,-0.09303126477876134,-0.01852947864909882,-0.2754163029389628
213,0.5916,331.596,46.6906,1.43041,130.62,-60.8621,-5.96229,0.42445,-0.0983326,-0.324447,0.301606,0.0123364,-0.0188549,0.553266,0.5287493762407063,0.3520284225554695,0.01241280725603433,-0.09365259752902488,-0.018678258302352924,-0.27707297823331245
214,0.5968,332.281,46.7699,1.42751,130.877,-60.9973,-5.97858,0.427419,-0.0990159,-0.326728,0.303759,0.0122544,-0.0190061,0.557206,0.5332949777450904,0.35494247560168346,0.012329792809478102,-0.09427169317101924,-0.01882662293304882,-0.27872009551854127
215,0.602,332.962,46.8513,1.4266,131.133,-61.1319,-5.99487,0.430377,-0.099697,-0.329002,0.305905,0.012172,-0.019157,0.561134,0.537837178892826,0.35785330435647156,0.01224638027119429,-0.09488837468607081,-0.018974670825153916,-0.28035842253751886
216,0.6072,333.635,46.929,1.42314,131.386,-61.2653,-6.01098,0.433326,-0.100376,-0.331269,0.308044,0.012089,-0.0193077,0.565048,0.5423789542897035,0.3607608610978412,0.01216236730821807,-0.09550273688009026,-0.019122500203037185,-0.2819880021672093
217,0.6124,334.304,47.0093,1.42207,131.638,-61.3981,-6.02708,0.436266,-0.101053,-0.333528,0.310175,0.0120056,-0.019458,0.568951,0.5469202208060204,0.3636637344058158,0.012077956486764796,-0.09611487429532739,-0.01926991501275621,-0.2836081606123666
218,0.6176,334.966,47.0863,1.41889,131.887,-61.5298,-6.04299,0.439196,-0.101728,-0.33578,0.3123,0.0119218,-0.019608,0.572841,0.5514593436205795,0.36656460092049814,0.011993147907540136,-0.09672479088517116,-0.019417013492842417,-0.28521965980551567
219,0.6228,335.624,47.1655,1.41783,132.136,-61.6608,-6.05888,0.442117,-0.102401,-0.338025,0.314417,0.0118376,-0.0197577,0.576718,0.5559977815249344,0.3694606826014948,0.01190794167171938,-0.09733249058701865,-0.019563795778994364,-0.2868225417610435
220,0.628,335.809,46.6178,0.911224,132.356,-61.7317,-6.0557,0.445029,-0.103078,-0.340265,0.316526,0.0117547,-0.019906,0.580585,0.5605354507045384,0.37235192292236197,0.011824057980381664,-0.09794338967821614,-0.019709183687300458,-0.2884182713830944
221,0.6332,336.499,46.7508,0.969308,132.611,-61.8634,-6.07572,0.447932,-0.103747,-0.342494,0.318628,0.0116692,-0.0200549,0.584437,0.5650722671208284,0.3752396405923575,0.011737550721662382,-0.09854666373285004,-0.019855138123271998,-0.29000262064295257
222,0.6384,337.125,46.8174,0.954829,132.856,-61.993,-6.0913,0.450826,-0.104416,-0.344716,0.320723,0.0115833,-0.0202033,0.588277,0.5696081465136027,0.37812378772864097,0.011650646198658077,-0.09914953433211215,-0.020000580828658854,-0.29157848338800074
223,0.6436,337.755,46.8937,0.951166,133.101,-62.1218,-6.10726,0.45371,-0.105082,-0.346931,0.322812,0.011497,-0.0203514,0.592105,0.5741414302611969,0.3810056974278515,0.011563344515012952,-0.09974930099777812,-0.02014570799570614,-0.29314590049201195
224,0.6488,338.396,46.989,0.963414,133.344,-62.2514,-6.1236,0.456586,-0.105746,-0.34914,0.324893,0.0114103,-0.0204993,0.595921,0.5786751774180126,0.38388256262423237,0.011475645774838839,-0.10034686904736767,-0.020290617729154636,-0.29470561785575333
225,0.654,339.036,47.0888,0.979768,133.585,-62.3802,-6.13986,0.459452,-0.106407,-0.351341,0.326969,0.0113232,-0.0206469,0.599726,0.5832061502591401,0.3867584870008607,0.01138755008271497,-0.10094134327155146,-0.0204352121626461,-0.2962562636791284
226,0.6592,339.67,47.1853,0.994134,133.824,-62.5074,-6.15582,0.462309,-0.107067,-0.353535,0.329037,0.0112358,-0.0207942,0.603518,0.5877358378079824,0.3896292709194451,0.011299158673598653,-0.101534526213089,-0.02057949142946569,-0.2977985848915653
227,0.6644,340.767,47.9201,1.50806,134.084,-62.6977,-6.18963,0.465157,-0.107719,-0.35572,0.331101,0.0111461,-0.0209423,0.607298,0.5922641547365621,0.3925004277491875,0.011208449207446014,-0.10212013477286219,-0.02072453286620146,-0.299331219969992
228,0.6696,341.167,47.8125,1.14322,134.242,-62.8042,-6.1711,0.467997,-0.108373,-0.357906,0.333154,0.0110625,-0.0210874,0.611069,0.5967926123020302,0.3953621676982739,0.011123915714641441,-0.10270715622778182,-0.020866615428143387,-0.30086120903582214
229,0.6748,341.95,48.025,1.4655,134.544,-62.9482,-6.21966,0.470827,-0.109026,-0.360078,0.335206,0.0109734,-0.0212352,0.614826,0.6013179357072251,0.39822839060535875,0.011033828587192485,-0.10329289718952728,-0.02101132064840394,-0.3023780905601263
230,0.68,342.523,48.0584,1.4132,134.764,-63.0602,-6.23115,0.473648,-0.109677,-0.362246,0.33725,0.0108855,-0.0213816,0.618573,0.6058416312764765,0.4010892922812137,0.010944962619376053,-0.10387646354199942,-0.021154634100260306,-0.3038888965543337
231,0.6852,342.738,47.5908,1.00526,134.972,-63.129,-6.22975,0.476462,-0.11033,-0.364409,0.339286,0.0107981,-0.0215269,0.62231,0.6103668336004546,0.40394481601704535,0.010856609890713687,-0.10446144119531608,-0.02129684999969028,-0.3053929576426153
232,0.6872,343.321,48.1435,1.38962,135.082,-63.2217,-6.2499,0.477514,-0.110569,-0.365216,0.340048,0.0107633,-0.0215821,0.623706,0.6120618309216714,0.4050150296664663,0.010821432692776245,-0.10467544933587891,-0.02135087292252391,-0.3059532794055573
233,0.6901,343.294,47.64,0.981665,135.163,-63.2563,-6.22551,0.479092,-0.110938,-0.366429,0.341188,0.0107138,-0.0216627,0.625801,0.6146076726316951,0.40661766012608314,0.010771398270220223,-0.10500576314842758,-0.021429748863423193,-0.3067946476846135
234,0.6945,343.81,47.7246,1.02535,135.365,-63.37,-6.2375,0.481452,-0.111484,-0.368241,0.342895,0.0106365,-0.0217849,0.628934,0.6184226466377767,0.4090208069742194,0.01069326866088205,-0.10549429661997412,-0.02154932284199329,-0.30804959845424207
235,0.7011,344.263,47.4465,0.734426,135.647,-63.4884,-6.24778,0.484982,-0.112303,-0.370952,0.345448,0.0105215,-0.0219674,0.633619,0.624145773957185,0.41262263286884493,0.010577045617939262,-0.1062265968731555,-0.021727873797304342,-0.30992293553707284
236,0.7077,344.721,47.1788,0.442052,135.924,-63.5905,-6.26033,0.488498,-0.11312,-0.373651,0.347989,0.0104069,-0.0221492,0.638286,0.6298663213274573,0.41621667127095807,0.010461240124292948,-0.10695651153277086,-0.02190570750427423,-0.31178294232577974
237,0.7142,345.401,47.2161,0.395102,136.209,-63.7234,-6.28075,0.492001,-0.113932,-0.376339,0.35052,0.0102913,-0.0223309,0.642935,0.6355857547901769,0.41980565560971805,0.010344437556253139,-0.10768136851364452,-0.022083411092360783,-0.3136303857005447
238,0.7208,346.225,47.4513,0.505641,136.497,-63.8736,-6.30547,0.49549,-0.114739,-0.379016,0.353042,0.0101751,-0.0225125,0.647565,0.6413022801681667,0.42339092459702177,0.010227042353402327,-0.10840117916659087,-0.022260984620742108,-0.3154653399759031
239,0.7274,347.059,47.7041,0.63131,136.782,-64.0241,-6.33028,0.498966,-0.115543,-0.381682,0.355555,0.0100591,-0.0226938,0.652178,0.6470173739726433,0.42697240423489524,0.010109862813034054,-0.10911773652388379,-0.022438232636212252,-0.3172878788557175
240,0.734,347.845,47.8965,0.710582,137.061,-64.1681,-6.35344,0.502428,-0.116343,-0.384339,0.358058,0.00994327,-0.0228747,0.656774,0.6527292296385683,0.4305485898919754,0.009992868563477364,-0.10983015732834711,-0.022615057565631203,-0.3190994372405366
241,0.7406,348.591,48.0426,0.754218,137.335,-64.3069,-6.37532,0.505877,-0.117141,-0.386986,0.360552,0.00982767,-0.0230553,0.661352,0.6584393341664241,0.43412083080796626,0.009876120136060429,-0.1105402295063187,-0.022791557347824787,-0.320899397731483
242,0.7472,349.325,48.1773,0.789786,137.607,-64.4438,-6.39677,0.509313,-0.117936,-0.389624,0.363037,0.0097121,-0.0232355,0.665914,0.664147532787891,0.43768905275207537,0.009759415496763735,-0.11124706901792691,-0.02296763444416794,-0.32268850425122864
243,0.7537,350.054,48.3127,0.826777,137.875,-64.5799,-6.41807,0.512736,-0.118728,-0.392251,0.365512,0.00959651,-0.0234153,0.670459,0.6698536702754008,0.4412517401646694,0.009642704151388681,-0.11195068267147867,-0.023143289071670625,-0.3244654664887414
244,0.7603,350.779,48.4473,0.863906,138.141,-64.7152,-6.43917,0.516146,-0.119516,-0.394869,0.367978,0.00948091,-0.0235949,0.674988,0.6755575909486422,0.4448102527986708,0.00952599620063821,-0.11265018989149256,-0.02331871678307329,-0.32623170288522674
245,0.7669,351.496,48.5775,0.898333,138.403,-64.8491,-6.45999,0.519544,-0.120302,-0.397477,0.370435,0.00936528,-0.023774,0.679499,0.6812608199410961,0.4483645162143577,0.009409271458268753,-0.11334737281345653,-0.023493624737422558,-0.3279866012219853
246,0.7735,352.203,48.7005,0.927817,138.663,-64.9814,-6.48038,0.522929,-0.121085,-0.400075,0.372883,0.00924964,-0.0239528,0.683995,0.6869615308264354,0.4519144559034185,0.009292550119075038,-0.11404135009298277,-0.023668208469068808,-0.3297302260825854
247,0.7801,352.904,48.8217,0.95677,138.921,-65.1128,-6.50072,0.526301,-0.121865,-0.402663,0.375321,0.00913394,-0.0241313,0.688473,0.6926595665976223,0.4554585418322006,0.009175781726208143,-0.11473212840134761,-0.023842468140718664,-0.3314626415449359
248,0.7866,353.598,48.9392,0.983384,139.176,-65.2429,-6.52072,0.529661,-0.122642,-0.405243,0.377751,0.0090182,-0.0243093,0.692936,0.6983564681763987,0.45899960674024665,0.009058986480302345,-0.11541971437583565,-0.02401620871801957,-0.3331852448160023
249,0.7932,354.285,49.053,1.00772,139.428,-65.3719,-6.54047,0.533009,-0.123416,-0.407812,0.380171,0.00890242,-0.024487,0.697382,0.7040520947905669,0.46253466147956823,0.008942164393808794,-0.11610411461984704,-0.024189625629181477,-0.33489609339613635
250,0.7998,354.965,49.1634,1.03004,139.678,-65.4996,-6.55998,0.536344,-0.124188,-0.410373,0.382583,0.00878657,-0.0246644,0.701812,0.7097445954955139,0.4660665528317245,0.008825285214421053,-0.11678621891722474,-0.02436271903575571,-0.33659724524622314
251,0.8064,355.639,49.2709,1.05074,139.926,-65.6262,-6.57925,0.539668,-0.124956,-0.412924,0.384985,0.00867067,-0.0248414,0.706227,0.7154372424687181,0.46959227739165343,0.008708369139281968,-0.11746426669742138,-0.024535391552517827,-0.3382874289277277
252,0.813,356.306,49.3759,1.07002,140.172,-65.7517,-6.5983,0.542979,-0.125722,-0.415466,0.387379,0.00855472,-0.025018,0.710625,0.7211264684947694,0.47311469595643363,0.008591416184358991,-0.11814003021866015,-0.024707643392084533,-0.3399673661785345
253,0.8196,357.429,50.0918,1.5671,140.43,-65.929,-6.63116,0.546277,-0.12648,-0.417996,0.389765,0.00843747,-0.025195,0.715006,0.7268121140639385,0.4766337441760178,0.0084731657733772,-0.11880822679725767,-0.02488025486263834,-0.3416351381209922
254,0.8261,357.6,49.5596,1.06393,140.644,-66.0038,-6.63232,0.549565,-0.127244,-0.420523,0.39214,0.00832339,-0.0253702,0.719375,0.7324992167682485,0.4801449171859511,0.008358125716635412,-0.11948120020340902,-0.025051080877190657,-0.34329672582669035
255,0.8327,358.212,49.5896,1.05392,140.889,-66.1145,-6.65195,0.552841,-0.128003,-0.423037,0.394507,0.0082075,-0.0255456,0.723727,0.7381841911060021,0.48365256987419647,0.008241273864557419,-0.12014926041153429,-0.02522207192125181,-0.34494560434922306
256,0.8393,359.318,50.3027,1.54898,141.143,-66.2886,-6.68448,0.556104,-0.128753,-0.425541,0.396867,0.00808994,-0.0257215,0.728061,0.743865149564797,0.4871581248669461,0.008122751987254206,-0.12080890107005804,-0.025393520279475723,-0.3465838086681614
257,0.8459,359.948,50.4219,1.51986,141.36,-66.4185,-6.69883,0.559356,-0.129503,-0.428039,0.399217,0.00797482,-0.0258962,0.732383,0.7495454301614468,0.4906570560943384,0.008006703575920149,-0.12146804718356541,-0.02556376915981018,-0.3482140053507491
258,0.8525,360.105,49.8374,1.06309,141.586,-66.476,-6.70468,0.562597,-0.130259,-0.430529,0.401558,0.00786048,-0.0260701,0.73669,0.7552249055189453,0.4941507720616498,0.007891454678338405,-0.12213196634682977,-0.025733208887142034,-0.34983493358428197
259,0.8591,361.219,50.5743,1.58392,141.837,-66.6475,-6.73802,0.565826,-0.131001,-0.433005,0.403892,0.00774258,-0.0262448,0.740979,0.7609016869701344,0.4976421928667454,0.007772631280608788,-0.12278310282629223,-0.025903398429060087,-0.35144275098937594
260,0.8656,361.763,50.5933,1.48209,142.048,-66.7657,-6.74979,0.569044,-0.131744,-0.435477,0.406217,0.00762731,-0.0264184,0.745256,0.766577395916588,0.501128261950105,0.007656472024368366,-0.12343463290749412,-0.026072486921786986,-0.3530440045441271
261,0.8722,361.948,50.0666,1.06889,142.27,-66.8262,-6.75626,0.572251,-0.132491,-0.43794,0.408532,0.00751243,-0.0265911,0.749518,0.7722519038352862,0.5046073994243561,0.0075407190978376,-0.12408918273191571,-0.02624066968029637,-0.3546354964341244
262,0.8788,363.012,50.7551,1.55151,142.515,-66.9905,-6.78806,0.575446,-0.133226,-0.440391,0.41084,0.00739436,-0.0267646,0.753762,0.7779233039051698,0.5080840438065437,0.007421765787680723,-0.12473274064610207,-0.026409602268780974,-0.3562153479334519
263,0.8854,363.596,50.8433,1.50712,142.723,-67.1118,-6.80117,0.57863,-0.133962,-0.442836,0.41314,0.00727862,-0.026937,0.757994,0.7835932334425506,0.5115566290494971,0.007305173539831955,-0.12537670034274906,-0.026577434785771237,-0.3577874786947126
264,0.892,364.252,50.9666,1.58981,142.955,-67.2254,-6.82184,0.581803,-0.134696,-0.445272,0.415431,0.00716244,-0.0271094,0.76221,0.7892615628211288,0.5150235751570078,0.007188151622704808,-0.12601843829805615,-0.02674523837092946,-0.3593500044675395
265,0.8985,364.812,50.9906,1.55608,143.172,-67.3319,-6.83692,0.584966,-0.135428,-0.4477,0.417715,0.00704634,-0.0272813,0.766413,0.7949299569838812,0.5184878436913414,0.007071223866089049,-0.12665795870819596,-0.02691252648562814,-0.3609036158092881
266,0.9051,365.429,51.0994,1.58501,143.39,-67.4453,-6.8537,0.588117,-0.136156,-0.450119,0.41999,0.00692996,-0.0274528,0.7706,0.8005947013961499,0.5219463360791754,0.006954027736830515,-0.127293520341752,-0.0270793966778079,-0.36244772161372263
267,0.9117,365.984,51.1308,1.55519,143.604,-67.5516,-6.8686,0.591258,-0.136883,-0.45253,0.422257,0.00681373,-0.0276238,0.774774,0.80625926088676,0.5254005022410817,0.006836996271602169,-0.12792774738300017,-0.02724575187720102,-0.3639830086247118
268,0.9183,366.581,51.2252,1.57412,143.819,-67.6624,-6.88491,0.594388,-0.137608,-0.454933,0.424516,0.0066973,-0.0277945,0.778933,0.8119217094825186,0.5288502770292276,0.0067197770641747034,-0.12855977063003643,-0.027411786855866982,-0.36550952261386904
269,0.9249,367.136,51.2666,1.55259,144.031,-67.7681,-6.89986,0.597507,-0.13833,-0.457327,0.426766,0.00658095,-0.0279647,0.783079,0.817581915797527,0.532294062958867,0.006602652031994172,-0.129188723396371,-0.02757730728355623,-0.36702667605946004
270,0.9315,367.717,51.3508,1.56408,144.243,-67.8767,-6.91572,0.600616,-0.139049,-0.459713,0.429009,0.00646447,-0.0281346,0.78721,0.8232415713495014,0.5357348559488557,0.006485409783406615,-0.12981461167045116,-0.027742507864861987,-0.36853515008522486
271,0.938,368.27,51.4003,1.54932,144.453,-67.9817,-6.93066,0.603714,-0.139767,-0.462092,0.431244,0.00634805,-0.0283041,0.791327,0.8288987321550314,0.5391710618816463,0.006368241572493494,-0.1304391805322187,-0.02790729154396754,-0.37003561944718955
272,0.9446,368.838,51.4768,1.55544,144.662,-68.0882,-6.94613,0.606801,-0.140482,-0.464461,0.433471,0.00623155,-0.0284731,0.79543,0.8345532658234731,0.542602615453118,0.006251006501425849,-0.13106069430048828,-0.0280715613305087,-0.371526238729047
273,0.9512,369.387,51.532,1.54555,144.87,-68.1923,-6.96098,0.609879,-0.141195,-0.466823,0.435691,0.0061151,-0.0286418,0.79952,0.8402087200547195,0.546030997355299,0.00613383539413892,-0.1316800272070333,-0.028235511828498816,-0.37300894199127743
274,0.9578,369.944,51.6029,1.54797,145.076,-68.2969,-6.97609,0.612946,-0.141905,-0.469177,0.437902,0.00599859,-0.0288101,0.803596,0.8458613040057028,0.5494530535795414,0.0060166175696341195,-0.13229631557945487,-0.02839904603006904,-0.3744831431263429
275,0.9644,370.488,51.6617,1.54147,145.281,-68.3999,-6.99081,0.616003,-0.142613,-0.471523,0.440106,0.00588213,-0.028978,0.807658,0.8515127358244139,0.5528718141999156,0.005899463696354301,-0.13291043236502964,-0.02856216413609236,-0.3759488856842955
276,0.9709,371.035,51.7291,1.54169,145.485,-68.5028,-7.00562,0.61905,-0.143319,-0.473861,0.442302,0.00576566,-0.0291455,0.811707,0.8571628987822968,0.5562856677431707,0.005782313408197126,-0.13352238155629736,-0.028724866346909073,-0.3774062129101964
277,0.9775,371.156,51.2378,1.10343,145.67,-68.5638,-7.00576,0.622087,-0.144028,-0.476194,0.44449,0.00564999,-0.0293118,0.815744,0.8628116758321198,0.5596945487400464,0.005665981296202549,-0.13413649645831582,-0.028886375971738043,-0.37885703117791414
278,0.9841,372.124,51.8764,1.55783,145.895,-68.7065,-7.03604,0.625113,-0.144725,-0.478513,0.446671,0.00553196,-0.029479,0.819764,0.8684570811536778,0.563099954796261,0.005547289545161593,-0.13473979304699935,-0.02904873259628349,-0.3802957928336963
279,0.9907,372.607,51.8998,1.484,146.084,-68.8094,-7.04668,0.62813,-0.145424,-0.480829,0.448845,0.00541598,-0.0296452,0.823773,0.8741027283439462,0.5665018305971332,0.005430672933248282,-0.135344398597402,-0.02921009128764729,-0.3817293670577516
280,0.9973,372.758,51.4414,1.10509,146.274,-68.869,-7.04981,0.631137,-0.146126,-0.483138,0.45101,0.00530041,-0.0298104,0.82777,0.8797466366114495,0.5698969809845178,0.005314482024598277,-0.13595117382656274,-0.02937045253436288,-0.38315530706794254
281,1.0,373.412,52.0994,1.54759,146.377,-68.9563,-7.06956,0.632378,-0.146409,-0.484088,0.451905,0.00525101,-0.0298794,0.829417,0.8820808502674846,0.5713026677334865,0.005264820715830787,-0.13619566504723035,-0.029437423662607598,-0.38374103126318393
