,Time,S11,S22,S33,S12,S13,S23,LE11,LE22,LE33,LE12,LE13,LE23,SDV_EPBAR,E11,E12,E13,E22,E23,E33
0,1e-05,0.684705,0.228235,-1.11022e-16,0.395315,-9.6589e-18,-5.57657e-18,6.74997e-06,2.49999e-07,-2.99999e-06,1.12583e-05,-3.66774e-22,-2.11757e-22,0.0,6.749992781163172e-06,1.1258363374899716e-05,0.0,2.499990312543332e-07,0.0,-2.999985500018454e-06
1,2e-05,1.3694,0.456468,1.11022e-16,0.790625,-2.48943e-17,-1.49404e-18,1.34999e-05,5.00011e-07,-5.99996e-06,2.25164e-05,-7.33543e-22,-4.23511e-22,0.0,1.3499991124099608e-05,2.2516653495952e-05,0.0,5.000111249486849e-07,0.0,-5.9999420002343484e-06
2,3.5e-05,2.39644,0.798812,-2.22045e-16,1.38358,-1.37407e-17,-2.08119e-17,2.36246e-05,8.75006e-07,-1.04998e-05,3.94034e-05,-1.15705e-21,3.10051e-22,0.0,2.3624879063044446e-05,3.9404176324087103e-05,0.0,8.750063829054966e-07,0.0,-1.0499744877323636e-05
3,5.75e-05,3.93696,1.31232,-2.10942e-15,2.273,-7.26889e-17,-3.76741e-17,3.88114e-05,1.43749e-06,-1.72495e-05,6.47335e-05,-3.16107e-21,2.08728e-21,0.0,3.8812153172029795e-05,6.473559525832506e-05,0.0,1.4374910330960944e-06,0.0,-1.7249351228265652e-05
4,9.125e-05,6.24768,2.08256,-1.27676e-14,3.6071,-5.78147e-17,-6.34297e-17,6.1591e-05,2.28117e-06,-2.73738e-05,0.000102728,-4.62815e-21,1.2403e-21,0.0,6.159289676466173e-05,0.00010273327670162757,0.0,2.2811726019256184e-06,0.0,-2.737342534098186e-05
5,0.00014188,9.71361,3.23787,-6.78346e-14,5.60816,-1.42513e-16,-9.51584e-17,9.57588e-05,3.54668e-06,-4.25596e-05,0.000159716,-1.23942e-21,-4.62802e-21,0.0,9.576338502026438e-05,0.00015972875527947572,0.0,3.5466862895461304e-06,0.0,-4.255869435310089e-05
6,0.00021781,14.9122,4.97073,-3.50719e-13,8.60955,-2.12866e-16,-3.27474e-17,0.000147007,5.4448e-06,-6.53367e-05,0.000245194,-8.34785e-21,-1.26447e-20,0.0,0.00014701780605852477,0.00024522406250571116,0.0,5.44481482300796e-06,0.0,-6.533456560431361e-05
7,0.00033172,22.7093,7.56976,-1.77447e-12,13.1112,-2.34605e-16,-1.13985e-16,0.000223873,8.29167e-06,-9.94992e-05,0.000373398,-2.47777e-21,-9.25587e-21,0.0,0.00022389806143019442,0.00037346772171087395,0.0,8.291704375995579e-06,0.0,-9.949425011879232e-05
8,0.00050258,34.4033,11.4678,-8.98559e-12,19.8628,-2.64297e-16,-6.24413e-17,0.000339155,1.25613e-05,-0.000150736,0.000565677,9.12172e-22,-1.51248e-20,0.0,0.0003392125195595952,0.0005658370254069123,0.0,1.256137889349418e-05,0.0,-0.00015072463989995732
9,0.00075887,51.9406,17.3135,-4.54489e-11,29.9879,-4.70213e-16,-1.81327e-16,0.000512041,1.89646e-05,-0.000227574,0.000854034,-1.85052e-20,4.96868e-21,0.0,0.0005121721153706904,0.00085439879087712,0.0,1.896477982921141e-05,0.0,-0.0002275481070015406
10,0.0011433,78.238,26.0793,-2.29863e-10,45.1708,-3.51029e-16,-3.87261e-16,0.000771287,2.85663e-05,-0.000342794,0.00128643,-1.35389e-20,2.34922e-20,0.0,0.0007715845183038361,0.0012872578060059148,0.0,2.8566708020649756e-05,0.0,-0.00034273525284966855
11,0.00172,93.0586,32.5852,0.0642593,54.9984,-3.9132,-0.591804,0.00117032,6.32768e-05,-0.000682807,0.00190507,0.000136763,-2.12315e-05,0.000409329,0.0011710050916839965,0.0019068857987438737,0.00013677235248543695,6.32788020189512e-05,-2.1231274613287e-05,-0.0006825739403483189
12,0.0025849,94.0265,34.5082,0.221145,56.7352,-6.34929,-1.12713,0.00178632,0.000125985,-0.00134814,0.00279537,0.000635452,-5.65741e-05,0.00140939,0.0017879164200020892,0.0027992806898111677,0.0006356539423948426,0.000125992936443442,-5.657249971580125e-05,-0.001347231667502502
13,0.0032337,94.7689,35.3404,0.0929493,57.8521,-7.58647,-1.38763,0.00224689,0.000172081,-0.00184845,0.0034651,0.00101331,-8.24353e-05,0.00216294,0.002249416148974781,0.00347111039921133,0.0010138235720327238,0.00017209580678456682,-8.243190230405872e-05,-0.001846742668433099
14,0.0038824,95.4899,36.2854,0.0863265,58.9387,-8.93111,-1.66997,0.00270127,0.000224253,-0.00234772,0.0041412,0.00137342,-0.000112473,0.00291966,0.002704921717157527,0.004149786617595241,0.0013743635731728876,0.00022427814658376732,-0.00011246667514930309,-0.002344966260825143
15,0.0045311,96.1643,37.0798,-0.0595516,59.9212,-10.1546,-1.92346,0.00315203,0.000279913,-0.00284833,0.00482067,0.00172433,-0.000144828,0.00367985,0.003157002870066261,0.004832308123293272,0.0017258175118386454,0.00027995217929932537,-0.00014481751293149436,-0.002844277356773728
16,0.0051799,96.9649,38.0621,0.0869677,60.9013,-11.4455,-2.15894,0.00359756,0.00034035,-0.00334582,0.00550553,0.0020583,-0.00017945,0.00444203,0.0036040389861606847,0.005520713281505829,0.002060419753558529,0.0003404079256328352,-0.00017943389981178726,-0.003340228981515758
17,0.0058286,97.6726,38.7632,-0.0284068,61.7762,-12.5292,-2.37229,0.00404082,0.000402288,-0.00384534,0.00619256,0.002387,-0.000215955,0.00520747,0.004048995120824461,0.006211773539533949,0.0023898511526156963,0.00040236892866940543,-0.0002159316833975078,-0.0038379561476484803
18,0.0064773,98.3582,39.4545,-0.0680152,62.6285,-13.6851,-2.5607,0.00448034,0.000466891,-0.00434359,0.00688361,0.0027005,-0.000253867,0.00597552,0.004490391729373044,0.006907356499259221,0.0027041496346649208,0.00046700001056754203,-0.0002538347784998285,-0.0043341702563926
19,0.0074504,99.4372,40.4038,-0.0883538,63.836,-15.2824,-2.80568,0.00513372,0.000567652,-0.0050889,0.00792645,0.00314685,-0.000313542,0.00713209,0.005146920119424747,0.007957947470844218,0.0031518065302500453,0.0005678131448865198,-0.00031349285084403267,-0.005075973484938157
20,0.0084235,100.843,41.5801,0.157169,64.9841,-16.5482,-3.00925,0.00578261,0.000673025,-0.00583075,0.00897235,0.0035817,-0.000375005,0.00829017,0.00579936156289218,0.009012722186389377,0.0035881219523248298,0.0006732515321430377,-0.00037493469441363114,-0.005813784167743474
21,0.0093966,101.956,42.1777,0.0807338,66.069,-17.7214,-3.16368,0.00642857,0.00077606,-0.00657256,0.0100226,0.00399924,-0.00043723,0.0094527,0.006449277605771853,0.010072994475892605,0.004007247631543809,0.000776361212476484,-0.00043713442889292686,-0.006551007970708622
22,0.01037,103.107,42.876,-0.0745254,67.0455,-18.759,-3.31683,0.0070719,0.000882861,-0.00731524,0.0110732,0.00440551,-0.000501442,0.010618,0.007096964935540573,0.011134734798421642,0.004415228525626258,0.0008832508364879921,-0.0005013162989717657,-0.007288548755813196
23,0.011343,104.285,43.591,-0.0774361,68.0101,-19.8083,-3.45438,0.00771185,0.00099108,-0.0080551,0.0121267,0.00479477,-0.000566916,0.0117855,0.007741662903480995,0.012200526548762802,0.00480628330353583,0.0009915712820698364,-0.0005667553334873787,-0.00802274461556518
24,0.012316,105.621,44.5692,0.207457,68.9613,-20.8679,-3.59212,0.00834783,0.00110268,-0.00879127,0.013183,0.00516672,-0.000634073,0.0129545,0.008382770290383368,0.013270278855170403,0.005180090515097158,0.0011032881751114054,-0.0006338720181966462,-0.008752739778423835
25,0.013289,106.807,45.212,0.186286,69.8374,-21.7447,-3.71183,0.00898262,0.00121335,-0.00952878,0.0142398,0.00553141,-0.000702116,0.0141261,0.009023084800258152,0.014341668908655736,0.005546736494304483,0.001214086406921,-0.0007018695742377901,-0.009483525031469764
26,0.014262,107.867,45.6811,0.195855,70.7033,-22.745,-3.78896,0.00961512,0.00132246,-0.0102636,0.0152994,0.00587535,-0.000769585,0.0153003,0.009661493776949914,0.015417034969356092,0.005892643721110202,0.0013233348358283603,-0.0007692889454151697,-0.010211108993243845
27,0.014627,108.268,45.878,0.091021,70.9873,-23.0199,-3.82945,0.00985242,0.00136416,-0.0105404,0.0156955,0.00600603,-0.000795415,0.0157407,0.00990111487934242,0.0158193213244604,0.00602410236111206,0.0013650908894986546,-0.0007950987413467558,-0.010485044643831376
28,0.015174,108.824,46.2165,0.170349,71.4235,-23.7924,-3.88498,0.0102067,0.00142676,-0.010953,0.0162921,0.00618405,-0.000834367,0.0164033,0.010258966032332228,0.01642553994859708,0.006203210713775942,0.0014277783062841554,-0.0008340190126444602,-0.010893234299094612
29,0.015995,109.685,46.6071,0.16846,72.0661,-24.6803,-3.95077,0.0107375,0.00151956,-0.0115712,0.0171872,0.0064457,-0.000892672,0.0173979,0.010795353836231536,0.017335749753031093,0.006466518229562679,0.0015207151163121324,-0.0008922736868800518,-0.011504511136512852
30,0.017227,110.969,47.0918,-0.0133478,72.9949,-25.6823,-4.03309,0.011533,0.00165808,-0.0124982,0.0185288,0.00682907,-0.000980153,0.0188908,0.011599761450916457,0.018701523350975746,0.006852441269587617,0.0016594553746984708,-0.0009796728069486615,-0.012420421864477782
31,0.017689,111.654,47.6131,0.214121,73.3667,-26.0397,-4.0737,0.0118302,0.00171226,-0.0128433,0.0190317,0.00697078,-0.00101336,0.0194494,0.011900453580656833,0.019213957187757424,0.0069951324391841485,0.0017137267541891266,-0.001012846724147587,-0.012761176776250549
32,0.018382,112.383,47.941,0.210665,73.8547,-26.6979,-4.13058,0.012276,0.00179085,-0.013363,0.0197867,0.00717306,-0.00106354,0.0202906,0.012351659369160828,0.019983754287272282,0.007198848017672788,0.0017924545295422423,-0.0010629746417789576,-0.013274111495048424
33,0.019421,113.446,48.2833,0.112925,74.5731,-27.548,-4.17095,0.0129445,0.00190656,-0.0141415,0.0209186,0.00746628,-0.00113738,0.0215531,0.013028642709919103,0.021138927545721886,0.007494222166576137,0.0019083786411160375,-0.0011367334285234953,-0.01404197866817114
34,0.01981,113.896,48.4972,0.198117,74.8602,-27.8751,-4.17773,0.0131947,0.00195012,-0.014432,0.0213432,0.00757365,-0.00116476,0.0220262,0.013282134186786587,0.02157259519548438,0.0076024026287744295,0.001952022720650648,-0.0011640819303595507,-0.014328357874774267
35,0.020395,114.487,48.6266,0.253511,75.2587,-28.4613,-4.18545,0.0135704,0.00201316,-0.0148673,0.0219803,0.0077254,-0.00120565,0.0227371,0.013662895806191955,0.022223646466244196,0.0077553178955258595,0.0020151877671044094,-0.0012049234960379573,-0.014757327368607465
36,0.021272,115.489,49.1574,0.329413,75.8357,-29.1195,-4.23639,0.0141327,0.00211104,-0.0155204,0.0229345,0.00795127,-0.00126826,0.023803,0.014233038733165282,0.023199517783863755,0.007982965297570255,0.0021132698137400485,-0.0012674560981742466,-0.015400579281326543
37,0.022587,116.908,49.7281,0.273976,76.6826,-29.9308,-4.2832,0.0149761,0.00225547,-0.0164997,0.024364,0.00828213,-0.00136105,0.0254025,0.015088803703393827,0.024663227431752865,0.008316521718664704,0.0022580154858562462,-0.0013601241915202067,-0.01636432551866951
38,0.02308,117.348,49.7473,0.157486,77.0011,-30.206,-4.27409,0.0152926,0.00230763,-0.0168669,0.0248999,0.00840499,-0.00139488,0.0260023,0.015410130156994883,0.025212491617526922,0.008440411096891642,0.0023102946273723113,-0.0013939076070691447,-0.016725450231784067
39,0.02382,118.055,49.9469,0.09558,77.4471,-30.7309,-4.298,0.0157671,0.0023867,-0.0174167,0.0257027,0.00858036,-0.00144663,0.0269027,0.015892056591758852,0.02603586266271396,0.008617276799801621,0.0023895504357054342,-0.0014455841352087884,-0.01726590599434341
40,0.02493,119.329,50.6023,0.333473,78.1432,-31.4906,-4.32471,0.0164773,0.0025066,-0.0182373,0.0269065,0.00883194,-0.00152359,0.0282524,0.016613799390881923,0.027271748364544157,0.008871056655928466,0.002509744148271764,-0.0015224299259898322,-0.01807200680348775
41,0.025346,119.649,50.5353,0.114343,78.3779,-31.6508,-4.32151,0.0167445,0.00254938,-0.0185471,0.027357,0.00892931,-0.00155196,0.0287588,0.016885474892309738,0.027734638545366952,0.008969295213381523,0.002552632432500479,-0.0015507563328408525,-0.018376160979865497
42,0.02597,120.235,50.6992,0.094776,78.7322,-32.0978,-4.33231,0.0171445,0.00261461,-0.0190091,0.0280328,0.00906514,-0.00159486,0.0295187,0.01729231044395263,0.02842941635307472,0.009106352820807073,0.002618031073667426,-0.0015935888866293046,-0.018829566448764767
43,0.026906,121.151,51.0141,0.108929,79.2743,-32.6906,-4.3433,0.0177442,0.00271201,-0.0197007,0.0290456,0.00926316,-0.00165862,0.0306582,0.017902563608647837,0.02947153730692742,0.009306195846597642,0.0027156908258467727,-0.0016572452500154267,-0.01950790932260482
44,0.028311,122.468,51.3865,0.0152766,80.0949,-33.381,-4.36232,0.0186438,0.00285561,-0.0207369,0.0305625,0.00955451,-0.00175347,0.0323664,0.018818680762583195,0.0310343276805638,0.009600300048306698,0.0028596911380243117,-0.001751933569638986,-0.020523369026433036
45,0.028837,123.208,51.9281,0.312852,80.426,-33.6299,-4.38239,0.0189801,0.00291194,-0.0211227,0.0311305,0.00966257,-0.00178935,0.0330051,0.019161367104402194,0.03162012152839,0.009709403351475299,0.0029161838155273845,-0.0017877500677105918,-0.020901178226581774
46,0.029627,123.985,52.2153,0.36893,80.862,-34.0871,-4.40229,0.0194852,0.00299271,-0.0217036,0.0319826,0.00981783,-0.00184292,0.0339658,0.01967627554010498,0.032499539656827725,0.009866183003929052,0.002997192627191003,-0.001841222865657799,-0.021469771568224827
47,0.030812,124.995,52.2669,0.217478,81.4942,-34.6978,-4.35959,0.0202447,0.00310805,-0.0225744,0.0332583,0.0100422,-0.00191954,0.0354067,0.020451013841005672,0.03381753982723268,0.010092792100600434,0.003112884995239318,-0.0019176988613290868,-0.022321504792675362
48,0.031257,125.483,52.6576,0.300804,81.7531,-34.8482,-4.41288,0.0205275,0.00315542,-0.0229002,0.0337371,0.0101286,-0.00195134,0.0359464,0.02073963819728042,0.03431265018526308,0.010180067888097666,0.0031604035780701256,-0.0019494373738602189,-0.022639980563893713
49,0.031923,126.092,52.834,0.315023,82.0903,-35.2432,-4.41368,0.0209537,0.00322148,-0.023389,0.0344536,0.0102498,-0.00199536,0.0367568,0.021174770151112687,0.035054000756246984,0.01030250913211539,0.003226674543236552,-0.0019933705926498124,-0.023117597402329215
50,0.032923,126.989,52.9978,0.285158,82.5938,-35.7668,-4.38021,0.0215941,0.00331785,-0.0241211,0.0355266,0.0104262,-0.00205926,0.0379716,0.021828939916719525,0.03616520975607296,0.010480742214421968,0.0033233601565836324,-0.0020571411787769778,-0.02383251128311381
51,0.034423,128.206,53.2426,0.0759549,83.3788,-36.323,-4.39976,0.022554,0.0034614,-0.0252191,0.0371335,0.01069,-0.00215631,0.0397922,0.022810264427494564,0.03783156210386274,0.010747342197209742,0.0034673975629715414,-0.00215398683371415,-0.024903754965318825
52,0.034985,128.941,53.8174,0.373791,83.6978,-36.53,-4.42964,0.0229127,0.00351851,-0.0256279,0.0377351,0.0107882,-0.00219338,0.0404728,0.02317721227750713,0.03845610941661959,0.010846602459812615,0.0035247072225081943,-0.002190976299818237,-0.02530229284359642
53,0.035829,129.706,54.0942,0.435733,84.119,-36.935,-4.44479,0.0234515,0.00359974,-0.026243,0.0386376,0.010929,-0.00224813,0.0414961,0.023728648703114752,0.039393739097119296,0.010988939681744192,0.003606226845350502,-0.0022456048483956437,-0.025901645053599154
54,0.037094,130.666,54.0912,0.22356,84.7187,-37.4576,-4.39718,0.0242619,0.00371568,-0.0271661,0.0399879,0.0111343,-0.00232649,0.0430307,0.02455861465680509,0.04079818045821271,0.011196517018145391,0.00372259169683109,-0.0023237858196293315,-0.026800420351489884
55,0.037569,131.158,54.4912,0.352849,84.978,-37.6045,-4.44831,0.0245642,0.00376272,-0.0275109,0.0404942,0.0112126,-0.00235808,0.0436048,0.024868385545526506,0.04132526999843633,0.01127569680527607,0.003769807918061252,-0.0023553019134359143,-0.027135921722792444
56,0.03828,131.748,54.6538,0.361952,85.3056,-37.9535,-4.44818,0.0250189,0.00382913,-0.0280287,0.0412529,0.0113235,-0.00240311,0.0444675,0.025334499163334412,0.042115623263382806,0.011387853499025491,0.0038364704845110786,-0.0024002248427434925,-0.02763954034441085
57,0.039348,132.628,54.8325,0.331246,85.7925,-38.4161,-4.41871,0.0257017,0.00392654,-0.0288044,0.0423887,0.0114854,-0.00246876,0.0457606,0.026034836627364166,0.0432999306291213,0.011551610448274463,0.0039342589578112985,-0.0024657151182406745,-0.028393507888847758
58,0.04095,133.761,55.0119,0.077603,86.5512,-38.9217,-4.4366,0.0267252,0.00407109,-0.0299678,0.04409,0.0117278,-0.00256826,0.0476985,0.02708552087859739,0.04507640753268927,0.011796840279301835,0.004079388143902962,-0.0025649648418307747,-0.029523217602207774
59,0.04155,134.535,55.6395,0.423708,86.8631,-39.1,-4.46592,0.0271078,0.004129,-0.0304006,0.0447266,0.0118186,-0.00260623,0.0484225,0.027478558982280132,0.045741914982270426,0.011888715603475708,0.004137536064927172,-0.0026028367311133893,-0.029943149073904052
60,0.042451,135.1,55.5267,0.233475,87.2535,-39.4591,-4.44481,0.0276838,0.00420735,-0.0310537,0.0456814,0.0119482,-0.0026609,0.0495121,0.02807055711134754,0.04674086618610973,0.012019864879307507,0.004216213323019247,-0.0026573629435416857,-0.03057648636443977
61,0.043802,136.372,56.2626,0.525149,87.8829,-39.9558,-4.4806,0.0285448,0.00433131,-0.0320286,0.0471116,0.0121386,-0.00274463,0.0511429,0.0289561070355564,0.04823898602306098,0.01221257180669788,0.004340703680575597,-0.0027408669465985858,-0.031521116812953776
62,0.045154,137.197,56.1437,0.137119,88.4742,-40.2721,-4.46236,0.0294082,0.00444739,-0.0330066,0.0485385,0.0123318,-0.00282574,0.0527734,0.02984489137135604,0.04973578587010574,0.012408150167832144,0.004457294316248417,-0.0028217513545690798,-0.03246782614438837
63,0.046505,138.25,56.4901,0.153404,89.0923,-40.6378,-4.48126,0.0302701,0.00456538,-0.0339803,0.0499628,0.0125205,-0.00290748,0.0544009,0.030732897314417196,0.05123198981862531,0.0125992096116605,0.0045758172245262685,-0.002903257373416901,-0.03340945371629234
64,0.047856,139.258,56.8205,0.136052,89.6932,-41.0022,-4.50355,0.0311314,0.00468265,-0.0349531,0.0513848,0.0127065,-0.00298907,0.056027,0.03162104998691717,0.052727905051806134,0.012787570581675345,0.004693630738472621,-0.0029846071779374705,-0.03434929578641677
65,0.049208,140.543,57.6544,0.544568,90.3101,-41.4189,-4.55084,0.0319902,0.00480341,-0.0359215,0.0528053,0.0128877,-0.00307156,0.0576504,0.03250738668314779,0.054224367651861005,0.012971104317119009,0.004814964867327909,-0.003066847585639021,-0.035283979281583444
66,0.049714,140.756,57.4268,0.271101,90.502,-41.5082,-4.53086,0.0323136,0.00484459,-0.0362873,0.0533372,0.0129574,-0.00310123,0.0582601,0.03284135357153617,0.05478525874877849,0.01304171086369954,0.004856343999571466,-0.0030964261534709436,-0.03563680786567991
67,0.050474,141.259,57.5554,0.246257,90.7989,-41.8046,-4.53433,0.0327974,0.0049092,-0.0368331,0.0541342,0.0130547,-0.00314653,0.0591738,0.03334116311257329,0.05562625769356333,0.013140284617702003,0.004921269865364897,-0.003141584862513702,-0.0361630136813168
68,0.051615,142.248,58.1886,0.574778,91.2775,-42.2665,-4.55517,0.0335213,0.00500884,-0.037648,0.0553293,0.013195,-0.00321472,0.0605425,0.034089469597404554,0.056888590791029925,0.013282438171472455,0.005021405209354235,-0.003209558320260597,-0.03694812450461604
69,0.053325,143.513,58.6575,0.617362,91.9743,-42.7189,-4.58202,0.0346074,0.00515415,-0.0388716,0.0571186,0.0134082,-0.00331648,0.062594,0.03521320430400232,0.058781374420412424,0.013498493017918722,0.0051674554807705775,-0.0033109865548498485,-0.038125794134259205
70,0.055035,144.535,58.7521,0.261777,92.6233,-43.0562,-4.57023,0.0356948,0.00529564,-0.0400971,0.058902,0.0136242,-0.00341582,0.064643,0.036339507402375126,0.06067128986024284,0.013717432337005953,0.005309686685955883,-0.0034099927237276617,-0.03930384897300665
71,0.056745,145.54,58.8303,0.117255,93.354,-43.39,-4.60306,0.0367805,0.00543403,-0.0413171,0.060684,0.0138369,-0.00351623,0.0666883,0.03746527221640883,0.06256309119313963,0.01393307296743207,0.005448821120681568,-0.0035100553026323755,-0.04047518361784175
72,0.058456,147.145,60.0218,0.765868,94.0739,-43.8432,-4.68263,0.0378616,0.00558133,-0.0425303,0.0624627,0.0140431,-0.00361881,0.0687289,0.038587482423628305,0.06445475401504286,0.014142167523985893,0.005596934640325513,-0.0036122699984780793,-0.04163857327021847
73,0.059738,147.88,60.1293,0.630191,94.5746,-44.1022,-4.69932,0.0386728,0.00568599,-0.0434431,0.0637955,0.0141988,-0.00369442,0.0702598,0.03943032640066835,0.06587440515656429,0.014300081752772975,0.0057021859232087024,-0.0036876040267046495,-0.042512966446779266
74,0.061021,148.648,60.2021,0.483526,95.0256,-44.4016,-4.67768,0.0394851,0.00578869,-0.044355,0.0651241,0.0143508,-0.00376801,0.0717891,0.04027499867200146,0.06729146703701527,0.014454267082987693,0.00580547684160071,-0.003760919958231579,-0.0433857008889299
75,0.062945,149.487,60.0881,0.0526605,95.7312,-44.8263,-4.70592,0.0407022,0.0059398,-0.0457218,0.067115,0.0145745,-0.0038798,0.0740816,0.041541888182106135,0.06941845422557757,0.014681225886929994,0.005957475591182648,-0.0038722833002194923,-0.044692308174125506
76,0.063426,150.181,60.9154,0.612364,95.9496,-44.9859,-4.75887,0.0410044,0.00598354,-0.0460586,0.0676116,0.0146285,-0.0039092,0.0746515,0.04185668970482914,0.0699496593172535,0.014736020152559703,0.0060014771334717665,-0.0039015690245881585,-0.04501400162851377
77,0.063907,150.394,60.8716,0.526046,96.1013,-45.1565,-4.75728,0.0413079,0.0060214,-0.0463997,0.0681087,0.0146815,-0.00393715,0.0752245,0.042172941198891145,0.07048166351158747,0.014789802586849587,0.006039565070396158,-0.003929409586660215,-0.045339691802941284
78,0.064628,150.821,60.9711,0.534785,96.3287,-45.4326,-4.74584,0.0417632,0.00607869,-0.0469099,0.0688534,0.0147579,-0.00397853,0.0760831,0.042647550575644955,0.07127914811294023,0.014867335489486377,0.006097202728093887,-0.003970626134915278,-0.045826635262344095
79,0.065711,151.438,61.1671,0.494955,96.6831,-45.7588,-4.75576,0.0424455,0.00616494,-0.047675,0.0699694,0.0148724,-0.00404114,0.0773702,0.043359191748180814,0.07247536300599178,0.014983544452236153,0.006183982354146744,-0.004032985581830184,-0.04655639409886325
80,0.067334,152.492,61.6379,0.563708,97.2208,-46.1935,-4.76482,0.043468,0.00629482,-0.0488204,0.0716401,0.0150415,-0.00413424,0.0792979,0.0444265721269661,0.07426864519612031,0.015155192682051899,0.006314674016707711,-0.004125705794679635,-0.047647843212828445
81,0.069769,153.968,62.1961,0.554152,98.0611,-46.6823,-4.81358,0.0449995,0.0064878,-0.0505359,0.0741413,0.0152967,-0.00427474,0.0821846,0.04602733689491778,0.0769589690479382,0.015414293347062902,0.006508891361928448,-0.004265616304071962,-0.049280202781049165
82,0.070682,154.382,62.1274,0.38839,98.3991,-46.7796,-4.82491,0.0455735,0.00655742,-0.0511787,0.0750783,0.0153949,-0.00432716,0.0832656,0.04662792893972223,0.07796855251792656,0.01551401192677182,0.006578966950248066,-0.004317811332421706,-0.04989112909394877
83,0.072052,155.05,62.1407,0.289732,98.8657,-47.0986,-4.84039,0.0464342,0.00666109,-0.0521405,0.0764815,0.0155331,-0.00440557,0.0848863,0.04752914938274255,0.07948221973137293,0.01565436566143985,0.006683324401026702,-0.004395879712124295,-0.05080450449334606
84,0.072566,155.535,62.6257,0.621544,99.0661,-47.2739,-4.86815,0.0467555,0.00670339,-0.0524983,0.0770074,0.0155825,-0.00443567,0.0854924,0.04786577457438046,0.08005006873353726,0.015704540226404884,0.006725908006285808,-0.004425846945135814,-0.051144065890481816
85,0.073336,155.943,62.7556,0.617974,99.2962,-47.5217,-4.87536,0.0472384,0.0067629,-0.0530385,0.0777955,0.0156556,-0.00447987,0.0864036,0.048371911153763936,0.0809015916912541,0.015778790942126086,0.006785820047736424,-0.004469850350218407,-0.051656499445323245
86,0.074492,156.526,62.8178,0.504092,99.6267,-47.834,-4.85556,0.0479636,0.00685014,-0.0538485,0.0789755,0.0157637,-0.00454463,0.0877694,0.04913246620766287,0.08217780838921795,0.01588860256463831,0.006873655874020335,-0.004534318795198944,-0.05242434666066831
87,0.076225,157.639,63.441,0.729312,100.195,-48.2447,-4.90259,0.0490479,0.00698479,-0.0550589,0.0807441,0.0159239,-0.00464415,0.0898141,0.05027065749966586,0.08409344155621157,0.016051360955368077,0.0070092405398165525,-0.0046333826102953335,-0.0535705983799849
88,0.078826,158.981,63.8509,0.589528,101.007,-48.7374,-4.94026,0.0506731,0.00718249,-0.0568746,0.0833906,0.0161645,-0.00479204,0.0928775,0.051978945150774836,0.08696629467540062,0.01629585232394626,0.007208345947592232,-0.004780576494820998,-0.05528747110992116
89,0.079801,159.491,63.8637,0.427278,101.316,-48.7793,-4.93709,0.051283,0.00725473,-0.0575551,0.0843801,0.0162601,-0.00484668,0.0940234,0.0526207428057226,0.08804238012945986,0.016393014851723064,0.007281109306684463,-0.0048349537985198365,-0.0559301292965827
90,0.081264,160.143,63.864,0.345182,101.786,-49.0884,-4.95778,0.0521964,0.00736128,-0.0585725,0.085864,0.0163924,-0.00492933,0.0957421,0.05358264582643457,0.08965812472255119,0.01652749254309116,0.007388440826866294,-0.004917200790684584,-0.05689013754403194
91,0.081812,160.599,64.3073,0.672649,101.99,-49.2684,-4.98638,0.0525373,0.00740433,-0.0589511,0.0864203,0.0164392,-0.004961,0.0963851,0.05394187337725409,0.09026447017668526,0.016575067142979183,0.007431809832755043,-0.0049487145639123264,-0.05724713135476511
92,0.082635,160.843,64.038,0.398181,102.191,-49.4714,-4.95691,0.0530515,0.0074618,-0.0595241,0.0872529,0.0165095,-0.00500613,0.0973519,0.05448394964440917,0.09117260237752811,0.016646534882260866,0.0074897086025713655,-0.004993620215120398,-0.057787174011501796
93,0.083869,161.681,64.757,0.759576,102.577,-49.8275,-5.01058,0.0538184,0.007557,-0.0603777,0.0885019,0.0166109,-0.00507697,0.0987986,0.05529294355445624,0.09253632842753134,0.016749628067634026,0.007585626188434835,-0.005064103970500278,-0.05859110371375453
94,0.08572,162.358,64.555,0.35458,103.095,-50.1412,-4.99707,0.0549717,0.00768834,-0.061662,0.0903711,0.0167662,-0.00517951,0.100968,0.05651071499918148,0.09458040713343463,0.016907541546537175,0.007717971175483562,-0.005166119466855301,-0.05979937909913602
95,0.087571,163.285,64.8204,0.307183,103.653,-50.421,-5.02389,0.0561229,0.0078218,-0.0629416,0.092236,0.0169216,-0.00528293,0.103132,0.057727670479464255,0.09662359471279758,0.017065581257861062,0.007852470190836236,-0.005268999866742896,-0.061001690410810605
96,0.089423,164.261,65.2127,0.368428,104.211,-50.7204,-5.06227,0.0572719,0.0079557,-0.0642182,0.0940977,0.0170751,-0.00538677,0.105293,0.05894369804689914,0.09866708044755623,0.017221712807374168,0.007987430671997364,-0.005372287371016693,-0.06219965083200152
97,0.091274,165.496,66.0956,0.824563,104.785,-51.0738,-5.13283,0.058417,0.00809381,-0.0654901,0.0959572,0.0172254,-0.00549233,0.10745,0.06015698901269739,0.10071195251423282,0.017374612720949756,0.008126653429853858,-0.005477274731031434,-0.063391680863911
98,0.093125,166.415,66.4137,0.838033,105.32,-51.366,-5.16588,0.0595613,0.00822767,-0.0667627,0.0978138,0.0173761,-0.0055969,0.109605,0.061370821016754284,0.10275743255683634,0.017527942628205118,0.008261610296143473,-0.005581266535106599,-0.06458285050883916
99,0.094976,167.187,66.4598,0.563986,105.794,-51.6245,-5.1565,0.0607063,0.00835855,-0.0680362,0.0996643,0.0175275,-0.0056993,0.111757,0.06258678661427619,0.10479997446481826,0.017682008021175033,0.008393580211621954,-0.005683089799973229,-0.06577334603979124
100,0.095671,167.514,66.6359,0.677044,106.035,-51.7502,-5.20244,0.0611338,0.00840853,-0.068511,0.100359,0.0175828,-0.00573938,0.112563,0.06304113957657997,0.10556774566152649,0.017738287392328855,0.00844398098226562,-0.005722941223106237,-0.06621681156804404
101,0.096712,167.964,66.6141,0.645253,106.299,-51.9975,-5.18384,0.0617769,0.00848016,-0.0692239,0.101399,0.0176611,-0.00579663,0.113772,0.06372500120557922,0.10671813421537402,0.017817979420133856,0.008516218411775967,-0.00577986195534963,-0.06688226837281552
102,0.098274,168.531,66.6948,0.460475,106.696,-52.299,-5.20826,0.0627398,0.00858921,-0.0702938,0.102956,0.0177783,-0.00588396,0.115584,0.0647497552979206,0.10844263652701192,0.017937274677887416,0.008626203102200192,-0.005866683408891182,-0.06788007716089084
103,0.09886,168.977,67.1582,0.730498,106.875,-52.4325,-5.244,0.0630995,0.00863321,-0.0706923,0.103539,0.0178214,-0.00591758,0.116262,0.06513281467399978,0.10908904699444943,0.01798114871990486,0.008670583631501083,-0.005900105609164652,-0.06825145294860191
104,0.099738,169.2,66.8902,0.499978,107.068,-52.6429,-5.21391,0.0636414,0.00869133,-0.0712935,0.104414,0.0178836,-0.00596532,0.117281,0.0657101665656381,0.1100599246075813,0.01804446911659907,0.008729209269466187,-0.005947562805310502,-0.06881145182256043
105,0.1011,169.998,67.5712,0.831175,107.429,-52.9573,-5.26847,0.06445,0.00878741,-0.0721903,0.105724,0.0179751,-0.00604014,0.118805,0.06657224829899633,0.11151505601179101,0.018137624447314593,0.00882613262801657,-0.0060219350263619464,-0.06964616737017104
106,0.103,170.603,67.3306,0.410155,107.912,-53.2477,-5.25609,0.0656657,0.00892027,-0.073539,0.107686,0.0181146,-0.00614871,0.121091,0.06786966865842792,0.11369798930899422,0.018279664552992125,0.008960174172180091,-0.006129845366857345,-0.0709000898115677
107,0.105,171.476,67.5775,0.369313,108.438,-53.5067,-5.28622,0.0668788,0.00905539,-0.0748825,0.109644,0.0182543,-0.00625831,0.123371,0.06916588741600416,0.11588074619370348,0.01842192815901167,0.009096514081831097,-0.006238767566759562,-0.07214749740722337
108,0.107,172.4,67.9537,0.43279,108.964,-53.7863,-5.3273,0.0680896,0.00919104,-0.0762229,0.111598,0.0183925,-0.0063684,0.125648,0.07046121750707446,0.11806330884103255,0.018562683795473767,0.009233407308539388,-0.00634816471896138,-0.0733903577506122
109,0.109,173.617,68.8776,0.935381,109.508,-54.1254,-5.40388,0.0692959,0.00933153,-0.0775581,0.113549,0.0185274,-0.00648046,0.127919,0.07175329403302833,0.12024677963974861,0.018700097169841445,0.00937520447024065,-0.006459507104992546,-0.07462674135157044
110,0.1109,174.154,68.5701,0.461536,109.982,-54.3293,-5.39938,0.070504,0.00946172,-0.0788974,0.115496,0.0186658,-0.0065895,0.13019,0.07304886161757507,0.12243002481920051,0.018841095020115883,0.009506623582652196,-0.006567836854092568,-0.07586526419492556
111,0.1129,174.988,68.8401,0.456326,110.482,-54.5985,-5.43613,0.0717093,0.00959502,-0.0802311,0.117439,0.0188009,-0.00669974,0.132456,0.07434298715857013,0.124613026456734,0.018978749750420798,0.009641199784880206,-0.006677346779459747,-0.07709696115237874
112,0.1149,175.829,69.15,0.478237,110.976,-54.8746,-5.47568,0.0729124,0.00972821,-0.0815623,0.119378,0.0189344,-0.00681024,0.134718,0.07563630704699831,0.12679576659772573,0.01911479249416348,0.009775682851980605,-0.006787102868505035,-0.07832471230521787
113,0.1169,176.975,70.0241,0.95513,111.491,-55.2096,-5.55216,0.0741111,0.00986626,-0.082888,0.121315,0.0190646,-0.00692276,0.136975,0.07692644537818283,0.12898048521452288,0.01924748987855862,0.009915092007493964,-0.006898852896515817,-0.07954576767872878
114,0.1188,177.459,69.698,0.465069,111.931,-55.4137,-5.54642,0.0753116,0.00999437,-0.084218,0.123247,0.0191978,-0.00703222,0.139232,0.0782200719198265,0.13116378389936756,0.01938326268647872,0.0100444805177351,-0.007007551798878353,-0.08076915807276608
115,0.1208,178.597,70.5827,0.981011,112.444,-55.7495,-5.62768,0.0765063,0.0101313,-0.0855385,0.125177,0.0193249,-0.00714515,0.141483,0.07950899122238742,0.13334903809427034,0.019512834533282453,0.010182795377963183,-0.007119684104383905,-0.08198220131146527
116,0.1228,179.055,70.2369,0.477981,112.869,-55.9493,-5.62023,0.077703,0.0102583,-0.0868639,0.127102,0.0194552,-0.00725484,0.143732,0.08080161291811216,0.1355328362239403,0.019645685710688365,0.01031109673994024,-0.007228587173336409,-0.08319813612384563
117,0.1248,179.831,70.4975,0.491895,113.335,-56.2167,-5.65997,0.0788966,0.0103885,-0.088183,0.129024,0.0195818,-0.007366,0.145977,0.0820924279284394,0.13771742905636897,0.01977478102606045,0.010442647808524441,-0.007338937510200871,-0.08440669218409202
118,0.1268,180.934,71.3816,0.991524,113.822,-56.5529,-5.74007,0.0800855,0.0105241,-0.0894966,0.130943,0.0197043,-0.00747934,0.148217,0.08337969267890721,0.13990280500029795,0.019899711088546157,0.010579673121673627,-0.007451439339424382,-0.08560862595030883
119,0.1287,181.383,71.0576,0.518918,114.232,-56.7541,-5.7346,0.0812763,0.0106499,-0.0908146,0.132858,0.0198298,-0.00758959,0.150456,0.08467054964064746,0.14208781034675066,0.02002771653446156,0.010706812041422653,-0.007560861786213957,-0.08681299992451175
120,0.1307,182.478,71.9431,1.04567,114.717,-57.087,-5.81736,0.0824611,0.0107845,-0.0921231,0.13477,0.0199491,-0.00770338,0.15269,0.08595642891232114,0.14427357116159079,0.020149413100099878,0.01084286233430265,-0.007673785010862688,-0.08800712368825936
121,0.1327,182.875,71.5427,0.516678,115.11,-57.2766,-5.80597,0.0836483,0.0109087,-0.0934367,0.136678,0.0200717,-0.00781372,0.154922,0.087246441984969,0.14645892930405857,0.020274491085269908,0.010968416814576498,-0.007783272244902717,-0.08920433103264569
122,0.1347,183.966,72.4521,1.06489,115.585,-57.611,-5.89081,0.0848292,0.0110426,-0.0947403,0.138583,0.0201876,-0.00792786,0.157148,0.08853112970287813,0.1486450151500378,0.020392747751628137,0.011103794548924961,-0.007896517399184844,-0.09039087071211738
123,0.1366,184.342,72.034,0.527334,115.967,-57.7964,-5.87787,0.0860127,0.0111656,-0.0960493,0.140484,0.0203069,-0.00803844,0.159374,0.08982016893338596,0.15083066612688256,0.020514487868088294,0.011228167964462799,-0.008006218136825227,-0.09158077010329779
124,0.1386,185.412,72.9285,1.06801,116.432,-58.1269,-5.96197,0.0871898,0.0112984,-0.0973482,0.142383,0.0204195,-0.00815282,0.161594,0.09110375155858419,0.15301816993934603,0.02062940426909421,0.011362467982492186,-0.00811967589682172,-0.09275994985693281
125,0.1406,185.794,72.5421,0.561436,116.806,-58.3132,-5.95083,0.0883693,0.0114207,-0.0986523,0.144277,0.0205354,-0.00826376,0.163813,0.0923914677148594,0.15520405573361762,0.020747702072274388,0.01148616517625567,-0.00822970899632891,-0.09394231048051194
126,0.1426,186.819,73.3759,1.05784,117.258,-58.6345,-6.0308,0.0895429,0.0115521,-0.0999469,0.146169,0.0206449,-0.00837824,0.166026,0.09367425093132553,0.15739177073284782,0.02085948006538474,0.011619083190882229,-0.008343240360583759,-0.09511453382147583
127,0.1445,187.533,73.6527,1.08044,117.66,-58.897,-6.06777,0.0907156,0.0116797,-0.101243,0.148057,0.0207546,-0.00849175,0.168237,0.09495755504368963,0.15957899048173108,0.02097147449312997,0.01174817402171735,-0.008455796931101323,-0.09628659615511792
128,0.1465,188.076,73.551,0.755563,118.003,-59.1076,-6.05033,0.0918892,0.0118033,-0.102539,0.14994,0.0208652,-0.00860274,0.170445,0.09624335158812003,0.1617645347649792,0.02108440018288449,0.011873233824562845,-0.008565842315118477,-0.09745705010851302
129,0.1473,188.359,73.7507,0.918884,118.205,-59.2206,-6.10167,0.0923271,0.0118511,-0.103022,0.150647,0.0209049,-0.00864631,0.171272,0.09672350167296884,0.1625861927129173,0.02112493803824278,0.011921602521142383,-0.008609038160340421,-0.09789287309358696
130,0.1484,188.679,73.6308,0.831977,118.395,-59.4208,-6.07788,0.0929862,0.0119187,-0.103748,0.151704,0.0209613,-0.00870843,0.172512,0.09744659040063519,0.1638156959966286,0.021182531108857372,0.011990010733644363,-0.00867062145409303,-0.0985475651857356
131,0.15,189.1,73.662,0.662421,118.695,-59.6796,-6.09903,0.0939729,0.0120223,-0.104837,0.153289,0.0210449,-0.0088032,0.174371,0.09852997535145236,0.16566180653089457,0.021267905537059484,0.012094858329767977,-0.008764565287698978,-0.09952871255554185
132,0.1525,189.75,73.6662,0.442941,119.178,-59.9921,-6.12679,0.0954508,0.0121755,-0.106467,0.15566,0.0211692,-0.00894498,0.177154,0.10015469309147407,0.1684288697313172,0.021394857027589476,0.012249923139725283,-0.008905092685409843,-0.10099528517268197
133,0.1532,190.379,74.5042,1.03037,119.343,-60.1237,-6.18494,0.095818,0.0122199,-0.106869,0.156252,0.0211985,-0.00898208,0.177846,0.10055874407399767,0.16912078440873501,0.021424784335333236,0.012294868034081974,-0.008941861624403136,-0.10135661243639649
134,0.1538,190.386,74.0899,0.714513,119.411,-60.2207,-6.14834,0.096188,0.012255,-0.107277,0.156844,0.0212282,-0.00901638,0.178542,0.10096602615184302,0.16981310882091138,0.02145512110192671,0.012330400207535952,-0.008975854335571132,-0.10172318415280723
135,0.1547,190.714,74.2697,0.760825,119.573,-60.4052,-6.15638,0.0967405,0.0123136,-0.107886,0.157731,0.0212703,-0.0090695,0.179583,0.10157447795062358,0.1708511933708723,0.02149812526775663,0.012389724507173128,-0.009028496140010112,-0.10227006819056628
136,0.1561,191.293,74.6928,0.969554,119.838,-60.6795,-6.18098,0.0975677,0.0124027,-0.108797,0.15906,0.0213315,-0.0091496,0.181143,0.10248607734431259,0.17240828906776895,0.02156064286604198,0.012479932450330855,-0.009107869778512634,-0.10308752774908025
137,0.1583,191.852,74.6673,0.695598,120.179,-60.9352,-6.17285,0.0988097,0.0125308,-0.110166,0.161049,0.0214262,-0.00926766,0.183482,0.10385621573218606,0.17474252978757576,0.02165738923978977,0.012609639437233033,-0.009224847598070074,-0.10431456082781121
138,0.159,192.245,75.0234,0.980075,120.387,-61.0498,-6.2236,0.0992731,0.0125812,-0.110675,0.161796,0.0214606,-0.00931372,0.184356,0.10436786124166497,0.17562039029740628,0.021692534858480883,0.012660676249177438,-0.00927048165062938,-0.10477034870849367
139,0.1602,192.502,74.7447,0.779366,120.576,-61.2156,-6.18771,0.0999711,0.0126496,-0.111443,0.162912,0.0215102,-0.00937915,0.185669,0.10513897909763559,0.17693311501712672,0.021743212064994077,0.012729944608383725,-0.009335302962362624,-0.10545762113429324
140,0.162,193.325,75.4792,1.15994,120.924,-61.5103,-6.24933,0.101013,0.0127623,-0.112589,0.164586,0.0215818,-0.00948116,0.187634,0.10629102345324726,0.17890495101792903,0.021816371498054377,0.012844085704871055,-0.009436355513834371,-0.10648217951638972
141,0.1647,194.308,75.8544,1.24877,121.409,-61.8099,-6.27425,0.102575,0.0129249,-0.114307,0.167092,0.0216913,-0.00963192,0.190578,0.10802040032359939,0.1818629917021073,0.021928266516874073,0.013008787543103306,-0.009585681632391485,-0.10801592526713999
142,0.1674,194.989,75.8593,0.828854,121.828,-62.0193,-6.27319,0.104137,0.013085,-0.116027,0.169588,0.0218066,-0.00978085,0.193516,0.10975248059142695,0.1848166063070007,0.022046101639067617,0.013170983233407485,-0.00973317305360466,-0.10954881920898119
143,0.17,196.212,76.6824,1.46887,122.435,-62.3049,-6.3836,0.10569,0.0132492,-0.117733,0.172083,0.0219164,-0.00993484,0.196445,0.11147726514233502,0.18777641456513217,0.022158328462167365,0.013337359567977769,-0.009885652501829711,-0.11106663385938864
144,0.172,196.304,75.889,0.66363,122.754,-62.3692,-6.3519,0.106858,0.0133609,-0.119019,0.173949,0.0220039,-0.010046,0.198641,0.11277622903526163,0.18999487453414687,0.022247771228971924,0.013450555672926301,-0.009995707495727757,-0.11220906742601611
145,0.174,196.931,76.1192,0.700019,123.121,-62.5934,-6.388,0.108022,0.0134789,-0.120298,0.17581,0.0220852,-0.0101593,0.200832,0.11407225470646765,0.1922115169416696,0.022330883351234787,0.01357014989441585,-0.010107868628020378,-0.11334382619585448
146,0.176,197.502,76.2925,0.661109,123.472,-62.8173,-6.42036,0.109185,0.0135964,-0.121574,0.177668,0.0221652,-0.0102725,0.203019,0.11536867446065346,0.19442870507007726,0.022412673093448854,0.01368925138410404,-0.010219918075173307,-0.11447447796439192
147,0.178,198.476,77.1518,1.18853,123.861,-63.0903,-6.49268,0.110343,0.0137194,-0.122845,0.179524,0.0222426,-0.0103877,0.205201,0.11666101950904628,0.19664762326580743,0.022491810896939857,0.013813942830390946,-0.010333934173157644,-0.11559926594871617
148,0.1788,198.497,76.7714,0.844223,123.959,-63.1175,-6.46814,0.110778,0.0137602,-0.123325,0.180219,0.0222737,-0.0104292,0.20602,0.11714687271794433,0.1974795824363007,0.022523610886745926,0.013855307283087592,-0.010375004462675141,-0.11602367643439548
149,0.1799,198.797,76.8271,0.829772,124.137,-63.2985,-6.4712,0.11143,0.0138253,-0.12404,0.18126,0.0223148,-0.0104925,0.207246,0.1178754899823733,0.1987268077497597,0.022565637470793876,0.013921311412002702,-0.010437645742275237,-0.11665549360418992
150,0.1816,199.519,77.4429,1.18028,124.429,-63.5928,-6.50422,0.112405,0.0139274,-0.125109,0.18282,0.0223734,-0.0105885,0.209083,0.11896595009802757,0.20059828093940246,0.022625561572908737,0.014024838062843603,-0.010532639168526536,-0.11759928433550393
151,0.1842,199.917,77.0722,0.685848,124.824,-63.8147,-6.50239,0.113869,0.0140694,-0.126717,0.185155,0.0224658,-0.0107301,0.211837,0.12060531597198687,0.2034049534403235,0.022720056540398215,0.014168839813730738,-0.010672737827601142,-0.11901704450163131
152,0.1851,200.528,77.7865,1.17722,125.032,-63.9528,-6.55971,0.114414,0.0141288,-0.127314,0.18603,0.0224986,-0.0107852,0.212865,0.12121621232332647,0.20445839358743645,0.02275360230840029,0.01422908323202754,-0.010727248257970667,-0.11954283436217406
153,0.1865,200.963,77.9238,1.2288,125.264,-64.1536,-6.57353,0.115234,0.0142113,-0.128214,0.187341,0.0225464,-0.0108658,0.21441,0.1221359866733771,0.20603847405786824,0.022802491099023436,0.014312760583037543,-0.01080698042851147,-0.12033488933304748
154,0.1887,201.445,77.7804,0.93179,125.551,-64.379,-6.53676,0.116465,0.014331,-0.129564,0.189302,0.0226183,-0.0109839,0.216724,0.12351818664250858,0.20840583594518125,0.022876033241941984,0.014434181087351394,-0.010923797225955156,-0.12152163599821175
155,0.1895,201.704,77.9956,1.06571,125.726,-64.4716,-6.58658,0.116925,0.014378,-0.130068,0.190038,0.0226447,-0.0110302,0.21759,0.12403512389481697,0.20929555001505173,0.022903037525674463,0.014481860614322661,-0.010969590394023565,-0.1219642775386306
156,0.1907,201.99,77.8673,0.958442,125.891,-64.6321,-6.55419,0.117616,0.0144439,-0.130825,0.191139,0.0226819,-0.0110962,0.21889,0.12481210057995695,0.2106277176393243,0.022941090226446192,0.01454871717183659,-0.011034864246996734,-0.1226286990652572
157,0.1925,202.376,77.8804,0.808759,126.167,-64.8386,-6.56897,0.118651,0.0145446,-0.131959,0.192788,0.0227374,-0.0111969,0.220836,0.12597688377538208,0.21262568962086958,0.022997865032440057,0.01465088737183895,-0.011134448022039889,-0.1236230742032538
158,0.1952,203.023,77.955,0.676018,126.613,-65.0908,-6.59633,0.1202,0.0146946,-0.133656,0.195258,0.0228205,-0.0113478,0.22375,0.12772237350113191,0.21562457717570416,0.023082879687334357,0.014803096420338058,-0.0112836565757648,-0.12510902466076324
159,0.1979,203.715,78.0511,0.54041,127.058,-65.2774,-6.62827,0.121747,0.0148437,-0.13535,0.19772,0.0229061,-0.0114987,0.226657,0.12946831014673443,0.21862113213023915,0.023170459330190685,0.014954414842522246,-0.011432842615617722,-0.1265898353721997
160,0.2006,205.208,79.5454,1.52897,127.559,-65.607,-6.74455,0.123286,0.0150049,-0.137032,0.200179,0.0229873,-0.0116539,0.229554,0.13120790014720085,0.221621408822531,0.023253544144686167,0.015118038681922075,-0.011586256333231404,-0.12805767646868282
161,0.2026,205.597,79.4436,1.30604,127.887,-65.7409,-6.76693,0.124439,0.0151171,-0.138297,0.20202,0.0230515,-0.0117685,0.231727,0.1325129350641232,0.22387248531629167,0.023319239131006864,0.015231941315680508,-0.011699522058005618,-0.12915998615008117
162,0.2047,206.128,79.469,1.12713,128.151,-65.9035,-6.74397,0.125593,0.0152291,-0.139561,0.203855,0.0231149,-0.0118809,0.233895,0.1338206093741432,0.22612035311479572,0.02338411962745779,0.015345653660880254,-0.01181060078898466,-0.13026003255179985
163,0.2062,206.443,79.5508,1.09787,128.412,-66.0633,-6.79182,0.126455,0.0153136,-0.140506,0.205232,0.0231603,-0.0119675,0.23552,0.13479838409978617,0.22780988381595857,0.023430582321184,0.015431453993627553,-0.011896174285570438,-0.13108154859357257
164,0.2085,207.19,79.8628,1.17201,128.724,-66.3087,-6.78413,0.127749,0.0154404,-0.141922,0.207289,0.0232268,-0.0120942,0.237952,0.13626776369237592,0.230338088113633,0.02349864271789137,0.015560218865514397,-0.0120213591096624,-0.13231106641670753
165,0.2093,207.225,79.6685,1.01197,128.888,-66.3589,-6.82216,0.128233,0.0154858,-0.142453,0.208062,0.0232526,-0.0121432,0.238864,0.13681785040024796,0.2312895071318204,0.02352504932351729,0.01560632634608261,-0.01206976887701705,-0.13277168693486963
166,0.2106,207.748,80.0077,1.27624,129.087,-66.5564,-6.81825,0.128959,0.0155572,-0.143245,0.209218,0.0232859,-0.0122146,0.240229,0.1376434798268562,0.2327137008274207,0.023559133275154354,0.015678843226605732,-0.012140304577364702,-0.1334582598400582
167,0.2125,207.97,79.7145,0.880315,129.338,-66.7271,-6.8196,0.130047,0.015659,-0.144437,0.210949,0.0233383,-0.0123217,0.242276,0.1388819095164937,0.23484937613726253,0.02361276917898647,0.01578224459588662,-0.012246098685368856,-0.13449056221988043
168,0.2154,209.306,80.9025,1.63124,129.808,-67.0708,-6.89729,0.131673,0.0158237,-0.146213,0.21354,0.0234127,-0.0124854,0.245337,0.14073523784897102,0.2380530193984327,0.02368892880211626,0.015949557709428186,-0.01240778076497484,-0.13602634280454196
169,0.2176,209.625,80.6959,1.33051,130.144,-67.1979,-6.92168,0.132892,0.0159392,-0.147548,0.215482,0.0234723,-0.0126073,0.247631,0.14212664199243674,0.2404596544483799,0.02374994248046236,0.01606690666011512,-0.012528160919180076,-0.13717897808166246
170,0.2198,210.241,80.8652,1.24698,130.415,-67.3665,-6.9059,0.13411,0.0160564,-0.14888,0.217415,0.0235311,-0.012727,0.249919,0.14351859977258807,0.2428597819363083,0.023810140746891806,0.016185996680114556,-0.012646354224307599,-0.13832749060370808
171,0.2206,210.221,80.6021,1.05452,130.564,-67.419,-6.93657,0.134565,0.0160978,-0.149379,0.218142,0.0235529,-0.0127732,0.250777,0.14403901912190809,0.2437636695211023,0.023832460051239623,0.016228067651240075,-0.012691968909035123,-0.13875735792508037
172,0.2218,210.713,80.954,1.31009,130.745,-67.597,-6.93652,0.135248,0.0161645,-0.150124,0.219228,0.0235814,-0.0128409,0.252062,0.1448206646735386,0.24511513057672962,0.023861639692159153,0.01629585232394626,-0.012758807400231498,-0.1393987447471695
173,0.2236,210.873,80.6061,0.901054,130.969,-67.7608,-6.92919,0.136274,0.0162583,-0.151246,0.220855,0.0236257,-0.012942,0.253989,0.14599585344424204,0.24714258177848691,0.023906997767471294,0.016391185345943082,-0.012858612439573647,-0.14036379785952624
174,0.2264,211.46,80.689,0.794432,131.369,-67.9988,-6.95471,0.137808,0.0164017,-0.152921,0.22329,0.0236906,-0.0130943,0.256872,0.14775516012665735,0.25018307426240316,0.02397345148802632,0.016536946292731614,-0.013008942624964881,-0.14180248326271883
175,0.2291,212.193,80.9716,0.826855,131.778,-68.1919,-6.99806,0.139339,0.0165461,-0.154592,0.22572,0.0237572,-0.0132472,0.259747,0.1495137191102136,0.25322471322748896,0.024041650390893787,0.01668374482637547,-0.013159842021084667,-0.14323533383312992
176,0.2319,212.893,81.2206,0.841135,132.184,-68.3888,-7.04297,0.140866,0.0166899,-0.156259,0.228144,0.0238237,-0.0134005,0.262617,0.15127036741894306,0.2562662147429242,0.024109751424979065,0.016829954461102137,-0.013311113022084431,-0.14466237076588184
177,0.2346,213.584,81.464,0.854097,132.585,-68.5865,-7.08802,0.142391,0.0168334,-0.157922,0.230562,0.0238902,-0.0135541,0.265481,0.15302739412160227,0.2593075419329287,0.02417785698793362,0.016975880029476587,-0.01346265679626435,-0.14608361515104618
178,0.2374,214.674,82.4067,1.42177,133.012,-68.8515,-7.17395,0.143909,0.016983,-0.159578,0.232977,0.0239543,-0.01371,0.268337,0.15477901885269052,0.26235244488713416,0.024243508892687782,0.017128031001737876,-0.013616445979891534,-0.14749653046758326
179,0.2401,214.956,81.9554,0.860222,133.359,-68.9848,-7.17252,0.145427,0.0171215,-0.161239,0.235385,0.0240228,-0.0138627,0.271191,0.1565333045692976,0.2653958523664368,0.02431367197610501,0.0172689129898842,-0.013767055249280014,-0.14891136338645306
180,0.2429,215.584,82.1001,0.838066,133.757,-69.175,-7.21665,0.146942,0.0172628,-0.162891,0.237787,0.0240886,-0.014017,0.274037,0.15828678044831324,0.26843898654482956,0.024381074033224426,0.017412663243005833,-0.013919219252900294,-0.1503162010986927
181,0.2456,216.68,83.0901,1.44768,134.173,-69.4481,-7.30665,0.14845,0.0174116,-0.164536,0.240186,0.0241515,-0.0141738,0.276875,0.1600347945846301,0.27148562465479564,0.024445509629259288,0.017564065511345817,-0.014073824597945594,-0.1517127819452072
182,0.2483,216.922,82.5943,0.86005,134.507,-69.5802,-7.30304,0.149959,0.0175485,-0.166186,0.242578,0.0242186,-0.0143272,0.279712,0.1617866085008397,0.27453065867777315,0.02451425222924386,0.017703379567743927,-0.01422505407365493,-0.15311130175886223
183,0.2511,217.566,82.797,0.886711,134.894,-69.7778,-7.35058,0.151463,0.017689,-0.167827,0.244964,0.0242828,-0.0144824,0.28254,0.16353525020896797,0.2775753196655,0.024580028155621658,0.01784637693790314,-0.014378034473676582,-0.15449990645091383
184,0.2538,218.197,83.0092,0.886072,135.265,-69.9804,-7.39488,0.152965,0.0178295,-0.169465,0.247345,0.0243461,-0.0146377,0.285362,0.1652841932822282,0.28062085076760024,0.024644886124136844,0.01798939440060443,-0.014531089679878484,-0.15588370196622148
185,0.2566,218.833,83.232,0.898219,135.633,-70.1825,-7.43971,0.154463,0.0179697,-0.171099,0.249721,0.0244088,-0.0147934,0.288179,0.16703109710805886,0.28366722356674945,0.024709133372627035,0.0181321265189871,-0.014684515244725138,-0.15726186173404288
186,0.2593,219.469,83.4624,0.919084,135.997,-70.3851,-7.48475,0.155957,0.0181096,-0.17273,0.252091,0.0244707,-0.0149493,0.29099,0.1687759446437005,0.28671312285154604,0.0247725648311663,0.01827457316739789,-0.014838113955467858,-0.15863524733714318
187,0.2621,220.492,84.3728,1.47259,136.386,-70.6497,-7.56914,0.157446,0.0182555,-0.174354,0.254458,0.0245301,-0.0151075,0.293794,0.17051754832743882,0.28976238018572076,0.02483343812943639,0.018423150266058785,-0.014993954238548657,-0.16000051479822897
188,0.2648,221.072,84.5452,1.41984,136.727,-70.8596,-7.60755,0.158933,0.0183966,-0.175978,0.25682,0.0245903,-0.0152647,0.296595,0.17225940266954387,0.29281239958261107,0.024895134959467713,0.018566859911038236,-0.015148785018924249,-0.1613635668643455
189,0.2676,221.654,84.6358,1.21167,137.005,-71.0372,-7.60003,0.160419,0.0185363,-0.177602,0.259173,0.0246527,-0.0154195,0.29939,0.17400267507251566,0.29585796886591376,0.024959090411278417,0.018709163641051907,-0.015301228187597604,-0.16272440713037462
190,0.2686,221.744,84.51,1.18965,137.196,-71.1031,-7.64693,0.160974,0.0185869,-0.178208,0.260057,0.0246751,-0.0154793,0.300437,0.17465442740172255,0.29700401378761465,0.02498204975204743,0.018760711628885263,-0.015360111413526,-0.1632316424318343
191,0.2701,222.22,84.7085,1.37428,137.387,-71.2773,-7.63773,0.161807,0.0186645,-0.179115,0.261379,0.0247046,-0.0155665,0.302004,0.17563332219282501,0.29871978697002977,0.02501228716851478,0.018839770527553368,-0.015445968268397503,-0.16399024725285682
192,0.2725,222.578,84.6949,1.2067,137.649,-71.4872,-7.65974,0.163056,0.0187797,-0.180478,0.263358,0.0247486,-0.0156982,0.304355,0.1771026055887175,0.3012924982866352,0.025057388701376526,0.0189571476299093,-0.015575625496260681,-0.16512895234204528
193,0.2742,223.082,85.0716,1.33713,137.85,-71.6414,-7.68474,0.16399,0.0188691,-0.181497,0.264839,0.0247817,-0.0157973,0.306113,0.17820253300848177,0.303221140283479,0.025091318662480377,0.019048246470964925,-0.015673177118011306,-0.16597925263803137
194,0.2768,223.439,84.9157,1.06765,138.123,-71.8768,-7.67429,0.165391,0.0189965,-0.183026,0.267058,0.0248284,-0.0159438,0.30875,0.17985435158595764,0.30611619887334407,0.025139191544885087,0.01917808148788036,-0.015817370435145084,-0.16725349595348504
195,0.2778,223.775,85.2166,1.27967,138.287,-71.9314,-7.7261,0.165914,0.0190467,-0.183596,0.267889,0.0248469,-0.0160005,0.309735,0.18047157680216208,0.30720203253600853,0.025158156795356712,0.019229245511777293,-0.01587317200825189,-0.16772802620682148
196,0.2792,223.979,84.9835,1.16206,138.446,-72.0875,-7.69218,0.166701,0.0191158,-0.184452,0.269134,0.0248702,-0.0160821,0.311215,0.1814009736027764,0.3088305125849975,0.025182043258686226,0.01929967668601118,-0.015953473481071345,-0.16844014618555447
197,0.2814,224.291,84.9413,0.968778,138.687,-72.265,-7.70397,0.167879,0.0192222,-0.185736,0.270998,0.0249056,-0.0162059,0.313431,0.1827934839772607,0.31127244783706987,0.025218335345383647,0.01940813594154056,-0.016075290900400607,-0.1695071838530715
198,0.2847,224.778,84.8709,0.733658,139.085,-72.4805,-7.7308,0.169643,0.0193801,-0.187657,0.273788,0.0249588,-0.0163917,0.316747,0.18488177301241548,0.3149360062540685,0.025272878411656707,0.019569113195025523,-0.016258087129055743,-0.17110102917431924
199,0.288,226.365,86.5379,1.85716,139.536,-72.7829,-7.84885,0.171397,0.0195529,-0.189564,0.276572,0.0250103,-0.0165819,0.32005,0.18696187936225805,0.31860188863600625,0.02532568132455837,0.019745309960747637,-0.01644517704806847,-0.1726802332620021
200,0.2905,226.28,85.6219,1.00313,139.789,-72.8161,-7.82043,0.172715,0.0196654,-0.191003,0.278655,0.0250553,-0.0167203,0.322528,0.1885273265223213,0.321351398990918,0.025371822018375623,0.01986003776143619,-0.016581291616219684,-0.17386989024285304
201,0.293,227.158,86.4723,1.54752,140.121,-73.0549,-7.89817,0.174026,0.019791,-0.19243,0.280734,0.0250931,-0.0168626,0.324998,0.19008650766731616,0.3241013461289757,0.025410581805803467,0.019988140226845363,-0.016721222142129677,-0.1750479371730841
202,0.2955,227.634,86.5854,1.49461,140.399,-73.2274,-7.92139,0.175336,0.0199113,-0.193858,0.28281,0.0251322,-0.0170032,0.327465,0.1916465425921381,0.32685303578914304,0.02545067614339125,0.020110852181090655,-0.01685946141984751,-0.17622512800450496
203,0.2979,228.058,86.5332,1.24597,140.623,-73.3676,-7.90219,0.176646,0.0200295,-0.195285,0.284878,0.0251727,-0.0171417,0.329927,0.1932086225018843,0.32959980704972947,0.025492207736784067,0.020231436410206083,-0.016995616955452375,-0.1773998164073295
204,0.2989,228.187,86.5329,1.29186,140.778,-73.4332,-7.9428,0.177135,0.0200736,-0.195818,0.285655,0.0251869,-0.0171953,0.330849,0.1937922442021638,0.3306333075627603,0.0255067698295246,0.020276429608644397,-0.01704830457834261,-0.17783814548010946
205,0.3002,228.505,86.5737,1.33281,140.922,-73.5709,-7.92318,0.17787,0.0201392,-0.196617,0.286816,0.0252057,-0.017273,0.332231,0.1946700040388767,0.33217906997429014,0.025526049538026063,0.0203433619377833,-0.017124676957971596,-0.1784947904372769
206,0.3023,228.945,86.8147,1.38366,141.146,-73.7682,-7.9442,0.17897,0.0202399,-0.197814,0.288557,0.0252329,-0.0173909,0.334302,0.19598486408376248,0.3345004138786356,0.025553944225939595,0.020446115687894784,-0.017240551127641668,-0.17947754387784776
207,0.3055,229.639,87.1431,1.33566,141.426,-74.0166,-7.94076,0.180619,0.0203907,-0.19961,0.291158,0.0252753,-0.0175659,0.337402,0.19795867008041634,0.33797596745315617,0.025597428635037556,0.02060001056552263,-0.017412518983568104,-0.18094987965574882
208,0.3066,229.693,86.9409,1.21531,141.606,-74.059,-7.97958,0.181236,0.0204443,-0.200281,0.292135,0.0252921,-0.0176328,0.338563,0.1986980386516044,0.33928380874980046,0.025614658816571767,0.020654716192186617,-0.017478251887257934,-0.181499277942761
209,0.3084,230.265,87.3014,1.52366,141.815,-74.2356,-7.9733,0.18216,0.0205283,-0.201284,0.293596,0.0253122,-0.0177311,0.3403,0.19980614750676962,0.3412419324554463,0.025635273878394704,0.02074045478931752,-0.017574829028253136,-0.18231982259505164
210,0.311,230.469,86.9854,1.10182,142.073,-74.3911,-7.97805,0.183546,0.0206488,-0.202793,0.295783,0.0253446,-0.0178786,0.342906,0.2014702317712178,0.34417843846060814,0.02566850499960971,0.020863461425120633,-0.017719726054553075,-0.18355277148885507
211,0.312,230.864,87.442,1.41212,142.215,-74.4874,-8.01651,0.184064,0.020698,-0.203355,0.296602,0.0253556,-0.0179351,0.34388,0.20209275457076048,0.34527977153604095,0.025679787415217703,0.02091368914301439,-0.01777522332221848,-0.18401148592044947
212,0.3135,230.939,87.0603,1.10637,142.336,-74.6014,-7.97529,0.184843,0.0207632,-0.204202,0.297829,0.0253714,-0.0180166,0.345343,0.20302954966088493,0.346931442908883,0.025695993283884944,0.020980254885566207,-0.017855271379515036,-0.184702335575744
213,0.3157,231.659,87.7805,1.5278,142.603,-74.8163,-8.02414,0.186006,0.0208713,-0.205465,0.299667,0.0253931,-0.0181422,0.347531,0.20442948693287155,0.3494093794270201,0.025718251128435954,0.021090628816722745,-0.017978621010910745,-0.18573140653080855
214,0.3191,231.924,87.34,0.996594,142.928,-74.9832,-8.01009,0.187752,0.0210208,-0.207363,0.302418,0.0254295,-0.0183269,0.35081,0.20653425774727507,0.35312671548116636,0.02575558795230304,0.02124329327711494,-0.01815998361025839,-0.18727542258646213
215,0.3203,232.531,88.0864,1.50578,143.108,-75.0951,-8.06714,0.188403,0.0210835,-0.208068,0.303448,0.0254419,-0.0183983,0.352035,0.20731996726976942,0.35452115401067474,0.025768307400454216,0.021307327239047158,-0.01823008448479768,-0.1878481914887773
216,0.3222,232.906,88.1851,1.54469,143.309,-75.2473,-8.07295,0.18938,0.0211702,-0.20913,0.304991,0.0254596,-0.018503,0.353873,0.20850009527645108,0.3566127934361403,0.02578646366017745,0.021395878422957093,-0.018332870414014768,-0.18871023888122962
217,0.325,233.352,88.123,1.30658,143.545,-75.4284,-8.03756,0.190847,0.0212977,-0.210724,0.307299,0.025487,-0.0186574,0.356627,0.2102742659522312,0.35974747179071165,0.02581457059434511,0.021526114699842225,-0.018484428118267004,-0.19000240463075213
218,0.3261,233.5,88.1752,1.34197,143.701,-75.4887,-8.08264,0.191395,0.021346,-0.211319,0.308165,0.0254971,-0.0187172,0.357657,0.21093767800827434,0.3609255231238857,0.025824931373829907,0.021575455602755644,-0.018543120994531037,-0.19048420984873016
219,0.3277,233.825,88.2015,1.35796,143.854,-75.6195,-8.05581,0.192218,0.0214169,-0.212211,0.30946,0.0255099,-0.0188038,0.359202,0.21193468993140607,0.3626890633221511,0.02583806201698735,0.021647887870251292,-0.018628111480111786,-0.1912059759779945
220,0.3301,234.347,88.5543,1.46475,144.099,-75.8069,-8.08261,0.193448,0.0215269,-0.213547,0.3114,0.025529,-0.0189356,0.361515,0.21342628674400843,0.3653352460723327,0.02585765571109122,0.02176027531911351,-0.018757447771569846,-0.19228580330881595
221,0.3336,235.004,88.7953,1.3026,144.394,-76.041,-8.07588,0.195293,0.0216898,-0.215552,0.314301,0.0255604,-0.0191306,0.364979,0.215667124780484,0.3693018343756882,0.025889868147213058,0.021926733625623918,-0.018948771414592946,-0.19390364784205594
222,0.335,235.12,88.6794,1.2735,144.605,-76.0803,-8.12834,0.195983,0.0217487,-0.2163,0.31539,0.025573,-0.0192057,0.366275,0.21650622455271273,0.3707938163100388,0.02590279444098731,0.021986926882908486,-0.019022445595359594,-0.1945063824626193
223,0.337,235.68,88.9462,1.52548,144.831,-76.234,-8.11542,0.197017,0.0218387,-0.21742,0.317018,0.0255874,-0.0193152,0.368216,0.21776474253056533,0.37302728619418124,0.025917567547593334,0.022078909845499206,-0.019129856756698538,-0.19540803029722154
224,0.34,236.061,88.917,1.29824,145.124,-76.4023,-8.14004,0.198566,0.0219722,-0.219101,0.319455,0.0256107,-0.0194807,0.371124,0.21965252182434658,0.37637743418793157,0.02594147170539962,0.02221536648824185,-0.019292177333007032,-0.19675941324270252
225,0.3411,236.31,89.0779,1.38297,145.26,-76.4684,-8.16351,0.199145,0.0220232,-0.219729,0.320368,0.0256193,-0.0195432,0.372212,0.22035890511271083,0.3776346406127473,0.02595029483999567,0.02226750080134643,-0.01935346965651874,-0.19726368997171995
226,0.3428,236.566,89.032,1.32801,145.42,-76.6026,-8.14348,0.200014,0.0220969,-0.220672,0.321735,0.0256297,-0.0196351,0.373844,0.22141985791848207,0.3795191549385424,0.02596096477854548,0.022342844692543773,-0.019443586931705004,-0.19802031350801041
227,0.3454,236.864,88.9715,1.14288,145.667,-76.7586,-8.15102,0.201316,0.0222074,-0.222084,0.323783,0.0256459,-0.0197735,0.376288,0.22301118230086336,0.38234730520521953,0.0259775854808022,0.022455819818642864,-0.019579286548643604,-0.19915190973039465
228,0.3492,237.102,88.5284,0.634974,146.067,-76.9095,-8.16763,0.203266,0.0223683,-0.224198,0.326847,0.025672,-0.0199808,0.379946,0.22539838086850983,0.38658931278528375,0.02600436384523941,0.022620346195843855,-0.01978250669804582,-0.20084311436009883
229,0.3511,238.154,89.8575,1.55937,146.315,-77.0845,-8.26094,0.204236,0.0224608,-0.225246,0.328375,0.0256828,-0.0200876,0.381766,0.22658759397306394,0.38870964077326,0.026015444752205852,0.022714942952899664,-0.019887188336231487,-0.20168019207091514
230,0.353,238.541,90.0336,1.61074,146.502,-77.2042,-8.27061,0.205206,0.0225456,-0.226297,0.329902,0.0256951,-0.0201921,0.383588,0.22777796117397542,0.3908318202664016,0.026028064819789476,0.022801672857357902,-0.019989604773698266,-0.2025187854310453
231,0.3558,238.883,89.8519,1.28489,146.718,-77.3648,-8.22964,0.206661,0.0226683,-0.227876,0.332185,0.0257136,-0.0203457,0.386318,0.2295656783563469,0.39401071664155785,0.026047046514568795,0.022927178322220243,-0.020140122810323957,-0.20377701463547038
232,0.3569,239.093,90.0324,1.41394,146.872,-77.4254,-8.28166,0.207204,0.0227161,-0.228465,0.333043,0.0257203,-0.0204056,0.387339,0.23023351382061374,0.39520729109346986,0.026053921052810125,0.02297607540997526,-0.020198814659129205,-0.20424585188772515
233,0.3585,239.323,89.9178,1.32765,147.01,-77.5392,-8.24795,0.20802,0.0227839,-0.229349,0.334324,0.0257285,-0.0204916,0.388871,0.2312377940585031,0.3969956968626973,0.026062334729458847,0.023045435539169823,-0.020283073937867546,-0.2049489877228282
234,0.3609,239.592,89.8803,1.16732,147.238,-77.6891,-8.25761,0.209243,0.022887,-0.230674,0.336245,0.0257405,-0.0206222,0.391165,0.23274451905516758,0.39968190487310173,0.026074647551352248,0.023150916961047763,-0.020411016613572697,-0.20600173271651834
235,0.3646,240.089,89.9148,1.0405,147.607,-77.8677,-8.28631,0.211072,0.023041,-0.232656,0.339119,0.0257595,-0.0208183,0.394597,0.23500127195192855,0.40371037680898936,0.02609414315486336,0.02330849433540627,-0.020603095179295927,-0.20757387877087607
236,0.3682,240.63,89.9824,0.916833,147.971,-78.0023,-8.32718,0.212898,0.0231945,-0.234632,0.341985,0.0257812,-0.0210146,0.39802,0.23725844444582989,0.407739181268012,0.02611640963936046,0.023465584245628834,-0.02079533192305849,-0.20913816676090058
237,0.3718,241.23,90.1733,0.897001,148.339,-78.1555,-8.37874,0.214718,0.0233485,-0.236603,0.344843,0.0258033,-0.0212116,0.401434,0.2395123052058723,0.4117682546514303,0.026139087062597932,0.023623210082480472,-0.02098821624294034,-0.21069542025675458
238,0.3754,241.878,90.4532,0.9485,148.706,-78.3188,-8.43517,0.216533,0.0235031,-0.238568,0.347693,0.025826,-0.0214092,0.404839,0.24176406289177121,0.41579753317176094,0.026162380684255915,0.023781474464280805,-0.021181649859539964,-0.212244880912288
239,0.379,242.533,90.748,1.01434,149.069,-78.4854,-8.49237,0.218343,0.0236578,-0.240529,0.350537,0.0258493,-0.0216072,0.408235,0.24401369114500748,0.41982979251102637,0.026186290546274638,0.023939865709627473,-0.02137543670733677,-0.2137881550259928
240,0.3826,243.171,91.0169,1.06286,149.427,-78.6514,-8.5482,0.220148,0.0238123,-0.242484,0.353373,0.0258733,-0.0218057,0.411623,0.2462611635912133,0.4238621449757338,0.026210919312791736,0.024098076640359123,-0.021569674404421146,-0.21532369770087878
241,0.3863,243.789,91.2585,1.09278,149.779,-78.8168,-8.60259,0.221948,0.0239665,-0.244434,0.356202,0.0258977,-0.0220045,0.415003,0.24850645384067382,0.42789595411660475,0.02623595916470789,0.02425600473972067,-0.021764167019942993,-0.21685232559378254
242,0.3899,244.396,91.4871,1.11499,150.128,-78.9826,-8.65624,0.223743,0.0241203,-0.246379,0.359024,0.0259224,-0.0222037,0.418375,0.25074953548882495,0.4319311675072859,0.026261307505950127,0.02441354742797186,-0.02195901219064933,-0.2183740674468183
243,0.3935,245.444,92.4387,1.70081,150.494,-79.2053,-8.74387,0.225531,0.0242808,-0.248316,0.361839,0.025946,-0.0224051,0.421736,0.25298787613849893,0.4359677325435538,0.026285527558602695,0.024577978997614602,-0.022155969811295972,-0.21988661150633404
244,0.3971,245.896,92.4862,1.51938,150.803,-79.3833,-8.78489,0.227315,0.0244354,-0.250254,0.364648,0.0259713,-0.0226053,0.425093,0.2552252016104646,0.44000703645060213,0.026311492910910284,0.024736390998099544,-0.02235171459143348,-0.22139700720706645
245,0.4007,246.609,92.7962,1.66706,151.154,-79.5303,-8.83827,0.229095,0.0245904,-0.252183,0.36745,0.0259978,-0.0228061,0.428439,0.2574614921774807,0.44404759434474306,0.026338690525839148,0.024895237448986363,-0.022548006658760444,-0.2228974847043398
246,0.4044,247.141,92.9207,1.49013,151.418,-79.7071,-8.84823,0.230872,0.0247446,-0.254112,0.370241,0.0260246,-0.023005,0.431779,0.25969798778690856,0.448083560751773,0.026366196771327344,0.025053288480022307,-0.022742402526926053,-0.22439507057039587
247,0.408,247.317,92.4673,1.1073,151.783,-79.8204,-8.90514,0.232644,0.024892,-0.256035,0.373029,0.0260512,-0.0232058,0.435111,0.26193215150571847,0.45212645088923775,0.026393498475272503,0.025204392470834724,-0.02293861615199133,-0.22588512570250296
248,0.4093,247.907,93.1901,1.61997,151.944,-79.9221,-8.95936,0.233306,0.0249538,-0.25675,0.374071,0.0260595,-0.0232824,0.436355,0.2627678271681404,0.45364035525826196,0.02640201757666416,0.025267752060080584,-0.023013456187584214,-0.22643842001133874
249,0.4114,248.213,93.2511,1.62653,152.109,-80.0724,-8.96609,0.234299,0.0250394,-0.257827,0.375634,0.0260707,-0.0233951,0.438224,0.26402237840211873,0.4559141716581421,0.026413513343637174,0.025355518736017046,-0.023123556366810183,-0.22727109735574935
250,0.4144,248.641,93.2706,1.47416,152.307,-80.2695,-8.93827,0.235788,0.0251663,-0.259442,0.377972,0.0260869,-0.0235618,0.441023,0.26590590966458305,0.45932208128546104,0.02643014137724009,0.025485644607656566,-0.023286388097562005,-0.22851804735037196
251,0.4156,248.714,93.2079,1.42335,152.438,-80.3131,-8.97695,0.236345,0.0252134,-0.260046,0.378849,0.0260936,-0.023626,0.442071,0.2666112156657525,0.4606024681183094,0.02643701848222557,0.025533946119009165,-0.023349091098658237,-0.2289838817536206
252,0.4173,249.062,93.3402,1.53788,152.577,-80.4532,-8.9566,0.237181,0.0252844,-0.26095,0.380161,0.0261,-0.0237196,0.44364,0.2676705453801729,0.46252003620607995,0.026443587700165194,0.025606761614103135,-0.02344050134566511,-0.22968056537607295
253,0.4199,249.396,93.4153,1.4498,152.773,-80.6102,-8.96706,0.238432,0.025391,-0.262306,0.382126,0.0261104,-0.023861,0.445992,0.26925739359905276,0.4653967134870287,0.026454262768987657,0.02571609712237022,-0.02357857709658928,-0.23072441064238602
254,0.4237,249.714,93.1724,1.15343,153.104,-80.7831,-8.98374,0.240305,0.0255459,-0.264336,0.385067,0.026126,-0.0240726,0.449512,0.27163694044724074,0.4697127888993038,0.026470275580386504,0.025874992851971035,-0.023785166011797587,-0.23228445610690296
255,0.4276,250.196,93.1769,1.00921,153.443,-80.915,-9.02389,0.242175,0.0257016,-0.266359,0.387999,0.0261433,-0.0242848,0.453022,0.27401712630604913,0.4740283102590943,0.026488033669761046,0.026034734023885786,-0.0239922968222136,-0.23383597476194296
256,0.4315,250.795,93.4042,1.03331,153.784,-81.0728,-9.0773,0.244038,0.0258585,-0.268376,0.390923,0.0261604,-0.0244976,0.456522,0.2763928324955456,0.47834467649039225,0.026505586765215305,0.026195731503576125,-0.024199969164328983,-0.2353797701598055
257,0.4353,251.434,93.7,1.11239,154.123,-81.2372,-9.13373,0.245896,0.0260159,-0.270387,0.393839,0.0261778,-0.024711,0.460013,0.2787665749021391,0.4826618209045177,0.02652344811781826,0.026357267424258257,-0.024408182673737677,-0.23691587636953704
258,0.4392,252.053,93.9655,1.17081,154.458,-81.4002,-9.18836,0.247749,0.0261729,-0.272392,0.396748,0.0261955,-0.0249247,0.463495,0.2811383261142919,0.4869811635794925,0.026541617743650603,0.026518418165245805,-0.024616644370174745,-0.23844432725337095
259,0.443,253.085,94.8975,1.7461,154.806,-81.6125,-9.27228,0.249594,0.0263361,-0.27439,0.399649,0.0262125,-0.0251403,0.466966,0.2835042081810526,0.49130115905879457,0.026559069099488353,0.026685959642103185,-0.024826914353729745,-0.2399643964327317
260,0.4469,253.295,94.5623,1.17069,155.04,-81.752,-9.26824,0.251439,0.0264903,-0.276391,0.402541,0.0262335,-0.0253523,0.470434,0.28587445932946487,0.49562024439791164,0.02658062706629738,0.02684428682379192,-0.02503362913534568,-0.24148370709820555
261,0.4508,253.731,94.4737,1.14207,155.427,-81.8766,-9.3379,0.253277,0.0266429,-0.278381,0.405428,0.0262524,-0.0255672,0.473889,0.2882400699158738,0.4999443388704994,0.026600029623502497,0.02700099521850774,-0.02524312689710373,-0.2429916536166593
262,0.4546,254.322,94.7114,1.18714,155.749,-82.0402,-9.39046,0.25511,0.0267982,-0.280365,0.408306,0.0262701,-0.025782,0.477336,0.29060357945876514,0.5042673965738556,0.02661820060483966,0.027160500858357528,-0.025452482187883096,-0.24449206927138611
263,0.4585,254.874,94.8906,1.1864,156.064,-82.2003,-9.43935,0.256938,0.0269527,-0.282345,0.411176,0.0262879,-0.025997,0.480774,0.29296496044667597,0.508590845183126,0.026636474571448243,0.02731920941566046,-0.025661987381597307,-0.24598649500452408
264,0.4624,255.423,95.068,1.18786,156.376,-82.3601,-9.48804,0.258762,0.0271067,-0.284319,0.414038,0.0263055,-0.0262122,0.484204,0.2953254806745289,0.5129146165475129,0.026654543532407038,0.027477428756486955,-0.02587164236222783,-0.24747344955639416
265,0.4662,255.978,95.2583,1.20086,156.686,-82.5209,-9.5367,0.260581,0.0272605,-0.286288,0.416893,0.0263229,-0.0264276,0.487624,0.2976838219850322,0.5172401595522615,0.026672407476880267,0.027635466937854236,-0.02608144701369075,-0.24895371653313425
266,0.4701,256.984,96.1823,1.77743,157.012,-82.7334,-9.61768,0.262392,0.0274208,-0.288249,0.419741,0.0263391,-0.0266449,0.491035,0.30003605669228506,0.5215674186186732,0.026689039704602235,0.02780021010701672,-0.02629305652304892,-0.250425075156371
267,0.474,257.375,96.1723,1.57406,157.286,-82.9018,-9.65321,0.2642,0.0275747,-0.29021,0.422582,0.0263566,-0.026861,0.49444,0.3023886479844544,0.5258963379732522,0.026707006920009713,0.027958400731808553,-0.026503451859499316,-0.2518935512725695
268,0.4778,258.045,96.4579,1.72523,157.603,-83.0441,-9.70178,0.266004,0.0277291,-0.292163,0.425415,0.0263745,-0.0270775,0.497835,0.3047402776376005,0.5302253314226166,0.026725385139918068,0.0281171297624474,-0.026714191048831326,-0.2533531773780989
269,0.4817,258.564,96.6037,1.58847,157.834,-83.2202,-9.7081,0.267804,0.0278829,-0.294115,0.428238,0.0263923,-0.027292,0.501223,0.3070909250853764,0.5345512607095155,0.026743661014428488,0.028275266337395744,-0.026922938465890556,-0.2548092104252755
270,0.4856,259.102,96.8066,1.68578,158.169,-83.3775,-9.78781,0.269598,0.0280363,-0.296058,0.431057,0.0264093,-0.0275098,0.504601,0.30943795085761794,0.5388832638030336,0.026761115805030933,0.028433015862331157,-0.0271348515717178,-0.25625571039961925
271,0.487,259.101,96.4628,1.42481,158.276,-83.3933,-9.78549,0.27027,0.0280901,-0.296787,0.432112,0.0264167,-0.0275903,0.505867,0.3103181888874471,0.5405076423553676,0.026768713865400695,0.02848834704698011,-0.02721316406404617,-0.25679770240664834
272,0.4892,259.303,96.3821,1.35089,158.43,-83.5283,-9.78043,0.271278,0.0281732,-0.297878,0.433692,0.0264226,-0.0277109,0.507763,0.31163965552914186,0.5429435683050357,0.026774771818683485,0.028573817979887783,-0.027330475082463446,-0.25760809396434514
273,0.4924,260.026,97.0039,1.71194,158.669,-83.7418,-9.80709,0.272785,0.0283038,-0.299508,0.436057,0.0264301,-0.0278927,0.510599,0.313617786637445,0.5465969482630293,0.0267824726583501,0.028708158492760427,-0.027507290329100487,-0.2588172070762893
274,0.4973,260.536,97.0567,1.35915,158.914,-83.9852,-9.79473,0.275043,0.0284941,-0.301955,0.43959,0.026445,-0.028162,0.514846,0.3165872869037909,0.5520707390389543,0.02679777183117138,0.02890394028336818,-0.027769147355183765,-0.26062866414895713
275,0.4992,260.771,97.1775,1.50727,159.133,-84.0388,-9.87097,0.275886,0.0285655,-0.302867,0.440916,0.0264511,-0.0282659,0.516433,0.3176976379338543,0.5541301499265874,0.026804035316683184,0.028977406647422432,-0.02787015689323713,-0.2613026634168708
276,0.5019,261.16,97.1026,1.53258,159.33,-84.1766,-9.83509,0.277151,0.0286684,-0.304234,0.442897,0.0264558,-0.0284165,0.518812,0.3193655801968984,0.5572119332521401,0.026808861306990117,0.029083293870370452,-0.02801654862403502,-0.2623117727925791
277,0.506,261.903,97.6358,1.80177,159.647,-84.3729,-9.89788,0.279043,0.0288295,-0.30628,0.445864,0.0264628,-0.0286465,0.522372,0.32186418280735385,0.5618390419794925,0.026816048994176223,0.029249092543737643,-0.028240079110860128,-0.2638195399336861
278,0.5102,262.278,97.603,1.44845,159.862,-84.5294,-9.89715,0.280932,0.028987,-0.308327,0.448819,0.0264734,-0.0288734,0.525925,0.324363544152257,0.5664611020790109,0.02682693330198238,0.029411212042388613,-0.028460546423947353,-0.26532496001232264
279,0.5143,262.964,97.9383,1.77972,160.258,-84.6679,-9.99058,0.282813,0.0291447,-0.310359,0.451771,0.0264823,-0.0291045,0.529465,0.32685701635422126,0.5710921272825353,0.026836072102356168,0.029573562991563662,-0.02868504325006138,-0.26681630397496203
280,0.5184,263.482,98.0402,1.62545,160.496,-84.8153,-9.99048,0.284692,0.0293012,-0.312393,0.45471,0.0264925,-0.0293317,0.532998,0.32935252448360974,0.5757163590245957,0.02684654588370794,0.029734703863116163,-0.0289057009405721,-0.2683060839927779
281,0.5225,263.565,97.5509,1.19702,160.828,-84.9237,-10.0484,0.286566,0.0294514,-0.31442,0.457645,0.0265017,-0.0295613,0.536523,0.33184606683392337,0.5803478799705746,0.02685599291538643,0.029889381631645895,-0.02912863859741377,-0.26978772540964324
282,0.5241,264.17,98.3051,1.72113,160.971,-85.0148,-10.0977,0.287265,0.0295146,-0.315175,0.458742,0.026504,-0.0296483,0.537839,0.33277735268112507,0.5820824728451419,0.026858354686886132,0.02995447269742102,-0.029213100731699693,-0.27033882760969996
283,0.5264,264.451,98.3401,1.71734,161.121,-85.1469,-10.0941,0.288315,0.0296015,-0.31631,0.460387,0.0265063,-0.0297766,0.539815,0.33417750385216616,0.5846871402645668,0.026860716463817935,0.0300439796301184,-0.029337644701209364,-0.2711665232342412
284,0.5299,264.873,98.3975,1.60107,161.297,-85.3307,-10.0591,0.289889,0.0297311,-0.318012,0.462847,0.026509,-0.0299667,0.542774,0.3362791528070581,0.5885902695102418,0.026863488991495155,0.03017748198064396,-0.02952215007715997,-0.27240594276647834
285,0.5312,264.934,98.2891,1.56661,161.449,-85.3238,-10.1184,0.290473,0.0297831,-0.318649,0.463776,0.0265117,-0.0300492,0.543888,0.3370597677496747,0.590066755592213,0.026866261526658386,0.030231052602530895,-0.02960221119721207,-0.2728692725947187
286,0.5332,265.319,98.2396,1.54858,161.499,-85.4471,-9.98728,0.291359,0.0298524,-0.319603,0.465153,0.0265112,-0.0301516,0.545547,0.3382449276522088,0.5922577856926814,0.02686574809365605,0.030302450088370625,-0.029701574843279954,-0.2735626245272057
287,0.5361,265.669,98.7246,1.73089,161.75,-85.6361,-10.0942,0.292678,0.0299652,-0.32103,0.467223,0.0265096,-0.0303158,0.548033,0.3400112373369395,0.5955571729967963,0.02686410510977355,0.030418674759688846,-0.02986088476498816,-0.27459851138095126
288,0.5405,266.134,98.6542,1.3531,161.913,-85.8143,-10.0141,0.294661,0.0301253,-0.323173,0.47031,0.0265125,-0.0305514,0.551753,0.34267111601867395,0.6004902683049236,0.026867083019996185,0.030583657996073654,-0.030089422617721295,-0.2761513822756083
289,0.5422,266.294,98.8145,1.57651,162.145,-85.8858,-10.1203,0.2954,0.0301867,-0.323971,0.471471,0.0265122,-0.0306447,0.553145,0.34366371669418805,0.6023495165912123,0.026866774959917628,0.030646937775343774,-0.030179911053239916,-0.27672878305899895
290,0.5446,266.587,98.6464,1.49743,162.293,-85.9746,-10.0672,0.296512,0.0302735,-0.325169,0.473203,0.026511,-0.0307774,0.55523,0.34515870180482233,0.6051271907253708,0.02686554272052688,0.03073640181222581,-0.030308597640499313,-0.27759474316322263
291,0.5483,267.25,99.2554,1.81608,162.566,-86.169,-10.1212,0.298171,0.0304126,-0.326961,0.475799,0.0265071,-0.0309808,0.558351,0.34739217224258323,0.6092995142452404,0.026861537952719727,0.0308797872179416,-0.030505812814276112,-0.2788881341590236
292,0.5497,267.133,98.7975,1.42099,162.635,-86.1791,-10.1054,0.298795,0.0304594,-0.327635,0.476771,0.0265076,-0.0310557,0.559521,0.3482332073337209,0.6108645138396742,0.02686205138361708,0.030928033520938092,-0.030578425209528137,-0.2793739998014858
293,0.5518,267.321,98.7781,1.3811,162.775,-86.29,-10.0911,0.299727,0.0305335,-0.328641,0.478227,0.0265041,-0.0311681,0.561273,0.3494903464187713,0.6132116408656532,0.02685845737272663,0.03100442811860682,-0.030687382071044267,-0.2800985850302067
294,0.555,267.607,98.8182,1.30421,162.98,-86.4373,-10.0875,0.301124,0.030645,-0.330149,0.480406,0.0264985,-0.0313367,0.563895,0.3513769018848931,0.6167306616118311,0.02685270698146658,0.031119391521432727,-0.030850794402380477,-0.2811833782243387
295,0.5597,268.023,98.8094,1.17009,163.314,-86.59,-10.1126,0.303214,0.0308105,-0.332403,0.483667,0.0264917,-0.0315899,0.567819,0.35420423314182403,0.6220114259058389,0.026845724406799887,0.031290055902817526,-0.03109615191766557,-0.2828017662812936
296,0.5644,268.422,98.7544,0.969558,163.638,-86.7024,-10.1548,0.305299,0.0309747,-0.334651,0.486918,0.0264875,-0.0318434,0.571731,0.35703069452998326,0.6272931658678751,0.02684141166381404,0.03145940763339339,-0.03134173791381423,-0.28441221708578746
297,0.5691,268.909,98.862,0.899501,163.966,-86.8335,-10.208,0.307377,0.0311396,-0.336892,0.490158,0.0264838,-0.0320974,0.575631,0.3598535362299706,0.632574146293776,0.026837612357619722,0.03162950931421027,-0.03158774586805135,-0.2860140537789042
298,0.5738,269.492,99.1232,0.948948,164.293,-86.9771,-10.2674,0.309448,0.0313055,-0.339125,0.493389,0.0264807,-0.0323518,0.579519,0.36267271115150446,0.6378575240609776,0.026834429165955243,0.031800670847262014,-0.03183407861064913,-0.28760660565090723
299,0.5785,270.106,99.4321,1.03788,164.617,-87.1254,-10.3283,0.311513,0.031472,-0.341352,0.49661,0.0264785,-0.0326067,0.583396,0.36548953767245007,0.6431415685311714,0.02683217013269612,0.031972479961670075,-0.032080832653872404,-0.2891913404829257
300,0.5832,270.702,99.7125,1.10851,164.936,-87.2732,-10.3877,0.313571,0.0316382,-0.343572,0.499823,0.0264772,-0.0328618,0.587262,0.3683026087983037,0.648429472860085,0.02683083525174257,0.03214400804142814,-0.03232771734198159,-0.290767585427801
301,0.5879,271.273,99.9507,1.14993,165.25,-87.4195,-10.4451,0.315623,0.0318041,-0.345786,0.503026,0.0264766,-0.0331172,0.591117,0.37111324848164196,0.6537178572880977,0.026830219153426205,0.03231525493689946,-0.03257482928543398,-0.2923360890194808
302,0.5926,271.827,100.165,1.17583,165.56,-87.5652,-10.5013,0.317668,0.0319696,-0.347993,0.50622,0.0264765,-0.0333729,0.594961,0.3739200440450765,0.6590082764260625,0.02683011647040945,0.0324861172500579,-0.03282216827794793,-0.29389618107618265
303,0.5973,272.377,100.373,1.19943,165.867,-87.7113,-10.5567,0.319707,0.0321349,-0.350194,0.509405,0.0264769,-0.0336288,0.598794,0.37672432500775455,0.6643006414037957,0.0268305272025382,0.03265680131188842,-0.03306963742005831,-0.295448606510729
304,0.602,272.926,100.58,1.22428,166.169,-87.8578,-10.6115,0.32174,0.0322998,-0.352389,0.51258,0.0264775,-0.0338849,0.602617,0.37952605255156113,0.6695931934205608,0.026831143301039306,0.03282710045920356,-0.033317236579489484,-0.29699340078748115
305,0.6067,273.472,100.784,1.24908,166.469,-88.0046,-10.6657,0.323768,0.0324644,-0.354577,0.515746,0.0264784,-0.0341412,0.606429,0.3823265701511547,0.6748875019389993,0.026832067449484187,0.03299711779198189,-0.03356496562392097,-0.29852989768597293
306,0.6114,274.014,100.983,1.27205,166.765,-88.1512,-10.7191,0.325789,0.0326287,-0.356759,0.518903,0.0264795,-0.0343977,0.61023,0.38512307706782223,0.6801834770807889,0.02683319696537967,0.03316685316181389,-0.03381282442098876,-0.30005883677005907
307,0.6161,275.036,101.923,1.85989,167.069,-88.3418,-10.798,0.327801,0.0327996,-0.358931,0.522051,0.0264804,-0.0346557,0.614018,0.38791275016893945,0.6854810286379387,0.026834121115672627,0.03334343646563265,-0.03406206855841187,-0.3015774591556648
308,0.6208,275.22,101.644,1.32813,167.264,-88.493,-10.7989,0.329812,0.0329621,-0.361107,0.525188,0.026484,-0.0349103,0.617801,0.39070665103527746,0.6907766845182475,0.026837817725162694,0.03351136841816005,-0.034307965051805,-0.3030955742962492
309,0.6256,275.581,101.479,1.28233,167.628,-88.5928,-10.8739,0.331815,0.0331216,-0.363269,0.52832,0.0264862,-0.0351681,0.621571,0.39349502808466674,0.6960804985312905,0.026840076770846544,0.03367622662851555,-0.03455688837082016,-0.3046006540871077
310,0.6303,276.101,101.65,1.29209,167.913,-88.7363,-10.9233,0.333813,0.0332838,-0.365426,0.53144,0.0264871,-0.0354252,0.62533,0.3962820144229935,0.7013805334417809,0.026841000927331438,0.03384390251062097,-0.03480507188946169,-0.3060990139142231
311,0.635,276.59,101.78,1.26813,168.194,-88.8783,-10.9703,0.335805,0.0334451,-0.367577,0.534552,0.0264878,-0.0356823,0.629079,0.3990661803042963,0.706683476761943,0.026841719716283796,0.03401067498193422,-0.03505319160832232,-0.307589990814766
312,0.6397,277.094,101.936,1.26803,168.474,-89.0212,-11.0181,0.337792,0.0336061,-0.369721,0.537654,0.0264885,-0.0359396,0.632817,0.40184888850961276,0.7119858286027831,0.026842438505739086,0.03417716410262095,-0.03530144048353412,-0.3090729275981716
313,0.6444,277.61,102.112,1.28348,168.752,-89.1648,-11.0656,0.339772,0.0337667,-0.371859,0.540747,0.026489,-0.0361969,0.636545,0.4046272990275679,0.7172891982037839,0.026842951927086744,0.03434326629282469,-0.03554962549252705,-0.3105485516747337
314,0.6491,278.129,102.294,1.30546,169.027,-89.3085,-11.1129,0.341748,0.033927,-0.373992,0.543831,0.0264893,-0.0364543,0.640262,0.4074055866145794,0.7225934931096696,0.026843259980018574,0.03450908480841042,-0.03579784307195233,-0.31201758433371063
315,0.6538,279.099,103.177,1.85585,169.31,-89.4912,-11.184,0.343715,0.0340933,-0.376115,0.546907,0.0264895,-0.0367129,0.643968,0.41017667787824164,0.7279003484536382,0.026843465348691087,0.034681137975038245,-0.03604715351250465,-0.31347662168601487
316,0.6585,279.278,102.902,1.3571,169.492,-89.6408,-11.1805,0.34568,0.0342515,-0.378241,0.549972,0.0264916,-0.0369682,0.647668,0.4129503993391108,0.7332044874623238,0.026845621722232593,0.034844837479355295,-0.03629321926258333,-0.31493461998695227
317,0.6632,279.618,102.736,1.30541,169.831,-89.7387,-11.2492,0.347639,0.034407,-0.380354,0.553031,0.0264924,-0.0372264,0.651355,0.41572108216916526,0.738514477478524,0.02684644319905849,0.03500576836363534,-0.0365420162322988,-0.31638063488217294
318,0.6679,280.111,102.887,1.31,170.099,-89.8768,-11.2921,0.349592,0.0345647,-0.382463,0.55608,0.0264918,-0.0374838,0.655032,0.41848868712919995,0.7438232973034364,0.026845827091377394,0.03516900164391212,-0.03678997840322007,-0.3178208688626416
319,0.6726,281.042,103.723,1.82673,170.372,-90.0532,-11.3585,0.351538,0.0347283,-0.384562,0.55912,0.0264909,-0.0377424,0.658697,0.4212517537061744,0.7491325861574372,0.026844902930548864,0.03533836914646504,-0.0370390323107469,-0.3192512611370384
320,0.6773,281.271,103.536,1.40488,170.55,-90.2053,-11.3556,0.353482,0.0348848,-0.386664,0.56215,0.0264916,-0.0379977,0.662357,0.4240173544082966,0.75444049531492,0.026845621722232593,0.035500412280780935,-0.037284844866490086,-0.32068069212784
321,0.682,282.005,103.996,1.81789,170.888,-90.3351,-11.4427,0.355417,0.0350439,-0.388751,0.565174,0.0264914,-0.0382568,0.666003,0.42677549563011685,0.7597539532720741,0.02684541635312865,0.03566517350278242,-0.03753425205108907,-0.3220969531409502
322,0.6867,282.426,104.035,1.64037,171.084,-90.4852,-11.4413,0.35735,0.0352003,-0.390839,0.568187,0.0264911,-0.0385121,0.669641,0.4295361199469854,0.7650640876335075,0.026845108299550002,0.03582716420326082,-0.03777993819336989,-0.32351093798889297
323,0.6914,282.943,104.247,1.78519,171.391,-90.6125,-11.5213,0.359275,0.035357,-0.392917,0.571194,0.0264902,-0.0387709,0.673269,0.43229062734065216,0.77037962324754,0.026844184139368288,0.03598949103786686,-0.038028928524626915,-0.3249152227026163
324,0.6961,283.403,104.356,1.74426,171.633,-90.7476,-11.5538,0.361196,0.0355127,-0.394991,0.574192,0.0264891,-0.039028,0.676887,0.43504470207762513,0.7756951854043521,0.02684305461138714,0.036150807159755605,-0.03827621949648663,-0.32631389760349505
325,0.7008,283.922,104.571,1.79023,171.88,-90.8896,-11.5934,0.363112,0.0356686,-0.397059,0.57718,0.0264876,-0.0392851,0.680496,0.4377968834746333,0.7810088973505229,0.026841514347960338,0.03631235566297053,-0.038523446898009794,-0.3277056409046807
326,0.7026,283.871,104.228,1.51758,171.968,-90.9124,-11.5945,0.36383,0.0357235,-0.397835,0.5783,0.0264877,-0.039381,0.681847,0.43882959233508356,0.7830047447814843,0.02684161703211685,0.036369250773052864,-0.03861564807833495,-0.3282271389599237
327,0.7053,284.043,104.14,1.44339,172.101,-91.0279,-11.5774,0.364905,0.0358079,-0.398995,0.579975,0.0264836,-0.039524,0.683871,0.44037716581855646,0.785993780347437,0.026837406990117607,0.03645672402913758,-0.03875311621145405,-0.32900594368465996
328,0.7092,284.71,104.705,1.76738,172.302,-91.202,-11.5857,0.366514,0.0359398,-0.400729,0.582482,0.0264769,-0.0397388,0.686899,0.4426965981612838,0.7904768839771243,0.0268305272025382,0.03659344168736833,-0.03895956986817528,-0.33016843920341765
329,0.7152,285.282,104.895,1.70532,172.575,-91.4038,-11.6026,0.368922,0.036133,-0.403327,0.58623,0.0264686,-0.0400602,0.691431,0.44617479764114565,0.7972001829300461,0.02682200454453154,0.03679373088761606,-0.03926839863097897,-0.3319064030058406
330,0.7174,285.347,104.73,1.53511,172.703,-91.4287,-11.6266,0.369823,0.0362033,-0.404299,0.587634,0.0264673,-0.040181,0.693126,0.44747838831323006,0.7997252241510335,0.026820669676793196,0.036866620048921606,-0.039384447998901395,-0.33255547448227873
331,0.7208,285.511,104.541,1.40283,172.884,-91.5469,-11.6158,0.371173,0.0363075,-0.405754,0.589735,0.0264604,-0.0403607,0.695665,0.44943380374589115,0.8035104218047249,0.02681358463861594,0.03697466717988851,-0.03955705510438312,-0.33352590011106076
332,0.7258,286.362,105.239,1.83558,173.152,-91.7309,-11.639,0.373191,0.0364713,-0.407927,0.592876,0.0264497,-0.0406306,0.699462,0.45236171443011397,0.8091841539712845,0.02680259779203986,0.037144537542375344,-0.03981624367613934,-0.3349725759475647
333,0.7308,286.658,105.221,1.50317,173.334,-91.8835,-11.6456,0.375206,0.0366312,-0.410102,0.596007,0.0264422,-0.0408989,0.703251,0.4552911737237404,0.8148575866814793,0.02679489680143532,0.037310390213496136,-0.04007382642169055,-0.33641743873700336
334,0.7358,286.834,104.84,1.29692,173.673,-91.958,-11.7047,0.377214,0.0367846,-0.412266,0.599134,0.0264342,-0.0411692,0.707029,0.4582163342789056,0.8205415285666444,0.026786682475118173,0.037469525832744655,-0.040333259402461796,-0.3378518787756769
335,0.7409,287.289,104.97,1.29083,173.944,-92.078,-11.7459,0.379217,0.0369415,-0.414423,0.602248,0.0264249,-0.0414389,0.710794,0.46114006873902413,0.826219530948012,0.026777133403374398,0.0376323175720259,-0.040592046623375566,-0.3392785930086907
336,0.7459,288.234,105.86,1.83881,174.215,-92.2411,-11.8105,0.381212,0.0371052,-0.416571,0.605353,0.026416,-0.0417095,0.714548,0.4640579527977362,0.8318987550241896,0.02676799512755257,0.03780219188624567,-0.040851627292710746,-0.34069629942911583
337,0.7509,288.419,105.669,1.40076,174.39,-92.3864,-11.8098,0.383204,0.0372616,-0.418721,0.608449,0.026409,-0.0419771,0.718295,0.4669772629072442,0.837579102209909,0.0267608077767425,0.03796451684253732,-0.041108261058117934,-0.34211227966114643
338,0.7559,289.141,106.134,1.81899,174.725,-92.5022,-11.8944,0.385187,0.0374207,-0.420856,0.611538,0.0264017,-0.042248,0.722027,0.46988916501632727,0.8432641601080288,0.026753312450203515,0.038129670134763094,-0.041367989648371406,-0.34351537161044665
339,0.761,289.556,106.219,1.66723,174.919,-92.6488,-11.8964,0.387167,0.0375777,-0.422992,0.614615,0.0263944,-0.0425155,0.725752,0.4728024287423851,0.8489446188325813,0.026745817178380538,0.038292669288072956,-0.04162438941614255,-0.34491612623816625
340,0.766,289.596,105.75,1.28314,175.209,-92.7358,-11.9523,0.389142,0.0377287,-0.425121,0.617687,0.0263868,-0.0427851,0.729468,0.47571408785608527,0.8546333100575885,0.026738013939822336,0.03844946331878685,-0.04188273265452269,-0.34630931622842476
341,0.7679,290.159,106.442,1.75509,175.326,-92.8043,-11.9911,0.389879,0.0377917,-0.425914,0.618836,0.0263834,-0.0428867,0.730856,0.4768020900183845,0.8567655084442403,0.026734523036509472,0.03851488769582212,-0.04198007242394097,-0.3468274874586086
342,0.7707,290.377,106.43,1.72087,175.451,-92.9162,-11.9757,0.390986,0.0378785,-0.427107,0.620557,0.0263768,-0.0430367,0.732939,0.47843781513884776,0.8599637531844808,0.02672774661101962,0.03860503470039767,-0.04212376463589207,-0.3476062576372936
343,0.7749,290.826,106.644,1.72911,175.6,-93.0919,-11.9405,0.392644,0.0380099,-0.428893,0.623131,0.0263659,-0.0432599,0.736056,0.4808910982460448,0.8647574667478144,0.026716555339574066,0.038741516368606455,-0.04233753875354629,-0.34877039297884715
344,0.7813,290.746,105.882,1.10558,175.955,-93.2,-11.9794,0.395124,0.0381959,-0.431565,0.626986,0.0263508,-0.0435973,0.740721,0.4845682659730055,0.8719599807080596,0.02670105203663864,0.038934740259915834,-0.042660599564547264,-0.35050815580376504
345,0.7845,291.599,106.87,1.75808,176.129,-93.3041,-12.0428,0.396359,0.0382995,-0.432893,0.628906,0.0263432,-0.0437674,0.743043,0.4864028403980116,0.8755575964769695,0.026693249138294295,0.03904237947462175,-0.04282342914751269,-0.35137010850958383
346,0.7877,291.851,106.895,1.70904,176.268,-93.3998,-12.0392,0.397593,0.0383961,-0.434222,0.630824,0.0263356,-0.0439351,0.745364,0.4882381936831399,0.8791583679830333,0.026685446299251625,0.03914275581657822,-0.04298393419971991,-0.35223156507069475
347,0.7924,291.901,106.51,1.28464,176.465,-93.5411,-12.0231,0.399441,0.0385366,-0.436214,0.633693,0.0263223,-0.0441855,0.74884,0.49099100067530044,0.884557414569737,0.026671791473620754,0.0392887656307197,-0.04322354102257009,-0.35352063545271395
348,0.7942,292.416,107.114,1.70147,176.571,-93.5938,-12.0506,0.400131,0.0385946,-0.436956,0.634766,0.0263179,-0.0442802,0.750138,0.4920201394778221,0.8865806299364993,0.026667274127676333,0.03934904612724388,-0.043314143463141996,-0.3540001452210839
349,0.7969,292.304,106.582,1.33417,176.682,-93.6929,-12.0023,0.401169,0.0386701,-0.438073,0.636376,0.0263083,-0.0444193,0.752088,0.4935696604448552,0.8896204711662559,0.026657418169153457,0.03942751994257576,-0.04344720921084899,-0.35472132420542535
350,0.8009,292.674,106.789,1.38387,176.877,-93.8142,-12.0043,0.40272,0.0387908,-0.439743,0.638784,0.0262947,-0.0446292,0.755004,0.49588798438367276,0.8941761601089784,0.02664345572321114,0.03955298641598204,-0.04364796857120368,-0.3557980402858373
351,0.807,293.025,106.768,1.23095,177.176,-93.9573,-12.0279,0.405042,0.0389686,-0.442241,0.642387,0.0262753,-0.044944,0.759367,0.4993654720841727,0.9010131863202722,0.026623539033362675,0.03973783536955189,-0.04394898080888543,-0.35740524854234224
352,0.813,293.294,106.594,0.955452,177.473,-94.0563,-12.0736,0.407356,0.0391441,-0.444732,0.645977,0.0262582,-0.045259,0.763715,0.5028390211328706,0.9078500885557863,0.026605983920941823,0.03992032537268875,-0.04425008945282938,-0.35900396004636714
353,0.819,293.686,106.622,0.836433,177.772,-94.1711,-12.1286,0.409663,0.0393203,-0.447213,0.649555,0.0262416,-0.0455743,0.768049,0.5063100730735541,0.9146886029793411,0.02658894240305365,0.04010357547787957,-0.04455138989711371,-0.3605923000709579
354,0.8251,294.222,106.866,0.881766,178.068,-94.2988,-12.1894,0.411961,0.039498,-0.449685,0.653122,0.0262258,-0.0458898,0.772368,0.5097755539339421,0.9215304924817052,0.026572722425901807,0.040288418306040796,-0.04485278638580503,-0.36217096387281733
355,0.8311,294.81,107.182,0.985638,178.361,-94.432,-12.2518,0.414251,0.0396763,-0.452149,0.656676,0.0262111,-0.0462054,0.776673,0.5132369016829859,0.9283717615862277,0.026557631917797808,0.04047391826785485,-0.045154183283489524,-0.36374063998270334
356,0.8371,295.38,107.465,1.06804,178.648,-94.5649,-12.313,0.416533,0.0398545,-0.454605,0.66022,0.0261976,-0.0465212,0.780964,0.5166940514001881,0.9352180355410082,0.026543773483311384,0.04065934724132103,-0.045455675984205524,-0.36530137560304266
357,0.8432,295.915,107.694,1.11332,178.931,-94.6962,-12.3722,0.418807,0.0400321,-0.457053,0.663752,0.0261849,-0.0468369,0.785242,0.5201469381173414,0.9420653108123429,0.026530736460173454,0.04084418475447649,-0.04575697806426149,-0.36685321760597744
358,0.8492,296.432,107.893,1.13946,179.209,-94.8268,-12.4302,0.421074,0.0402093,-0.459494,0.667273,0.026173,-0.0471527,0.789507,0.523597020416759,0.9489153752331883,0.026518520817092828,0.0410286386861507,-0.04605828043244076,-0.3683968441391452
359,0.8553,296.946,108.086,1.1632,179.485,-94.9574,-12.4873,0.423333,0.0403861,-0.461927,0.670783,0.0261615,-0.0474686,0.793758,0.5270427165343399,0.9557680876750854,0.026506715921981838,0.041212708820790755,-0.046359583028401485,-0.3699316667485366
360,0.8613,297.46,108.279,1.18908,179.757,-95.0883,-12.5437,0.425585,0.0405626,-0.464352,0.674281,0.0261505,-0.0477844,0.797996,0.5304854918419677,0.9626213438027023,0.026495424410210022,0.04139649908291121,-0.046660695123978746,-0.3714577313554843
361,0.8673,297.973,108.469,1.21491,180.026,-95.219,-12.5992,0.427829,0.0407386,-0.466769,0.677768,0.0261399,-0.0481003,0.802221,0.5339237575770233,0.969476950231813,0.02648454361637964,0.04157980099684511,-0.04696180744719358,-0.37297508355997555
362,0.8734,298.482,108.653,1.23841,180.293,-95.3495,-12.6538,0.430066,0.0409142,-0.469178,0.681244,0.0261296,-0.0484162,0.806433,0.5373589858930561,0.9763347640862945,0.026473970880030118,0.041762718469584126,-0.0472628246640483,-0.3744837686428869
363,0.8794,298.987,108.831,1.25922,180.556,-95.4795,-12.7075,0.432296,0.0410892,-0.47158,0.684708,0.0261196,-0.048732,0.810631,0.5407911218408739,0.983192658725113,0.026463706191644842,0.041945042898238416,-0.047563651560952325,-0.3759844555840597
364,0.8854,299.487,109.004,1.27773,180.817,-95.6089,-12.7601,0.434519,0.0412638,-0.473974,0.688162,0.0261098,-0.0490478,0.814817,0.5442201104134303,0.9900544496594643,0.02645364689661478,0.042126982385583656,-0.047864383471721283,-0.37747656203333724
365,0.8915,299.985,109.173,1.29482,181.076,-95.7379,-12.8119,0.436734,0.0414378,-0.47636,0.691604,0.0261002,-0.0493635,0.818989,0.5476443489021152,0.9969160190618425,0.026443792988903425,0.04230832825715192,-0.04816492524284455,-0.3789601323531042
366,0.8975,300.479,109.339,1.31045,181.332,-95.8664,-12.8627,0.438943,0.0416112,-0.47874,0.695035,0.0260907,-0.0496791,0.823149,0.5510668740561369,1.0037792049860492,0.02643404181918796,0.0424890801920117,-0.04846527699443848,-0.38043644972356205
367,0.9035,301.427,110.167,1.82282,181.586,-96.0241,-12.9285,0.441143,0.0417902,-0.481108,0.698455,0.026082,-0.0499952,0.827294,0.5544829775150368,1.0106438617391698,0.026425111881869467,0.04267570243955876,-0.04876600958709021,-0.3819018405031781
368,0.9096,301.741,110.176,1.50504,181.738,-96.1993,-12.9374,0.443338,0.0419645,-0.483478,0.701862,0.0260742,-0.0503085,0.83143,0.5578988151610331,1.017505808064092,0.026417105797220675,0.04285745665391372,-0.04906398451607663,-0.38336499861395656
369,0.9156,302.381,110.447,1.81971,182.074,-96.2929,-13.0307,0.445524,0.0421376,-0.485832,0.705262,0.026067,-0.0506253,0.835551,0.5613081069692858,1.0243770022223297,0.02640971562066352,0.04303799090444915,-0.04936519333178635,-0.3848148502623221
370,0.9217,302.386,109.898,1.29827,182.313,-96.3904,-13.0597,0.447707,0.0423038,-0.488185,0.708651,0.0260581,-0.05094,0.839663,0.5647201654736469,1.0312492543365686,0.026400580614845293,0.04321135822496269,-0.04966431103680535,-0.38626067923478635
371,0.9277,302.83,109.983,1.28246,182.568,-96.5049,-13.1047,0.449882,0.042473,-0.490527,0.712027,0.0260483,-0.051255,0.84376,0.5681271355704409,1.0381183403122072,0.026390521938442824,0.043387884520477815,-0.049963619635249534,-0.3876963748682035
372,0.9337,303.286,110.114,1.27396,182.814,-96.6269,-13.1488,0.45205,0.042642,-0.492862,0.715393,0.0260383,-0.0515697,0.847844,0.5715305231394257,1.0449902055066609,0.026380258084542918,0.0435642319739018,-0.0502625490451406,-0.3891244359227627
373,0.9398,303.759,110.273,1.28897,183.058,-96.7499,-13.1935,0.454211,0.0428107,-0.495189,0.718747,0.0260284,-0.0518842,0.851916,0.5749302727062902,1.0518606178968897,0.02637009697028536,0.04374029611042829,-0.05056119450900509,-0.3905442907186144
374,0.9458,304.23,110.431,1.30391,183.3,-96.8727,-13.2375,0.456366,0.0429788,-0.497509,0.722091,0.0260187,-0.0521985,0.855975,0.5783279070801186,1.0587335248990497,0.026360141228630285,0.04391576360183391,-0.05085955623556948,-0.39195658906460307
375,0.9518,305.155,111.254,1.81271,183.54,-97.0238,-13.2967,0.458513,0.0431526,-0.49982,0.725424,0.0260097,-0.052513,0.86002,0.5817202174386875,1.0656067315736548,0.026350904028926703,0.044097211928950664,-0.051158013970194594,-0.3933601549422321
376,0.9579,305.398,111.18,1.45728,183.687,-97.1889,-13.3006,0.460656,0.0433206,-0.502131,0.728746,0.0260013,-0.0528248,0.864058,0.5851134784452123,1.0724800874590543,0.026342282717542354,0.04427263499567968,-0.05145381678338368,-0.3947604809242592
377,0.9639,306.01,111.445,1.75802,184.005,-97.2782,-13.3856,0.46279,0.0434883,-0.504427,0.73206,0.0259936,-0.0531398,0.868079,0.5884997224454955,1.0793596796568514,0.026334379912391404,0.044447774201580525,-0.051752561776290285,-0.39614851678512286
378,0.97,306.48,111.611,1.75707,184.224,-97.4067,-13.4224,0.464918,0.0436558,-0.50672,0.735363,0.0259849,-0.053453,0.872091,0.5918836490758179,1.0862391598858725,0.026325450842127562,0.044622733856221286,-0.05204950636999117,-0.39753156196884454
379,0.976,306.472,111.073,1.26621,184.457,-97.4994,-13.45,0.467042,0.043816,-0.509009,0.738656,0.0259754,-0.0537657,0.876093,0.5952684032829314,1.0931204692969998,0.02631570079665746,0.04479009582352078,-0.05234588414826857,-0.39890903510405307
380,0.9783,307.033,111.749,1.71042,184.555,-97.5602,-13.4823,0.467835,0.0438827,-0.509861,0.739887,0.0259718,-0.0538834,0.877587,0.5965339528508184,1.0956986871622227,0.026312006066784965,0.04485978564704185,-0.05245741647389823,-0.39942094650092286
381,0.9816,307.231,111.699,1.66152,184.669,-97.6679,-13.4622,0.469025,0.0439743,-0.511143,0.741732,0.0259643,-0.0540577,0.879829,0.598434959129112,1.0995688203400578,0.026304308755604522,0.044955499187020465,-0.05262255875363908,-0.4001903955253
382,0.9867,307.266,111.336,1.29107,184.835,-97.8032,-13.438,0.470808,0.0441085,-0.513063,0.744493,0.0259516,-0.0543183,0.883187,0.6012875109554827,1.1053737398567764,0.02629127477364923,0.04509574162506835,-0.05286941314830318,-0.40134092510405317
383,0.9906,307.532,111.372,1.27478,184.979,-97.8796,-13.4449,0.472142,0.0442103,-0.514497,0.746558,0.0259426,-0.0545138,0.885698,0.6034250539192645,1.1097258286146996,0.026282038193740975,0.04520213778703863,-0.05305455907942824,-0.40219878698348066
384,0.9963,308.33,112.069,1.71983,185.204,-98.0293,-13.461,0.474137,0.0443681,-0.516642,0.749648,0.0259286,-0.0548064,0.889453,0.6066270798606981,1.1162549637438248,0.02626767034578137,0.04536708369827158,-0.053331594783141645,-0.40347969631901415
385,1.0,308.364,111.844,1.42687,185.317,-98.1004,-13.4662,0.475427,0.0444655,-0.518031,0.751644,0.0259205,-0.0549954,0.891881,0.6087009661627869,1.1204832270544527,0.026259357611318146,0.04546890741095799,-0.05351049820482168,-0.40430768784758864
