,Time,S11,S22,S33,S12,S13,S23,LE11,LE22,LE33,LE12,LE13,LE23,SDV_EPBAR,E11,E12,E13,E22,E23,E33
0,1e-05,0.228236,0.228236,0.0,0.228236,3.94329e-18,-6.57212e-18,1.75e-06,1.75e-06,-1.5e-06,6.49998e-06,-7.48677e-23,-7.48677e-23,0.0,1.7500015312421624e-06,6.500001124898347e-06,0.0,1.7500015312421624e-06,0.0,-1.4999988749986315e-06
1,2e-05,0.45647,0.45647,0.0,0.45647,-2.62881e-18,-7.88652e-18,3.49998e-06,3.49998e-06,-2.99999e-06,1.29999e-05,-5.24009e-22,-2.24668e-22,0.0,3.499986124921861e-06,1.2999984499106887e-05,0.0,3.499986124921861e-06,0.0,-2.999985500018454e-06
2,3.5e-05,0.798819,0.798819,5.55112e-17,0.798819,-5.25754e-18,-2.10307e-17,6.12495e-06,6.12495e-06,-5.24995e-06,2.27498e-05,-4.49201e-22,-4.49201e-22,0.0,6.1249687575148926e-06,2.2750058778608917e-05,0.0,6.1249687575148926e-06,0.0,-5.2499362190872034e-06
3,5.75e-05,1.31234,1.31234,1.66533e-16,1.31234,-2.89168e-17,-2.89168e-17,1.00624e-05,1.00624e-05,-8.6249e-06,3.73744e-05,-8.98391e-22,-8.98391e-22,0.0,1.0062450626069364e-05,3.737509843149134e-05,0.0,1.0062450626069364e-05,0.0,-8.624862805617362e-06
4,9.125e-05,2.08261,2.08261,-8.32667e-16,2.08261,-1.3143e-17,-4.46893e-17,1.59684e-05,1.59684e-05,-1.36872e-05,5.93111e-05,-8.98491e-22,2.99637e-22,0.0,1.5968527495635598e-05,5.931285893812088e-05,0.0,1.5968527495635598e-05,0.0,-1.3687106330650955e-05
5,0.00014188,3.23799,3.23799,-3.60822e-15,3.23799,-3.94303e-17,-3.94303e-17,2.48273e-05,2.48273e-05,-2.12805e-05,9.22155e-05,-1.79677e-21,5.99063e-22,0.0,2.482760819999541e-05,9.221975197992727e-05,0.0,2.482760819999541e-05,0.0,-2.1280273571733233e-05
6,0.00021781,4.971,4.971,-2.13718e-14,4.971,-6.04581e-17,-6.04581e-17,3.81151e-05,3.81151e-05,-3.26701e-05,0.00014157,-1.19768e-21,-1.19768e-21,0.0,3.8115826389573115e-05,0.00014158002150543858,0.0,3.8115826389573115e-05,0.0,-3.266956633807272e-05
7,0.00033172,7.57039,7.57039,-1.1019e-13,7.57039,-1.23543e-16,-8.14813e-17,5.8046e-05,5.8046e-05,-4.97538e-05,0.000215599,1.19857e-21,-3.5932e-21,0.0,5.804768470163424e-05,0.000215622243134872,0.0,5.804768470163424e-05,0.0,-4.9752562300220404e-05
8,0.00050258,11.4692,11.4692,-5.6094e-13,11.4692,-6.04368e-17,-1.86622e-16,8.79401e-05,8.79401e-05,-7.53773e-05,0.000326635,7.189e-21,-1.19786e-20,0.0,8.794396684397299e-05,0.0003266883510202323,0.0,8.794396684397299e-05,0.0,-7.537445920269281e-05
9,0.00075887,17.3168,17.3168,-2.84622e-12,17.3168,-1.86601e-16,-6.04162e-17,0.000132777,0.000132777,-0.000113809,0.00049317,-7.18639e-21,2.39778e-21,0.0,0.00013278581525599797,0.0004932916283180155,0.0,0.00013278581525599797,0.0,-0.00011380252400139401
10,0.0011433,26.0868,26.0868,-1.43943e-11,26.0868,-3.12713e-16,-2.70652e-16,0.000200021,0.000200021,-0.000171446,0.000742933,-1.91633e-20,6.1713e-24,0.0,0.00020004100553405735,0.000743209043077453,0.0,0.00020004100553405735,0.0,-0.00017143130397445638
11,0.00172,39.2386,39.2386,-7.27743e-11,39.2386,-5.64879e-16,-5.22818e-16,0.000300862,0.000300862,-0.000257882,0.00111749,-3.83249e-20,1.73159e-23,0.0,0.00030090726351073016,0.001118114624598876,0.0,0.00030090726351073016,0.0,-0.0002578487512951977
12,0.0025849,58.9593,58.9593,-3.68062e-10,58.9593,-5.64668e-16,-1.86113e-16,0.00045207,0.00045207,-0.000387489,0.00167912,-1.05437e-19,4.79519e-20,0.0,0.0004521721990422556,0.0016805305113494207,0.0,0.0004521721990422556,0.0,-0.00038741393583330286
13,0.0035849,61.6606,62.5804,0.0354289,62.0782,-6.24867,-1.05508,0.000626973,0.000662964,-0.00074543,0.00229179,0.000271721,-3.92602e-05,0.000495648,0.000627169588654386,0.0022944181580473177,0.00027175791949485273,0.00066318380920527,-3.925942932847537e-05,-0.000745152236079738
14,0.0045849,61.7579,63.7525,0.0635384,62.7364,-8.45049,-1.56371,0.000794439,0.000882613,-0.00112686,0.00290272,0.000691168,-6.90638e-05,0.00105532,0.0007947546502451441,0.002906936970940688,0.0006914069116417121,0.0008830026174726502,-6.906141515061748e-05,-0.0011262253316867143
15,0.0053349,61.8235,64.4696,-0.0641849,63.1642,-9.89587,-1.90691,0.00091817,0.00104857,-0.00141368,0.00336128,0.00100098,-9.28715e-05,0.00147721,0.0009185916471123878,0.003366935436345697,0.001001481147679284,0.0010491199417230757,-9.28671875757292e-05,-0.0014126812251336052
16,0.0060849,61.929,65.1866,-0.0528716,63.5741,-11.5147,-2.23814,0.00103865,0.00121592,-0.00169825,0.00382144,0.00129322,-0.000119147,0.00190118,0.0010391895837078557,0.0038287510117345214,0.0012940565695682693,0.001216659530429487,-0.00011913990227807592,-0.0016968087894294603
17,0.0068349,62.0483,65.8084,-0.0764818,63.9533,-13.0472,-2.53777,0.00115709,0.00138396,-0.00198212,0.0042827,0.00157562,-0.000146844,0.00232719,0.0011577596869052353,0.004291883865545021,0.0015768619413825125,0.0013849181145872969,-0.00014683321894759516,-0.0019801568974019412
18,0.0075849,62.2021,66.376,-0.0745481,64.314,-14.5267,-2.80612,0.00127401,0.00155243,-0.00226433,0.0047448,0.00184604,-0.000175068,0.00275443,0.0012748218954909962,0.004756074388039266,0.001847744980833621,0.0015536356432639398,-0.0001750526764918714,-0.002261768338672532
19,0.0085849,62.4616,67.0396,-0.0519664,64.7775,-16.3985,-3.11165,0.00142729,0.00177723,-0.00263826,0.00536297,0.0021877,-0.000214113,0.00332687,0.0014283090631472817,0.005377376465911521,0.00219009476166665,0.0017788102092295421,-0.00021409007944750424,-0.0026347828506331217
20,0.0095849,62.7682,67.6308,-0.0760279,65.235,-17.9821,-3.36204,0.00157871,0.00200203,-0.00301067,0.00598251,0.0025191,-0.000253902,0.00390132,0.0015799568186674051,0.006000440952483865,0.0025222755983951295,0.002004035400127613,-0.00025386976961505603,-0.003006142477840368
21,0.010585,63.1734,68.2722,0.100351,65.6983,-19.5717,-3.57435,0.00172782,0.00222673,-0.00337911,0.00660401,0.00283104,-0.000294563,0.00447778,0.0017293135410423321,0.006625864556789374,0.0028350511781161103,0.002229211004413756,-0.0002945196205789147,-0.0033734072330379172
22,0.011585,63.5521,68.7375,0.119664,66.1361,-21.0039,-3.75206,0.00187614,0.0024503,-0.00374722,0.00722693,0.0031307,-0.000335875,0.00505691,0.0018779010518041872,0.007253107281075755,0.0031356057593960873,0.0024533044384691394,-0.0003358186003067365,-0.003740207932456774
23,0.012585,63.9571,69.1907,0.135282,66.5555,-22.3426,-3.90735,0.00202339,0.00267355,-0.0041139,0.00785077,0.00341727,-0.000377918,0.00563813,0.002025438434907212,0.007881668099827488,0.003423115523807585,0.0026771271219623305,-0.0003778465979876744,-0.0041054495055297124
24,0.013585,64.3747,69.5846,0.128274,66.9648,-23.6035,-4.03559,0.00217006,0.00289582,-0.00447932,0.00847569,0.00369126,-0.000420301,0.00622144,0.0021724162843197448,0.008511710354355273,0.003698081090417471,0.0029000169369497453,-0.00042021268590797245,-0.004469302808485565
25,0.014585,64.7361,69.8434,-0.0617138,67.3484,-24.7258,-4.14701,0.00231676,0.00311709,-0.00484539,0.00910111,0.00395678,-0.000463142,0.00680698,0.0023194457621371622,0.009142651029137472,0.00396461838883444,0.0031219531767077147,-0.0004630347662993861,-0.004833670034782189
26,0.015585,65.2721,70.3217,0.159693,67.7668,-25.9456,-4.23107,0.00246161,0.00333779,-0.00520716,0.00972844,0.00420689,-0.000507197,0.00739496,0.002464642249457416,0.009775915100414423,0.0042157513836673655,0.0033433666238489312,-0.0005070683973448231,-0.005193626243369054
27,0.016585,65.6957,70.5955,0.0271132,68.1511,-26.9339,-4.31165,0.00260697,0.00355732,-0.00557134,0.010356,0.00445313,-0.000551907,0.00798516,0.0026103711011711273,0.010409808956104882,0.0044630599176651575,0.0035636547721678014,-0.0005517547273463652,-0.005555848867442759
28,0.017585,66.1432,70.8451,0.0343808,68.5459,-28.003,-4.3559,0.00275207,0.00377502,-0.00593315,0.010985,0.0046849,-0.000596188,0.00857758,0.0027558604210129456,0.011045556647626631,0.004695891301684796,0.0037821543626292975,-0.0005960103152472529,-0.005915583624023668
29,0.018585,66.6977,71.2134,0.0906265,68.9306,-28.9413,-4.39455,0.00289854,0.00399203,-0.00629234,0.011613,0.0049059,-0.000638598,0.00916866,0.0029027448287057833,0.01168069266903804,0.004917953630646066,0.004000008765384422,-0.0006383941396944648,-0.006272584686097704
30,0.018835,66.7912,71.2583,0.0873312,69.0288,-29.1971,-4.40666,0.0029349,0.00404602,-0.00638217,0.0117704,0.00496009,-0.000649412,0.00931691,0.002939211035459355,0.011839943742794956,0.004972411610078886,0.004054216189173898,-0.0006492011776664253,-0.006361847210529015
31,0.01921,66.9447,71.2841,0.0417412,69.1296,-29.6609,-4.42082,0.00299004,0.00412673,-0.00651767,0.0120062,0.00503754,-0.000665736,0.00954048,0.002994514628261724,0.012078563733720848,0.00505024973760082,0.004135256675307453,-0.0006655144469571717,-0.006496476058921563
32,0.019772,67.2021,71.3641,0.0828368,69.319,-30.3232,-4.44268,0.0030726,0.00424703,-0.00671887,0.0123606,0.00514887,-0.000689883,0.00987552,0.0030773252737659185,0.012437307942426923,0.005162148210617001,0.004256061412944767,-0.0006896450854373404,-0.00669634886006043
33,0.020616,67.6848,71.5575,0.152576,69.615,-31.1737,-4.42903,0.00319749,0.00442637,-0.00701983,0.012892,0.00531083,-0.000724476,0.0103782,0.003202607424000359,0.012975460102232494,0.005324957456077861,0.0044361808458253105,-0.0007242136306266911,-0.0069952485462265734
34,0.021616,68.0987,71.7151,0.0294025,69.9941,-31.971,-4.44642,0.00334419,0.00463857,-0.00737896,0.013523,0.00550415,-0.000768439,0.0109771,0.0033497880419439685,0.013614849323641431,0.005519325663879027,0.004649344819298351,-0.0007681438263641427,-0.0073518023142066236
35,0.022616,68.6176,72.0002,-0.00979556,70.3657,-32.7055,-4.44322,0.00349171,0.00485028,-0.00773713,0.0141532,0.00569161,-0.000811638,0.0115763,0.00349781312073727,0.014253830723576666,0.005707837985375885,0.004862061648435612,-0.0008113087109723471,-0.007707275455464124
36,0.023616,69.1255,72.2706,-0.0159667,70.748,-33.4226,-4.43844,0.00363952,0.00506069,-0.00809439,0.0147839,0.00587223,-0.0008547,0.0121766,0.003646151095142436,0.014893722383237273,0.005889505340957779,0.005073516920198751,-0.0008543348479942425,-0.00806171863627958
37,0.024616,69.6313,72.5312,-0.00729831,71.1318,-34.1198,-4.42702,0.00378778,0.00526987,-0.00845101,0.0154149,0.00604635,-0.000897461,0.012778,0.0037949627046358625,0.015534322410114543,0.006064666070678237,0.0052837801891367775,-0.0008970584023243466,-0.008415400597400646
38,0.025616,70.1387,72.7924,0.00611531,71.5137,-34.7896,-4.41011,0.00393654,0.00547795,-0.00880718,0.016046,0.00621458,-0.000939934,0.0133804,0.00394429835059773,0.016175428400704073,0.0062339305667351574,0.005492981402657859,-0.000939492400406805,-0.008768510396878315
39,0.026616,70.7229,73.16,0.161952,71.8965,-35.4609,-4.38473,0.004087,0.00568435,-0.00915919,0.0166766,0.0063705,-0.000978905,0.0139804,0.004095363174049238,0.01681643071264105,0.0063908347931247445,0.005700536572976089,-0.0009784260288023816,-0.00911737238847632
40,0.027616,71.1632,73.3042,0.117341,72.2912,-36.0639,-4.36554,0.00423815,0.00588837,-0.009512,0.0173083,0.00652225,-0.00101772,0.0145818,0.0042471436587141476,0.01745895657234864,0.006543566190506223,0.005905740528591608,-0.0010172022986406626,-0.009466904025569933
41,0.028616,71.7212,73.7025,0.227589,72.6713,-36.6299,-4.35693,0.00438939,0.00609311,-0.0098633,0.0179388,0.00666955,-0.00105649,0.0151828,0.004399037482642587,0.018100666722334013,0.006691840977976149,0.006111710754359789,-0.0010559321109253617,-0.009814817187660752
42,0.029616,72.1458,73.8246,0.127252,73.0474,-37.1792,-4.32746,0.00454191,0.00629509,-0.0102159,0.0185703,0.0068123,-0.00109425,0.0157855,0.004552240106774574,0.018743800341436412,0.006835556495726758,0.006314945721706433,-0.0010936515267817581,-0.010163894937096463
43,0.030616,72.6875,74.2514,0.238227,73.4185,-37.7047,-4.32217,0.00469398,0.00649828,-0.0105664,0.0192005,0.00695094,-0.0011324,0.0163876,0.004705013981794792,0.01938601502500359,0.006975153853944649,0.006519439630382706,-0.0011317590770698605,-0.010510771698217458
44,0.031616,73.0974,74.3415,0.11021,73.786,-38.2146,-4.28447,0.00484781,0.00669818,-0.0109185,0.0198318,0.00708559,-0.00116914,0.0169914,0.004859579642208622,0.020029756591934733,0.007110752187364122,0.006720662977968361,-0.0011684568220996505,-0.010859109527029065
45,0.032616,73.636,74.8024,0.252116,74.1555,-38.7062,-4.28361,0.0050007,0.00689982,-0.011268,0.0204618,0.00721643,-0.00120666,0.0175942,0.005013224368411784,0.02067257780600884,0.007242531178973888,0.006923678599798366,-0.0012059322785556992,-0.011204753863383154
46,0.033616,74.028,74.8528,0.094031,74.5173,-39.1799,-4.23881,0.00515578,0.00709765,-0.0116197,0.0210929,0.00734387,-0.0012424,0.018199,0.005169093905058375,0.02131692757304471,0.0073709023467842805,0.007122898016274526,-0.0012416285406401384,-0.011552452005147207
47,0.034616,74.5662,75.3566,0.27314,74.8832,-39.6439,-4.24315,0.00530943,0.00729792,-0.0119682,0.0217225,0.00746764,-0.00127929,0.0188024,0.005323550002122701,0.021960151176187326,0.007495592359650027,0.007324614717288069,-0.0012784720573804087,-0.01189686595800632
48,0.035616,74.9354,75.3593,0.0730726,75.2381,-40.0855,-4.19097,0.00546576,0.00749378,-0.0123197,0.0223533,0.00758863,-0.00131403,0.019408,0.005480724517920477,0.02260500700569512,0.007617496625819564,0.00752192863864809,-0.0013131670406058005,-0.01224412317559076
49,0.036616,75.4776,75.919,0.298931,75.6015,-40.5265,-4.20254,0.00562003,0.00769287,-0.0126672,0.0229825,0.00770601,-0.0013504,0.0200119,0.005635851994742147,0.023248632539462077,0.007735777709354519,0.007722536148232706,-0.001349488620208561,-0.012587308710847012
50,0.037616,75.868,76.0934,0.183519,75.9474,-40.9273,-4.17816,0.00577608,0.00788903,-0.0130175,0.0236124,0.00782201,-0.00138542,0.0206175,0.005792793714505029,0.0238933798949601,0.007852681839877196,0.007920230390140892,-0.001384460748751537,-0.012933138800928945
51,0.038616,76.3309,76.3127,0.214625,76.3011,-41.3703,-4.13467,0.00593297,0.00808385,-0.0133661,0.0242422,0.00793288,-0.00141931,0.0212232,0.005950604925087699,0.024538431050905363,0.00796442866128344,0.008116612538389356,-0.001418303255912301,-0.01327717034056164
52,0.039616,76.7338,76.5536,0.158008,76.6509,-41.7402,-4.12163,0.00608986,0.00827872,-0.0137152,0.0248716,0.0080434,-0.00145375,0.0218289,0.006108440896613443,0.025183478514551494,0.00807583504614251,0.008313083365187879,-0.0014526938173392567,-0.01362157516103657
53,0.040616,77.1886,76.8468,0.222222,77.0003,-42.1544,-4.0943,0.00624716,0.0084728,-0.014063,0.0255008,0.00814935,-0.00148738,0.0224347,0.006266714202235679,0.0258287269330979,0.008182646339093935,0.008508795759723853,-0.0014862743985855076,-0.013964577925557164
54,0.041616,77.5798,77.0626,0.147372,77.3405,-42.5103,-4.07446,0.00640507,0.00866611,-0.0144119,0.0261297,0.00825479,-0.00152089,0.023041,0.00642562632565169,0.02647407352743225,0.008288954721803465,0.008703769439606157,-0.0015197340329111686,-0.014308545675655648
55,0.042616,78.0285,77.3976,0.232852,77.6851,-42.9026,-4.05566,0.00656286,0.0088593,-0.0147591,0.0267584,0.00835625,-0.00155409,0.023647,0.006584442754722364,0.027119620683944134,0.00839126090905462,0.008898659745647075,-0.0015528830274649241,-0.014650718343984459
56,0.043616,78.4041,77.5755,0.136926,78.0188,-43.2436,-4.02973,0.00672171,0.00905105,-0.0151077,0.0273869,0.00845717,-0.00158673,0.0242537,0.006744351393861425,0.027765368270466606,0.00849303289043335,0.009092134612463276,-0.0015854718095110742,-0.01499415123973813
57,0.044616,78.8498,77.949,0.249187,78.3595,-43.6166,-4.01889,0.00687996,0.00924337,-0.0154542,0.028015,0.0085545,-0.00161952,0.0248599,0.006903681294115227,0.028411110472386536,0.008591194294271798,0.009286221874625022,-0.0016182092851565466,-0.015335396642153443
58,0.045616,79.2074,78.0855,0.12679,78.6866,-43.9434,-3.98702,0.00703971,0.00943365,-0.0158026,0.0286432,0.00865131,-0.0016513,0.0254669,0.00706454700600867,0.02905736129811687,0.008688840734291103,0.009478287129432106,-0.0016499373543038542,-0.015678394036347743
59,0.046616,79.6515,78.5003,0.2678,79.023,-44.3002,-3.98405,0.00719836,0.0096252,-0.0161484,0.0292707,0.00874481,-0.00168368,0.0260732,0.007224330470879448,0.029703297433598674,0.008783157550142251,0.009671671216101352,-0.0016822634059706632,-0.01601871360304563
60,0.047616,79.9896,78.592,0.114589,79.3429,-44.6135,-3.94629,0.00735896,0.00981406,-0.0164966,0.0298985,0.00883789,-0.00171464,0.0266806,0.007386103688394652,0.030349948126141113,0.00887705945657391,0.009862375815595792,-0.0017131708446460614,-0.016361276243352263
61,0.048616,80.4345,79.0515,0.287556,79.6759,-44.9568,-3.95087,0.00751794,0.0100049,-0.0168418,0.0305254,0.00892784,-0.00174665,0.0272868,0.00754627066249447,0.030996077016561152,0.008967812029607725,0.010055116342112536,-0.0017451254946103667,-0.016700769730845888
62,0.049616,80.7521,79.0951,0.0998132,79.9888,-45.2566,-3.90754,0.00767935,0.0101924,-0.0171899,0.0311528,0.00901753,-0.00177683,0.0278945,0.0077089118316444605,0.031643126913609265,0.00905831041100802,0.010244519432411447,-0.0017752523721060731,-0.017042996624855866
63,0.050616,81.1996,79.6027,0.310234,80.3187,-45.5886,-3.92017,0.00783859,0.0103827,-0.0175343,0.0317791,0.00910418,-0.0018085,0.0285007,0.007869392175870571,0.032289447378121894,0.009145749101831635,0.010436787258162772,-0.0018068656492645774,-0.017381468728576488
64,0.051616,81.4959,79.5936,0.0830104,80.6244,-45.8751,-3.87064,0.00800078,0.0105688,-0.0178824,0.032406,0.0091908,-0.00183792,0.0291086,0.008032871769606764,0.032936792521817804,0.009233165092550788,0.010624847042691732,-0.001836232059295173,-0.017723458712502027
65,0.052616,81.947,80.1537,0.33584,80.9515,-46.1978,-3.89223,0.0081602,0.0107586,-0.018226,0.0330317,0.00927436,-0.00186931,0.0297146,0.008193585180149787,0.03358330331270731,0.00931750013929511,0.010816681843207165,-0.0018675639282145218,-0.018060910954473264
66,0.053616,82.2214,80.0862,0.0638717,81.2495,-46.4714,-3.83547,0.00832317,0.0109435,-0.0185741,0.0336582,0.00935815,-0.00189795,0.0303228,0.008357903877872053,0.03423104613648542,0.009402074395820748,0.011003599127650254,-0.0018961500318287472,-0.018402664465720364
67,0.054616,82.6783,80.7048,0.363719,81.5744,-46.7869,-3.86622,0.00848268,0.0111328,-0.0189169,0.0342833,0.00943882,-0.00192911,0.0309286,0.008518759875848714,0.03487774606843086,0.00948350614566773,0.011195000224507368,-0.0019272504632464882,-0.018739098364276785
68,0.055616,82.9295,80.5733,0.0414996,81.8645,-47.0473,-3.80204,0.00864641,0.0113164,-0.0192651,0.0349094,0.00952005,-0.00195701,0.031537,0.00868389817108084,0.03552588590424732,0.009565509821406026,0.011380672670757708,-0.0019550963045072978,-0.019080713931504567
69,0.056616,83.3939,81.2559,0.39506,82.188,-47.357,-3.84292,0.00880594,0.0115054,-0.0196071,0.0355338,0.009598,-0.001988,0.0321425,0.00884482634945094,0.036172670172440746,0.009644208520138697,0.011571841682795014,-0.0019860252368264497,-0.019416130967757406
70,0.057616,83.6948,81.3759,0.26817,82.4839,-47.618,-3.81657,0.00896816,0.0116904,-0.019953,0.036159,0.00967645,-0.00201681,0.03275,0.009008494431940628,0.036820687875058544,0.009723418215256796,0.01175899978509709,-0.002014777605259588,-0.019755256272952826
71,0.058616,84.0464,81.5606,0.234396,82.7797,-47.8972,-3.78417,0.00913085,0.0118749,-0.020298,0.0367837,0.00975283,-0.00204505,0.0333572,0.00917266337786038,0.037468592110591725,0.009800543835329911,0.011945686541880995,-0.0020429603099982874,-0.02009338237943159
72,0.059616,84.3717,81.8141,0.224253,83.0796,-48.1588,-3.77831,0.00929303,0.0120599,-0.0206426,0.0374081,0.00982855,-0.00207387,0.0339641,0.009336344272932173,0.03811658978332577,0.00987700882743714,0.012132913811879753,-0.002071721017438355,-0.02043100002500231
73,0.060616,84.7138,82.0502,0.220963,83.3733,-48.4282,-3.75975,0.00945571,0.0122441,-0.0209871,0.0380322,0.00990274,-0.00210205,0.034571,0.009500556466076171,0.038764680562701326,0.009951934382051109,0.012319365866310994,-0.0020998422401102834,-0.02076840342442121
74,0.061616,85.0414,82.3131,0.223157,83.6671,-48.6864,-3.7529,0.00961823,0.0124284,-0.0213312,0.038656,0.00997613,-0.00213039,0.0351778,0.009664633829078229,0.039412864117868374,0.010026057474429084,0.012505953518964219,-0.0021281223298503793,-0.021105299050586224
75,0.062616,85.373,82.5553,0.221513,83.9568,-48.9466,-3.73848,0.00978111,0.0126121,-0.0216753,0.0392795,0.0100483,-0.00215829,0.0357846,0.009829101398511675,0.04006114011768713,0.010098953685425238,0.012691967947527916,-0.0021559625668642335,-0.02144207877090898
76,0.063616,85.6975,82.8155,0.226602,84.2459,-49.1993,-3.73077,0.00994393,0.0127956,-0.0220191,0.0399028,0.0101196,-0.00218619,0.0363912,0.009993535158990596,0.04070961230168435,0.010170976308399027,0.01287781397449761,-0.0021838020271464087,-0.021778449158844637
77,0.064616,86.0204,83.0576,0.22456,84.5316,-49.4514,-3.71856,0.010107,0.0129787,-0.0223628,0.0405257,0.0101899,-0.00221377,0.0369978,0.010158248234284573,0.04135807226107424,0.010241993824269935,0.013063288881945967,-0.002211321418392309,-0.022114606133983417
78,0.065616,86.3399,83.3147,0.230753,84.8161,-49.6984,-3.71077,0.0102701,0.0131616,-0.0227062,0.0411484,0.0102592,-0.00224129,0.0376043,0.01032301848121997,0.04200672787063531,0.010312006020336328,0.013248595103219962,-0.0022387801849925726,-0.022450354326972843
79,0.066616,86.6554,83.5552,0.227943,85.0976,-49.9434,-3.69997,0.0104334,0.0133441,-0.0230495,0.0417709,0.0103277,-0.00226854,0.0382108,0.010488017701957508,0.04265557899269368,0.01038121476312126,0.013433529846608172,-0.0022659688077858453,-0.022785889522420777
80,0.067616,86.9694,83.8098,0.234837,85.3778,-50.1848,-3.69254,0.0105967,0.0135264,-0.0233926,0.042393,0.0103952,-0.00229571,0.0388171,0.01065304386926802,0.04330441682846842,0.010449417796944305,0.01361829561998773,-0.002293076873148614,-0.023121114172648394
81,0.068616,87.2782,84.0481,0.231335,85.6551,-50.4234,-3.68276,0.0107601,0.0137083,-0.0237356,0.0430149,0.0104619,-0.00232264,0.0394234,0.010818198069367124,0.04395344964112868,0.0105168170208505,0.013802689558081394,-0.002319944758810699,-0.023456126172644698
82,0.069616,87.5866,84.3006,0.238891,85.9312,-50.6592,-3.67589,0.0109236,0.0138901,-0.0240783,0.0436364,0.0105278,-0.00234949,0.0400295,0.010983480356210107,0.044602468371760295,0.010583412273381443,0.01398701564177629,-0.0023467321086720894,-0.023790730420492734
83,0.070616,87.8891,84.5363,0.234725,86.2044,-50.892,-3.6669,0.0110872,0.0140714,-0.0244209,0.0442578,0.0105929,-0.00237611,0.0406356,0.011148890783800436,0.045251786067720845,0.010649203394998308,0.01417086815343871,-0.0023732892851857645,-0.024125122431628343
84,0.071616,88.1921,84.7868,0.242937,86.4764,-51.1226,-3.66069,0.0112508,0.0142526,-0.0247633,0.0448788,0.0106571,-0.00240265,0.0412415,0.01131432827475054,0.045901089014567464,0.010714089156666828,0.014354652565113035,-0.0023997659467412946,-0.024459204791543843
85,0.072616,88.4888,85.0196,0.238092,86.7456,-51.3499,-3.65235,0.0114146,0.0144335,-0.0251056,0.0454996,0.0107207,-0.00242898,0.0418473,0.011479995129466847,0.0465505859936306,0.01077837261692971,0.014538165920044532,-0.0024260324151044177,-0.024793075260552966
86,0.073616,88.7865,85.2684,0.24697,87.0138,-51.5755,-3.64683,0.0115784,0.0146142,-0.0254476,0.0461201,0.0107835,-0.00245524,0.042453,0.011645689122636638,0.04720017214550132,0.01084185149194572,0.014721509531222754,-0.0024522283635388664,-0.02512653900326356
87,0.074616,89.0776,85.4982,0.241429,87.2791,-51.7976,-3.63906,0.0117423,0.0147945,-0.0257896,0.0467403,0.0108455,-0.00248128,0.0430586,0.011811511439851596,0.047849847135655654,0.010904525629616524,0.014904480313711499,-0.0024782041693057755,-0.02545988872087357
88,0.075616,89.3702,85.7453,0.25099,87.5435,-52.0185,-3.63423,0.0119061,0.0149747,-0.0261312,0.0473602,0.0109069,-0.00250727,0.043664,0.011977259739840429,0.04849961062928254,0.01096659707306391,0.015087382580063258,-0.002504129423879342,-0.0257927347695448
89,0.076616,89.6559,85.972,0.244737,87.805,-52.2359,-3.62696,0.0120701,0.0151545,-0.0264728,0.0479799,0.0109676,-0.00253305,0.0442694,0.012143237620252156,0.04914956720623476,0.011027964607992269,0.015269911700327432,-0.002529844535953507,-0.026125467137423475
90,0.077616,89.9437,86.2175,0.254992,88.0657,-52.4523,-3.6228,0.0122341,0.0153342,-0.0268141,0.0485993,0.0110275,-0.00255878,0.0448745,0.012309242723268055,0.049799611746173644,0.011088526996897663,0.01545237209703565,-0.0025555091128773855,-0.026457793800718443
91,0.078616,90.2244,86.441,0.248016,88.3235,-52.6651,-3.61597,0.0123982,0.0155136,-0.0271554,0.0492184,0.0110869,-0.0025843,0.0454796,0.012475376300886243,0.05044974391345258,0.011148587439178792,0.015634560594409486,-0.002580963571484629,-0.026790007060276677
92,0.079616,90.5075,86.6848,0.25897,88.5807,-52.8772,-3.61247,0.0125622,0.0156929,-0.0274963,0.0498372,0.0111456,-0.0026098,0.0460845,0.012641435879112928,0.05109996337213851,0.01120794360334787,0.015816680197658473,-0.0026063974326303585,-0.027121717803561207
93,0.080616,90.7832,86.9051,0.25127,88.8348,-53.0857,-3.60604,0.0127264,0.0158718,-0.0278373,0.0504558,0.0112037,-0.00263507,0.0466893,0.012807725254868396,0.05175037496104418,0.011266696491625927,0.015998426058428272,-0.0026316012505157582,-0.027453412740589322
94,0.081616,91.0619,87.1474,0.262919,89.0886,-53.2938,-3.60316,0.0128905,0.0160506,-0.0281779,0.051074,0.0112612,-0.00266034,0.0472939,0.012973940640182091,0.052400768058638025,0.011324845998456512,0.016180102818425857,-0.0026568044315086192,-0.027784605702846576
95,0.082616,91.333,87.3645,0.254502,89.3392,-53.4982,-3.5971,0.0130547,0.0162291,-0.0285185,0.0516921,0.0113181,-0.00268538,0.0478985,0.013140284617702003,0.05305145804840028,0.011382392019362753,0.016361507156634536,-0.002681777592460355,-0.02811568587998936
96,0.083616,91.6073,87.6053,0.266833,89.5896,-53.7024,-3.59482,0.0132189,0.0164075,-0.0288587,0.0523098,0.0113744,-0.00271043,0.0485028,0.013306655911145437,0.05370212887303216,0.011439334450947802,0.01654284222411828,-0.0027067601010244413,-0.028446264689009237
97,0.084616,91.8739,87.8192,0.257716,89.8368,-53.903,-3.5891,0.0133832,0.0165856,-0.029199,0.0529272,0.0114302,-0.00273525,0.049107,0.013473155872308906,0.05435288543527772,0.011495774340468445,0.016723904627446995,-0.0027315126120587285,-0.028776828176568126
98,0.085616,92.1441,88.0583,0.270707,90.084,-54.1035,-3.58738,0.0135473,0.0167636,-0.0295389,0.0535444,0.0114854,-0.00276009,0.049711,0.013639480463747189,0.055003832897891236,0.011551610448274463,0.016904897590366508,-0.0027562844536179743,-0.029106890835344346
99,0.086616,92.4064,88.2691,0.260916,90.3279,-54.3004,-3.58196,0.0137117,0.0169413,-0.0298788,0.0541613,0.0115401,-0.00278471,0.0503149,0.013806136493085708,0.05565486555278154,0.011606943834720163,0.01708561764716965,-0.0027808362916603713,-0.02943684132488711
100,0.087616,92.6727,88.5066,0.274535,90.5718,-54.4974,-3.58078,0.0138758,0.0171189,-0.0302183,0.0547779,0.0115942,-0.00280935,0.0509186,0.013972515731127233,0.05630598306178003,0.011661673250799032,0.017266268094148662,-0.0028054074691359343,-0.0297662915899104
101,0.088616,92.9308,88.7143,0.264107,90.8125,-54.6907,-3.57565,0.0140402,0.0172961,-0.0305579,0.0553943,0.0116478,-0.00283376,0.0515222,0.014139226515964554,0.05695729078215672,0.011715899769743077,0.017446543648797386,-0.0028297486920537684,-0.030095727015985063
102,0.089616,93.1933,88.9502,0.278312,91.0533,-54.8844,-3.57496,0.0142044,0.0174734,-0.0308971,0.0560103,0.0117009,-0.00285821,0.0521255,0.014305761849135123,0.05760857704885414,0.011769623310368127,0.017626952913795124,-0.002854129206645295,-0.030424662754725995
103,0.090616,93.4474,89.1548,0.267292,91.2909,-55.0743,-3.57011,0.0143688,0.0176503,-0.0312364,0.0566261,0.0117535,-0.00288243,0.0527288,0.014472527424137738,0.0582600529794528,0.011822843792240745,0.017806987045315026,-0.002878279787171145,-0.030753583862031975
104,0.091616,93.7062,89.389,0.282033,91.5287,-55.2647,-3.56989,0.014533,0.0178271,-0.0315753,0.0572416,0.0118056,-0.0029067,0.0533318,0.014639117489810838,0.05891161253894639,0.011875561135677115,0.017986951228989634,-0.0029024796376543316,-0.031082005818217295
105,0.092616,93.9566,89.5908,0.270476,91.7632,-55.4514,-3.56529,0.0146974,0.0180036,-0.0319142,0.0578569,0.0118573,-0.00293074,0.0539348,0.014805937872985897,0.05956336134409912,0.011927876454527198,0.018166641783106563,-0.0029264495739240726,-0.03141031649105963
106,0.093616,94.2117,89.8233,0.285695,91.9981,-55.6388,-3.5655,0.0148616,0.0181802,-0.0322527,0.0584719,0.0119085,-0.00295484,0.0545374,0.014972582689149805,0.060215193229085306,0.01197968848817843,0.018346465890046737,-0.0029504787569365476,-0.031738128613595595
107,0.094616,94.4585,90.0222,0.273663,92.2296,-55.8223,-3.56114,0.0150259,0.0183563,-0.0325913,0.0590866,0.0119593,-0.00297871,0.05514,0.015139356384569425,0.06086710785379568,0.012031098362153436,0.018525812493694893,-0.0029742780449629747,-0.032065926583918825
108,0.095616,94.7102,90.2529,0.289293,92.4617,-56.0067,-3.56176,0.0151901,0.0185325,-0.0329295,0.059701,0.0120095,-0.00300264,0.0557424,0.015306055952547748,0.06151910487783674,0.012081903598491817,0.018705292553585107,-0.002998136585020794,-0.03239322653800625
109,0.096616,94.9534,90.4491,0.276855,92.6903,-56.1873,-3.55764,0.0153545,0.0187083,-0.0332677,0.0603151,0.0120594,-0.00302634,0.0563446,0.015472985989419374,0.06217118396053212,0.012132407745549356,0.01888439668680819,-0.0030217652491829616,-0.03272041581796514
110,0.097616,95.2018,90.678,0.292825,92.9196,-56.3688,-3.55863,0.0155186,0.0188841,-0.0336056,0.060929,0.0121088,-0.00305011,0.0569466,0.015639638779907816,0.06282345104326126,0.012182408321496085,0.019063532309305575,-0.0030454631401723997,-0.03304720437542419
111,0.098616,95.4416,90.8716,0.280055,93.1453,-56.5465,-3.55473,0.015683,0.0190595,-0.0339435,0.0615426,0.0121578,-0.00307365,0.0575485,0.015806623662304453,0.06347579963290095,0.012232006474648616,0.019242291729615335,-0.003068931173750289,-0.03337388252968332
112,0.099616,95.6867,91.0985,0.296288,93.3719,-56.7254,-3.55606,0.0158471,0.019235,-0.034281,0.0621559,0.0122063,-0.00309727,0.0581501,0.015973331207227437,0.06412822938794993,0.012281100917493237,0.019421184449190942,-0.0030924784075020417,-0.033700063798144386
113,0.1006,95.9233,91.2896,0.283267,93.595,-56.9003,-3.55238,0.0160114,0.0194101,-0.0346186,0.0627689,0.0122546,-0.00312066,0.0587516,0.016140269339136815,0.06478073996662448,0.012329995275456973,0.01959970072723216,-0.003115795801734045,-0.03402623159638385
114,0.1016,96.1653,91.5146,0.299681,93.8189,-57.0765,-3.55402,0.0161755,0.0195853,-0.0349557,0.0633817,0.0123023,-0.00314414,0.0593528,0.016307031639807734,0.06543343757019637,0.012378284567922115,0.019778350244040066,-0.003139202368054539,-0.034351806474983815
115,0.1026,96.3988,91.7034,0.28649,94.0393,-57.2488,-3.55057,0.0163398,0.0197601,-0.035293,0.0639942,0.0123497,-0.00316738,0.059954,0.016474024603202464,0.066086215443524,0.012426272435914099,0.01995662308025481,-0.0031623691437925316,-0.034677464685315074
116,0.1036,96.6377,91.9264,0.303002,94.2606,-57.4223,-3.55248,0.0165039,0.019935,-0.0356298,0.0646064,0.0123966,-0.00319072,0.0605549,0.016640841677606488,0.06673907324400097,0.012473756341580211,0.02013502909478282,-0.0031856350625822927,-0.03500253057104108
117,0.1046,96.8683,92.1129,0.289726,94.4784,-57.5921,-3.54924,0.0166681,0.0201094,-0.0359667,0.0652183,0.0124433,-0.00321382,0.0611557,0.01680778780971237,0.06739201062873912,0.012521039970065484,0.020312956158645923,-0.003208661208459418,-0.035327583460258105
118,0.1056,97.1042,92.3338,0.306252,94.6972,-57.7632,-3.5514,0.0168321,0.020284,-0.0363032,0.0658299,0.0124895,-0.00323702,0.0617561,0.016974557961691783,0.06804502725456851,0.012567819522711465,0.020491118353898274,-0.0032317864992649215,-0.0356521411185351
119,0.1066,97.3318,92.5183,0.292976,94.9125,-57.9305,-3.54838,0.0169963,0.0204581,-0.0366398,0.0664414,0.0125354,-0.00325999,0.0623566,0.017141558894510522,0.06869833651768409,0.012614297452287815,0.020668801324457364,-0.0032546820021731593,-0.035976685983869605
120,0.1076,97.5648,92.7369,0.30943,95.1288,-58.0992,-3.55075,0.0171603,0.0206324,-0.036976,0.0670525,0.0125809,-0.00328306,0.0629567,0.017308383789436776,0.06935161766085307,0.012660372451020141,0.02084671940163818,-0.0032776766514150957,-0.03630073614615725
121,0.1086,97.7897,92.9195,0.296238,95.3416,-58.2642,-3.54796,0.0173245,0.0208062,-0.0373122,0.0676633,0.0126261,-0.0033059,0.0635567,0.01747543954095665,0.07000497714459386,0.012706145734323382,0.021024157980435998,-0.003300441529304532,-0.036624677381091986
122,0.1096,98.0199,93.1359,0.312539,95.5556,-58.4305,-3.55052,0.0174884,0.0209802,-0.037648,0.0682739,0.0126708,-0.00332884,0.0641564,0.017642217432572327,0.07065852169048292,0.012751414710791664,0.02120183164108491,-0.0033233055549244384,-0.03694812450461604
123,0.1106,98.2421,93.3166,0.299511,95.766,-58.5932,-3.54795,0.0176525,0.0211537,-0.037984,0.0688842,0.0127154,-0.00335156,0.0647561,0.01780922622314951,0.07131214401883645,0.012796584431165048,0.02137902552999993,-0.003345949792182723,-0.0372716555785183
124,0.1116,98.4696,93.5307,0.31558,95.9776,-58.7573,-3.55067,0.0178163,0.0213274,-0.0383195,0.0694942,0.0127594,-0.00337439,0.0653554,0.017975957029285228,0.0719658437848465,0.012841148461281593,0.021556454475992304,-0.0033687031444185056,-0.037594596761658994
125,0.1126,98.6892,93.7097,0.302794,96.1857,-58.9178,-3.54833,0.0179804,0.0215007,-0.0386551,0.0701039,0.0128033,-0.00339699,0.0659546,0.018143020591024017,0.07261962064342486,0.012885613163692078,0.02173350555058562,-0.0033912267572095978,-0.037917525824458176
126,0.1136,98.9139,93.9215,0.318555,96.3949,-59.0797,-3.55118,0.0181441,0.021674,-0.0389902,0.0707134,0.0128467,-0.0034197,0.0665536,0.018309704246179725,0.07327358157655639,0.012929573353232637,0.021910587310788765,-0.0034138594854543625,-0.03823986565050019
127,0.1146,99.1312,94.0989,0.306085,96.6008,-59.2381,-3.54907,0.0183081,0.021847,-0.0393255,0.0713226,0.0128899,-0.00344219,0.0671524,0.018476720732653718,0.07392761904203726,0.012973332855999997,0.02208739313565644,-0.0034362724557197577,-0.03856228976612386
128,0.1156,99.3532,94.3083,0.321469,96.8077,-59.3978,-3.55203,0.0184719,0.0220201,-0.0396603,0.0719315,0.0129327,-0.00346478,0.0677509,0.018643560883344845,0.07458173269396351,0.013016689042461893,0.02226433177700593,-0.003458784576049645,-0.0388841252332468
129,0.1166,99.5681,94.4842,0.30938,97.0114,-59.5541,-3.55015,0.0186358,0.0221928,-0.0399952,0.0725401,0.0129752,-0.00348716,0.0683494,0.018810530245739088,0.07523592218615116,0.013059743166639937,0.022440892072646434,-0.0034810869188866,-0.03920594904730057
130,0.1176,99.7876,94.6911,0.324323,97.2162,-59.7118,-3.55321,0.0187994,0.0223656,-0.0403298,0.0731485,0.0130174,-0.00350965,0.0689475,0.01897722128344248,0.07589029476116194,0.01310249518986284,0.02261758512463663,-0.003503498377224079,-0.03952737695886088
131,0.1186,100.0,94.8657,0.312676,97.4177,-59.8661,-3.55155,0.0189632,0.022538,-0.0406643,0.0737566,0.0130593,-0.00353193,0.0695456,0.019144143422838766,0.0765447426141086,0.013144945073730208,0.022793899594182765,-0.003525700071952409,-0.03984860132349799
132,0.1196,100.217,95.0702,0.327123,97.6203,-60.0218,-3.55468,0.0191268,0.0227105,-0.0409985,0.0743644,0.0131009,-0.0035543,0.0701433,0.01931088904412248,0.07719926539799404,0.013187092780111431,0.0229703467599931,-0.003547990952717406,-0.04016943030742637
133,0.1206,100.427,95.2435,0.315971,97.8197,-60.1742,-3.55326,0.0192906,0.0228827,-0.0413328,0.074972,0.0131422,-0.00357648,0.0707409,0.019477865842774555,0.07785397055093335,0.013228938271146795,0.023146517421563928,-0.0035700920131763736,-0.04049024803920298
134,0.1216,100.642,95.4454,0.329873,98.0202,-60.3278,-3.55643,0.0194541,0.0230549,-0.0416667,0.0755793,0.0131832,-0.00359876,0.0713383,0.019644564101050976,0.07850875007092606,0.013270481509246368,0.023322718422334576,-0.003592292224214977,-0.04081057486384321
135,0.1226,100.85,95.6175,0.319259,98.2176,-60.4784,-3.55525,0.0196178,0.0232268,-0.0420006,0.0761863,0.013224,-0.00362084,0.0719355,0.019811493578999473,0.0791636036101615,0.013311823788268784,0.02349864271789137,-0.0036142926635169825,-0.04113079474921122
136,0.1236,101.062,95.8169,0.332576,98.4159,-60.6302,-3.55846,0.0197812,0.0233987,-0.0423341,0.076793,0.0132644,-0.00364302,0.0725324,0.01997814439205081,0.0798185308205519,0.013352762412904395,0.023674597257433927,-0.003636392253420384,-0.04145052431129448
137,0.1246,101.268,95.9879,0.322537,98.6114,-60.7789,-3.5575,0.0199448,0.0235704,-0.0426677,0.0773995,0.0133046,-0.00366501,0.0731292,0.02014502646705485,0.08047363940109031,0.013393500012773618,0.02385037727606587,-0.0036583020482555684,-0.04177024308432775
138,0.1256,101.478,96.1848,0.335238,98.8077,-60.9288,-3.56073,0.0201082,0.0237421,-0.0430009,0.0780057,0.0133445,-0.00368709,0.0737257,0.020311731783833054,0.08112882108680042,0.013433935220101167,0.02402618747871821,-0.0036803010300767713,-0.04208947205283242
139,0.1266,101.682,96.3548,0.325802,99.0012,-61.0758,-3.56001,0.0202717,0.0239134,-0.0433342,0.0786116,0.0133842,-0.00370899,0.0743221,0.020478566390337072,0.08178407552878397,0.013474169345971676,0.024201618189844787,-0.0037021201925634406,-0.042408690431099405
140,0.1276,101.89,96.5491,0.337862,99.1955,-61.2239,-3.56325,0.020435,0.0240849,-0.0436671,0.0792172,0.0134235,-0.00373098,0.0749182,0.02064522414746417,0.08243940237786562,0.01351399966348743,0.024377283830262275,-0.0037240285420572228,-0.04272741952265402
141,0.1286,102.092,96.7181,0.32905,99.3871,-61.3692,-3.56275,0.0205984,0.024256,-0.044,0.0798226,0.0134626,-0.0037528,0.0755141,0.020812011203221292,0.08309490959407873,0.013553628835619724,0.02455256977881093,-0.003745767046586468,-0.04304604252695332
142,0.1296,102.297,96.91,0.340453,99.5795,-61.5155,-3.56599,0.0207616,0.0244272,-0.0443326,0.0804277,0.0135014,-0.00377469,0.0761098,0.020978621318465285,0.08375048864931411,0.013592955479350355,0.0247279881941449,-0.0037675748130590048,-0.043364272488632616
143,0.1306,102.497,97.0779,0.332277,99.7692,-61.6592,-3.56571,0.020925,0.024598,-0.0446652,0.0810326,0.01354,-0.00379643,0.0767053,0.021145462855771013,0.08440624763420779,0.013632080922548084,0.024903026682389973,-0.0037892326705607493,-0.043682396624626474
144,0.1316,102.7,97.2673,0.343015,99.9597,-61.8037,-3.56894,0.0210881,0.0247689,-0.0449975,0.0816371,0.0135783,-0.00381823,0.0773006,0.02131202526355791,0.08506196938283317,0.01367090377470026,0.025078197577576677,-0.0038109498285706644,-0.04400012817020804
145,0.1326,102.899,97.4344,0.335479,100.148,-61.9458,-3.56888,0.0212513,0.0249396,-0.0453298,0.0822414,0.0136164,-0.00383989,0.0778957,0.02147871698775572,0.08571787049149115,0.013709525371870868,0.02525319336136822,-0.003832527049715262,-0.04431775415113759
146,0.1336,103.1,97.6214,0.345552,100.336,-62.0886,-3.5721,0.0214144,0.0251102,-0.0456617,0.0828454,0.0136543,-0.00386161,0.0784905,0.02164533375372435,0.08637384216877209,0.013747945690942842,0.0254281164766732,-0.00385416357225421,-0.044634892456521746
147,0.1346,103.296,97.7875,0.338654,100.522,-62.2291,-3.57225,0.0215775,0.0252806,-0.0459937,0.0834492,0.0136919,-0.0038832,0.0790852,0.021811977697103746,0.0870299927666045,0.013786063330307963,0.025602864315813934,-0.003875670128698605,-0.044952021025970734
148,0.1356,103.495,97.9721,0.348067,100.709,-62.3703,-3.57544,0.0217405,0.025451,-0.0463253,0.0840527,0.0137292,-0.00390483,0.0796796,0.021978546624467077,0.08768621336188676,0.013823878255714295,0.025777641934523476,-0.0038972160649335397,-0.045268662433751605
149,0.1366,103.69,98.1373,0.341798,100.894,-62.5093,-3.57581,0.0219035,0.0256211,-0.0466569,0.0846559,0.0137663,-0.00392634,0.0802739,0.02214514270477852,0.08834250360302409,0.013861491819324723,0.02595214155218839,-0.003918642005379169,-0.04558519886064849
150,0.1376,103.887,98.3195,0.350564,101.079,-62.6489,-3.57897,0.0220664,0.0257913,-0.0469882,0.0852588,0.0138032,-0.0039479,0.0808678,0.022311663711293006,0.08899886313814664,0.01389890399862348,0.02612677346743486,-0.003940117287953182,-0.04590134411191349
151,0.1386,104.08,98.4839,0.34491,101.261,-62.7864,-3.57954,0.0222294,0.0259612,-0.0473195,0.0858615,0.0138399,-0.00396934,0.0814617,0.02247831409411516,0.08965540058064447,0.013936114771213592,0.0263011272171787,-0.00396147258290902,-0.04621738464160474
152,0.1396,104.275,98.6638,0.353045,101.444,-62.9244,-3.58267,0.0223921,0.0261311,-0.0476505,0.0864639,0.0138763,-0.00399082,0.0820552,0.02264468484971216,0.09031200674387474,0.013973022717511885,0.02647551059214104,-0.003982867260698186,-0.046533034444364074
153,0.1406,104.466,98.8273,0.347987,101.626,-63.0605,-3.58343,0.022555,0.0263008,-0.0479815,0.087066,0.0139125,-0.00401218,0.0826486,0.022811287238270417,0.09096868127516444,0.014009729205317623,0.02664971826739171,-0.004004141959438989,-0.046848579784328326
154,0.1416,104.659,99.0049,0.355514,101.807,-63.197,-3.58654,0.0227177,0.0264704,-0.0483122,0.0876678,0.0139484,-0.00403359,0.0832417,0.02297771217300526,0.09162542382156724,0.014046132808036793,0.02682385282580313,-0.004025466002484879,-0.047163734845232064
155,0.1426,104.849,99.1676,0.351027,101.987,-63.3317,-3.58747,0.0228804,0.0266399,-0.0486428,0.0882694,0.0139842,-0.00405489,0.0838347,0.023144164187280047,0.09228234325809215,0.014082436309420299,0.026997914220143526,-0.00404668003412878,-0.04747869044946229
156,0.1436,105.04,99.343,0.357971,102.166,-63.4666,-3.59055,0.023043,0.0268093,-0.0489732,0.0888707,0.0140197,-0.00407622,0.0844274,0.023310540954441406,0.09293933013440236,0.01411843687491543,0.027171902403195336,-0.004067923491881453,-0.047793351505268866
157,0.1446,105.228,99.5048,0.354028,102.344,-63.6,-3.59166,0.0232057,0.0269785,-0.0493035,0.0894718,0.0140551,-0.00409745,0.0850199,0.02347704712436438,0.09359649345639531,0.01415433730301463,0.027345714593178583,-0.004089066905427541,-0.048107813425021684
158,0.1456,105.417,99.6781,0.360419,102.522,-63.7335,-3.59472,0.0233682,0.0271477,-0.0496336,0.0900726,0.0140902,-0.00411871,0.0856121,0.023643375658349397,0.09425372364184215,0.014189934744985422,0.027519556194672612,-0.004110239746797029,-0.04842198117956942
159,0.1466,105.604,99.839,0.356991,102.699,-63.8654,-3.59599,0.0235307,0.0273166,-0.0499636,0.0906731,0.0141251,-0.00413988,0.0862042,0.02380973122291752,0.09491102033646981,0.014225330591361995,0.027693118904672076,-0.004131322509859703,-0.04873595011805609
160,0.1476,105.791,100.01,0.36286,102.875,-63.9975,-3.59902,0.0236932,0.0274856,-0.0502933,0.0912733,0.0141597,-0.00416107,0.086796,0.02397611382246123,0.0955683831857328,0.01426042339490241,0.027866813718565364,-0.004152424743556815,-0.04904953017878855
161,0.1486,105.976,100.17,0.359914,103.05,-64.1282,-3.60045,0.0238556,0.0276543,-0.050623,0.0918733,0.0141942,-0.00418218,0.0873877,0.02414242104712727,0.09622592145739972,0.014295415983128335,0.028040229477247713,-0.004173446863981245,-0.049363006869216575
162,0.1496,106.162,100.339,0.365293,103.225,-64.2589,-3.60345,0.0240179,0.027823,-0.0509524,0.092473,0.0142285,-0.0042033,0.087979,0.02430865285140915,0.09688352530530309,0.014330206912557486,0.02821367449363632,-0.004194478498688592,-0.0496760951262869
163,0.1506,106.345,100.499,0.362797,103.398,-64.3882,-3.60503,0.0241802,0.0279916,-0.0512818,0.0930724,0.0142626,-0.00422435,0.0885702,0.02447491163730242,0.09754119437410025,0.01436479616235653,0.02838704593395769,-0.0042154399842957435,-0.04998908026906934
164,0.1516,106.529,100.666,0.36772,103.571,-64.5176,-3.60801,0.0243425,0.02816,-0.0516109,0.0936716,0.0142965,-0.00424541,0.0891612,0.024641197409186688,0.09819903812807529,0.014399183711812036,0.028560240895099342,-0.00423641098630434,-0.05030167742206981
165,0.1526,106.711,100.824,0.365641,103.743,-64.6457,-3.60973,0.0245047,0.0283283,-0.0519399,0.0942705,0.0143302,-0.0042664,0.0897519,0.024807407690695893,0.09885694652301402,0.014433369540331142,0.028733362151387,-0.0042573118446824765,-0.050614076777686146
166,0.1536,106.893,100.989,0.370141,103.915,-64.7737,-3.61269,0.0246668,0.0284966,-0.0522687,0.0948691,0.0143637,-0.0042874,0.0903424,0.024973542436339757,0.09951491920277866,0.014467353627441115,0.02890651254643406,-0.004278222221573924,-0.05092618355607548
167,0.1546,107.074,101.147,0.368444,104.086,-64.9006,-3.61453,0.0248289,0.0286647,-0.0525974,0.0954674,0.014397,-0.00430833,0.0909327,0.025139704114608863,0.10017295581095964,0.014501135952789568,0.029079486269227184,-0.004299062460288994,-0.05123809285443903
168,0.1556,107.254,101.31,0.372557,104.256,-65.0273,-3.61748,0.024991,0.0288327,-0.0529259,0.0960655,0.0144301,-0.00432927,0.0915228,0.025305892729869273,0.10083116607398779,0.014534716496144462,0.029252386146103593,-0.004319912219623356,-0.05154970995502528
169,0.1566,107.433,101.466,0.371208,104.425,-65.153,-3.61944,0.025153,0.0290005,-0.0532543,0.0966634,0.014463,-0.00435014,0.0921126,0.025472005739281878,0.10148954983239467,0.014568095237394552,0.02942510918755681,-0.0043406918462192134,-0.05186112989232361
170,0.1576,107.612,101.628,0.374966,104.594,-65.2784,-3.62237,0.0253149,0.0291683,-0.0535825,0.0972609,0.0144957,-0.00437102,0.0927023,0.02563804309737261,0.10214788649691209,0.014601272156548273,0.029597861214368137,-0.004361480995533906,-0.05217225801057601
171,0.1586,107.79,101.784,0.373934,104.761,-65.4029,-3.62444,0.0254768,0.029336,-0.0539106,0.0978582,0.0145283,-0.00439184,0.0932917,0.02580410733908778,0.10280639607382391,0.0146343486971654,0.02977053925434281,-0.004382209973710194,-0.052483189281658404
172,0.1596,107.968,101.944,0.377369,104.929,-65.5271,-3.62737,0.0256386,0.0295035,-0.0542385,0.0984552,0.0145607,-0.00441266,0.0938808,0.025970095871765464,0.10346496805645677,0.014667223382630157,0.029943040266224186,-0.004402938520313593,-0.05279382911170949
173,0.1606,108.144,102.098,0.376623,105.095,-65.6504,-3.62954,0.0258004,0.029671,-0.0545662,0.099052,0.0145929,-0.00443343,0.0944698,0.026136111263560524,0.10412371249918251,0.014699896193252515,0.030115570174445327,-0.004423616856535251,-0.05310417772051279
174,0.1616,108.32,102.256,0.379766,105.261,-65.7735,-3.63246,0.0259621,0.0298383,-0.0548938,0.0996485,0.0146249,-0.00445419,0.0950585,0.02630205088860893,0.10478251876312217,0.014732367109462574,0.030287922926241162,-0.004444284807715304,-0.05341432998617657
175,0.1626,108.494,102.41,0.379274,105.426,-65.8956,-3.63472,0.0261238,0.0300055,-0.0552213,0.100245,0.0146567,-0.00447491,0.0956471,0.026468017348264095,0.10544171812222736,0.014764636111811003,0.03046020146903916,-0.0044649125084303964,-0.05372428603503265
176,0.1636,108.669,102.567,0.382155,105.59,-66.0175,-3.63764,0.0262855,0.0301726,-0.0555485,0.100841,0.0146884,-0.00449562,0.0962353,0.02663401064686588,0.10610075776053196,0.014796804660644591,0.030632405755972147,-0.004485529826599222,-0.054033856800102975
177,0.1646,108.842,102.719,0.381891,105.754,-66.1385,-3.63999,0.026447,0.0303396,-0.0558756,0.101436,0.0147199,-0.00451628,0.0968234,0.026799825428768687,0.10675908354389807,0.014828771263462714,0.030804535740187156,-0.004506096943094007,-0.05434323172451627
178,0.1656,109.015,102.874,0.384536,105.917,-66.2592,-3.64291,0.0266085,0.0305066,-0.0562026,0.102032,0.0147512,-0.00453694,0.0974112,0.026965666991921156,0.1074189085660151,0.014860535901117355,0.030976694472509836,-0.004526663634676464,-0.0546524109341866
179,0.1666,109.187,103.026,0.384472,106.079,-66.3792,-3.64533,0.02677,0.0306733,-0.0565294,0.102627,0.0147824,-0.00455755,0.0979988,0.027131535340648938,0.10807801888248592,0.014892200043795434,0.031148572613123315,-0.0045471801287158,-0.05496130005106259
180,0.1676,109.359,103.18,0.386909,106.241,-66.4988,-3.64825,0.0269314,0.03084,-0.0568561,0.103222,0.0148134,-0.00457816,0.0985862,0.027297327749540523,0.1087375214862889,0.014923662189657572,0.031320479408211144,-0.004567696199914484,-0.05526999376647179
181,0.1686,109.53,103.33,0.387021,106.402,-66.6176,-3.65075,0.0270928,0.0310066,-0.0571826,0.103816,0.0148442,-0.00459872,0.0991734,0.027463146919486148,0.1093963072140427,0.014954922319856623,0.031492311713314125,-0.0045881620776906384,-0.05557839776381479
182,0.1696,109.7,103.483,0.389272,106.563,-66.7361,-3.65367,0.0272541,0.0311731,-0.0575089,0.104411,0.0148748,-0.00461928,0.0997603,0.02762889009191194,0.11005659443280269,0.014985980415666011,0.0316640694816519,-0.004608627534692711,-0.05588651226101038
183,0.1706,109.87,103.632,0.389538,106.723,-66.8539,-3.65624,0.0274153,0.0313394,-0.0578351,0.105005,0.0149053,-0.0046398,0.100347,0.02779455722140667,0.11071616392264083,0.015016937960168786,0.03183564948288842,-0.004629052756092267,-0.05619443185629447
184,0.1716,110.039,103.783,0.391625,106.882,-66.9713,-3.65916,0.0275765,0.0315057,-0.0581611,0.105599,0.0149357,-0.00466031,0.100934,0.02796025105859523,0.11137612531313912,0.015047794944106574,0.03200725802025173,-0.004649467604865176,-0.05650206232501853
185,0.1726,110.207,103.931,0.392024,107.041,-67.0881,-3.66179,0.0277377,0.0316719,-0.058487,0.106192,0.0149659,-0.00468078,0.10152,0.028125971607783296,0.1120353668012326,0.015078449850400633,0.032178791880603574,-0.004669842221728393,-0.05680949820350922
186,0.1736,110.374,104.081,0.393967,107.199,-67.2044,-3.66473,0.0278987,0.0318379,-0.0588127,0.106786,0.0149959,-0.00470124,0.102106,0.028291513214953934,0.11269611203101793,0.015108902660686097,0.03235014778220213,-0.0046902064684295475,-0.05711664532831995
187,0.1746,110.541,104.228,0.394481,107.356,-67.3201,-3.66741,0.0280598,0.0320038,-0.0591383,0.107379,0.0150257,-0.00472167,0.102692,0.02845718432218214,0.11335613650336684,0.015139153356718449,0.03252142887909337,-0.004710540439799238,-0.05742359817396592
188,0.1756,110.707,104.377,0.396297,107.513,-67.4355,-3.67035,0.0282208,0.0321697,-0.0594637,0.107971,0.0150555,-0.00474208,0.103277,0.028622779258892672,0.11401543847030382,0.015169404954235022,0.032692738393875764,-0.004730854090367331,-0.05773026263810588
189,0.1766,110.873,104.523,0.396909,107.669,-67.5502,-3.67308,0.0283817,0.0323354,-0.059789,0.108564,0.015085,-0.00476246,0.103863,0.028788297979699395,0.11467624553524725,0.015199352893411122,0.032863869758469555,-0.004751137468872679,-0.058036733133541074
190,0.1776,111.038,104.67,0.398615,107.824,-67.6645,-3.67603,0.0285425,0.0325011,-0.0601141,0.109156,0.0151144,-0.00478283,0.104448,0.028953740439231934,0.11533632923810222,0.015229200193139336,0.033035029481879974,-0.004771410481721028,-0.05834291561893967
191,0.1786,111.202,104.816,0.39931,107.979,-67.7782,-3.67881,0.0287033,0.0326666,-0.0604391,0.109748,0.0151437,-0.00480317,0.105033,0.02911920950405089,0.11599680382619981,0.01525894684449125,0.033206010927583574,-0.004791653225362458,-0.05864890444548587
192,0.1796,111.366,104.961,0.40092,108.134,-67.8916,-3.68178,0.0288641,0.032832,-0.0607639,0.11034,0.0151728,-0.0048235,0.105617,0.029284705178434622,0.11665766953101286,0.015288491309714436,0.0333769173353613,-0.0048118856053895875,-0.05895460563276167
193,0.1806,111.529,105.106,0.401685,108.287,-68.0043,-3.6846,0.0290248,0.0329974,-0.0610885,0.110931,0.0152018,-0.00484379,0.106202,0.02945012452164497,0.11731780926578272,0.015317935102895364,0.03354785201339694,-0.004832077767380483,-0.05926001939643777
194,0.1816,111.692,105.25,0.403211,108.441,-68.1167,-3.68757,0.0291854,0.0331626,-0.061413,0.111522,0.0152306,-0.00486407,0.106786,0.029615467488327996,0.1179783392584457,0.015347176680502894,0.03371860822262396,-0.004852259568199124,-0.05956523999542307
195,0.1826,111.854,105.394,0.404034,108.593,-68.2285,-3.69043,0.029346,0.0333277,-0.0617374,0.112113,0.0152592,-0.00488433,0.10737,0.029780837011224026,0.11863925973971234,0.015376216025016598,0.033889289254172894,-0.004872421057183773,-0.05987026755342373
196,0.1836,112.015,105.537,0.405489,108.745,-68.3399,-3.69342,0.0295065,0.0334927,-0.0620616,0.112704,0.0152878,-0.00490457,0.107954,0.029946130099979706,0.11930057094042978,0.015405256200067496,0.034059895061491874,-0.0048925622355521226,-0.06017500821155297
197,0.1846,112.176,105.68,0.406359,108.897,-68.4508,-3.69631,0.029667,0.0336577,-0.0623856,0.113294,0.0153162,-0.00492479,0.108537,0.03011144972040558,0.1199611531298681,0.015434094118840225,0.03423052902109158,-0.004912683104521087,-0.06047946218468547
198,0.1856,112.336,105.822,0.407751,109.048,-68.5612,-3.69931,0.0298274,0.0338225,-0.0627095,0.113884,0.0153444,-0.00494498,0.109121,0.030276692849085185,0.12062212517779525,0.01546272976405505,0.034400984257400014,-0.0049327737146337425,-0.06078372360908613
199,0.1866,112.496,105.963,0.408661,109.198,-68.6712,-3.70223,0.0299878,0.0339872,-0.0630332,0.114474,0.0153725,-0.00496516,0.109704,0.03044196248488884,0.12128348731429539,0.015491264667674809,0.03457136412990458,-0.004952853968649751,-0.06108769871672848
200,0.1876,112.655,106.104,0.409999,109.348,-68.7808,-3.70525,0.0301481,0.0341518,-0.0633568,0.115064,0.0154005,-0.00498532,0.110286,0.03060715557134719,0.12194523976958882,0.015519698821161887,0.03474166859211314,-0.004972913916908794,-0.06139148158270502
201,0.1886,112.813,106.245,0.41094,109.497,-68.8898,-3.7082,0.0303084,0.0343164,-0.0636803,0.115653,0.0154283,-0.00500545,0.110869,0.030772375140379893,0.12260626016720999,0.015547930661209852,0.03491200108874315,-0.004992943610552136,-0.061695072329962075
202,0.1896,112.971,106.385,0.412231,109.646,-68.9985,-3.71123,0.0304685,0.0344808,-0.0640036,0.116242,0.015456,-0.00502557,0.111452,0.03093741500872893,0.12326767002052885,0.015576061728502566,0.03508215460795827,-0.0050129629511314056,-0.06199837728119051
203,0.1906,113.129,106.524,0.413197,109.794,-69.1066,-3.71421,0.0306287,0.0346451,-0.0643267,0.116831,0.0154836,-0.00504567,0.112034,0.03110258441232916,0.1239294695590023,0.01560409201462254,0.03525223257748289,-0.0050329619895851385,-0.062301396650075835
204,0.1916,113.285,106.663,0.414447,109.942,-69.2144,-3.71725,0.0307888,0.0348093,-0.0646497,0.11742,0.015511,-0.00506575,0.112616,0.031267677151414874,0.12459165901222269,0.01563191994798463,0.035422234950885034,-0.005052940727121147,-0.06260422438964508
205,0.1926,113.442,106.802,0.415432,110.089,-69.3217,-3.72025,0.0309488,0.0349735,-0.0649725,0.118008,0.0155383,-0.00508581,0.113197,0.03143269318068942,0.12525311335624112,0.01565964707787293,0.03559226524096881,-0.005072899164946354,-0.06290676691302177
206,0.1936,113.597,106.94,0.416648,110.236,-69.4286,-3.7233,0.0311087,0.0351375,-0.0652952,0.118596,0.0155655,-0.00510586,0.113779,0.03159763245487257,0.12591495674978326,0.01568727339598963,0.03576211629987447,-0.005092847253337918,-0.0632091181123492
207,0.1946,113.752,107.077,0.417647,110.382,-69.5351,-3.72633,0.0312687,0.0353014,-0.0656177,0.119184,0.0155926,-0.00512588,0.11436,0.03176270128121916,0.1265771894216774,0.01571479889406735,0.03593189162344368,-0.005112765095157568,-0.06351118446094117
208,0.1956,113.907,107.214,0.418832,110.528,-69.6411,-3.72939,0.0314285,0.0354652,-0.0659401,0.119771,0.0156195,-0.00514589,0.114941,0.03192759013515256,0.12723868436163865,0.015742121989651636,0.03610159116530465,-0.005132672589552856,-0.06381305979015306
209,0.1966,114.061,107.351,0.419841,110.673,-69.7467,-3.73244,0.0315883,0.035629,-0.0662623,0.120359,0.0156463,-0.00516588,0.115522,0.032092505340429955,0.1279016956142489,0.015769344243297567,0.036271318506227335,-0.005152559788654587,-0.06411465063339483
210,0.1976,114.215,107.487,0.421,110.817,-69.8519,-3.73552,0.031748,0.0357926,-0.0665844,0.120946,0.0156729,-0.00518585,0.116102,0.032257343675523575,0.12856396826758165,0.015796364067216517,0.03644086636257149,-0.005172426693663912,-0.06441605076132939
211,0.1986,114.368,107.622,0.422016,110.961,-69.9567,-3.73858,0.0319077,0.0359562,-0.0669064,0.121532,0.0156995,-0.0052058,0.116683,0.032422208337401504,0.1292255005630183,0.015823384609872315,0.036610441959213924,-0.005192273305780759,-0.06471726029564662
212,0.1996,114.52,107.757,0.423151,111.105,-70.0611,-3.74167,0.0320673,0.0361196,-0.0672281,0.122119,0.0157259,-0.00522574,0.117263,0.03258699607156346,0.12988855051797188,0.01585020270122328,0.036779837944705074,-0.005212109574082802,-0.0650180923615773
213,0.2006,114.672,107.892,0.424172,111.248,-70.165,-3.74475,0.0322269,0.0362829,-0.0675498,0.122705,0.0157522,-0.00524566,0.117843,0.0327518101079467,0.1305508592460798,0.01587691991288409,0.03694915791684106,-0.005231925551492322,-0.06531882766539732
214,0.2016,114.823,108.026,0.425287,111.391,-70.2686,-3.74785,0.0323864,0.0364462,-0.0678713,0.123291,0.0157784,-0.00526556,0.118422,0.03291654715908954,0.13121355620084185,0.01590353623685825,0.03711850554118601,-0.005251721239206031,-0.06561927936210465
215,0.2026,114.974,108.16,0.426309,111.533,-70.3718,-3.75095,0.0325459,0.0366093,-0.0681926,0.123877,0.0158044,-0.00528545,0.119002,0.03308131048788754,0.13187664160982515,0.015929950072178567,0.037287673364700735,-0.005271506585704744,-0.06591944766302582
216,0.2036,115.125,108.293,0.427405,111.674,-70.4746,-3.75406,0.0327053,0.0367724,-0.0685138,0.124462,0.0158303,-0.00530531,0.119581,0.03324599677392781,0.13253898316118162,0.015956262998636506,0.03745686878173782,-0.005291261697415006,-0.06621942615731125
217,0.2046,115.275,108.426,0.428427,111.815,-70.577,-3.75717,0.0328646,0.0369354,-0.0688348,0.125047,0.0158562,-0.00532517,0.12016,0.033410605971988305,0.13320171229570255,0.015982576606607957,0.037625988034193814,-0.005311016416792658,-0.06651912161781992
218,0.2056,115.424,108.558,0.429507,111.956,-70.6789,-3.76029,0.0330239,0.0370982,-0.0691557,0.125632,0.0158818,-0.005345,0.120739,0.03357524139438284,0.1338648292401905,0.016008586093489097,0.037794927296328495,-0.005330740903768172,-0.06681862757339196
219,0.2066,115.573,108.69,0.430527,112.096,-70.7805,-3.76341,0.0331831,0.037261,-0.0694764,0.126217,0.0159074,-0.00536482,0.121317,0.03373979967130425,0.13452833422158084,0.01603459624622161,0.037963894064014125,-0.005350455053115599,-0.06711785085651123
220,0.2076,115.721,108.821,0.431592,112.236,-70.8818,-3.76655,0.0333423,0.0374237,-0.069797,0.126801,0.0159329,-0.00538462,0.121896,0.033904384147988464,0.13519109227528125,0.016060505458766805,0.03813278452844515,-0.0053701489191356755,-0.06741688493580233
221,0.2086,115.869,108.952,0.432609,112.375,-70.9826,-3.76968,0.0335014,0.0375863,-0.0701175,0.127385,0.0159582,-0.00540441,0.122474,0.0340688914217131,0.13585423749272607,0.016086212114742926,0.03830159864342497,-0.005389832449119392,-0.06771572993171171
222,0.2096,116.017,109.082,0.433661,112.514,-71.0831,-3.77283,0.0336604,0.0377488,-0.0704378,0.127969,0.0159835,-0.00542418,0.123051,0.034233321447289855,0.1365177701000848,0.01611191942110546,0.03847033636277297,-0.005409495697760058,-0.06801429276602411
223,0.2106,116.164,109.212,0.434674,112.652,-71.1832,-3.77597,0.0338194,0.0379112,-0.0707579,0.128553,0.0160086,-0.00544394,0.123629,0.03439777761931917,0.1371816903236589,0.016137424150365787,0.038638997640323414,-0.005429148611953538,-0.06831257364850762
224,0.2116,116.31,109.342,0.435714,112.79,-71.2829,-3.77912,0.0339783,0.0380735,-0.0710779,0.129136,0.0160336,-0.00546368,0.124206,0.034562156485737905,0.13784486054445333,0.01616282790351531,0.03880758242992588,-0.0054487812467852725,-0.06861066592763165
225,0.2126,116.456,109.471,0.436722,112.927,-71.3823,-3.78228,0.0341372,0.0382357,-0.0713978,0.129719,0.0160585,-0.0054834,0.124784,0.03472656147403397,0.13850841750621057,0.01618813067294811,0.03897609068544616,-0.005468393603440536,-0.0689085697233488
226,0.2136,116.602,109.6,0.43775,113.064,-71.4813,-3.78544,0.034296,0.0383978,-0.0717175,0.130302,0.0160833,-0.00550311,0.12536,0.03489088909926408,0.1391723614344662,0.01621333245108958,0.03914452236076471,-0.005487995628224107,-0.0692061920761402
227,0.2146,116.747,109.728,0.438752,113.201,-71.5799,-3.7886,0.0344548,0.0385598,-0.072037,0.130885,0.016108,-0.0055228,0.125937,0.035055242821793176,0.1398366925548875,0.016238433230394422,0.03931287740977796,-0.005507577376807182,-0.06950353319499869
228,0.2156,116.892,109.856,0.439769,113.337,-71.6782,-3.79177,0.0346135,0.0387217,-0.0723564,0.131467,0.0161326,-0.00554248,0.126514,0.03521951912380872,0.14050027059243253,0.016263433003347982,0.03948115578639766,-0.005527148795101078,-0.0698006863086178
229,0.2166,117.036,109.984,0.440766,113.473,-71.7761,-3.79494,0.0347721,0.0388836,-0.0726757,0.132049,0.016157,-0.00556215,0.12709,0.035383717960165484,0.14116423494480212,0.016288230133636894,0.03964946140949199,-0.005546709883700318,-0.07009765153645786
230,0.2176,117.179,110.111,0.441773,113.608,-71.8737,-3.79811,0.0349307,0.0390453,-0.0729948,0.132631,0.0161814,-0.0055818,0.127666,0.03554794284052276,0.14182858583689684,0.016313027868983365,0.039817586319934595,-0.005566250698861963,-0.07039433603732292
231,0.2186,117.323,110.237,0.442763,113.743,-71.9709,-3.80129,0.0350892,0.039207,-0.0733138,0.133213,0.0162056,-0.00560143,0.128241,0.0357120901977972,0.14249332349374866,0.016337622941857033,0.03998573841837327,-0.005585771241765958,-0.07069083295035505
232,0.2196,117.465,110.364,0.44376,113.877,-72.0677,-3.80447,0.0352477,0.0393685,-0.0736326,0.133794,0.0162298,-0.00562105,0.128817,0.03587626357449003,0.14315730498264312,0.016362218609938584,0.04015370967844212,-0.005605281457538358,-0.07098704949338475
233,0.2206,117.608,110.489,0.444744,114.011,-72.1643,-3.80766,0.0354061,0.03953,-0.0739513,0.134375,0.0162538,-0.00564066,0.129392,0.03604035937068417,0.1438216723568715,0.016386611595899936,0.040321708068060014,-0.005624781346771912,-0.0712830787459442
234,0.2216,117.75,110.615,0.445732,114.144,-72.2604,-3.81084,0.0355645,0.0396914,-0.0742698,0.134956,0.0162778,-0.00566025,0.129967,0.036204481161711266,0.14448642584069837,0.016411005167299875,0.04048962954264046,-0.005644260966501835,-0.0715788279847972
235,0.2226,117.891,110.74,0.446708,114.277,-72.3563,-3.81403,0.0357228,0.0398527,-0.0745882,0.135536,0.0163016,-0.00567983,0.130542,0.03636852531483137,0.14515042050752536,0.01643519603709298,0.04065747405618181,-0.005663730261267097,-0.07187439022996045
236,0.2236,118.032,110.864,0.447002,114.41,-72.4518,-3.8172,0.035881,0.0400139,-0.0749065,0.136116,0.0163254,-0.00569942,0.131117,0.03653249178494189,0.14581480040296468,0.016459387482635757,0.04082524156269751,-0.005683209117995247,-0.07216976560006627
237,0.2246,118.173,110.989,0.448927,114.542,-72.5472,-3.82028,0.0360391,0.040175,-0.0752246,0.136697,0.0163491,-0.00571899,0.131691,0.03669638052695667,0.14648071223065262,0.0164834778555889,0.040992932016216566,-0.005702667707189968,-0.07246486146014397
238,0.2256,118.313,111.112,0.449342,114.674,-72.642,-3.8234,0.0361973,0.040336,-0.0755425,0.137276,0.0163726,-0.00573855,0.132265,0.03686039886786485,0.14714471677379914,0.01650736549799725,0.041160545370784174,-0.00572211597280492,-0.07275967801711125
239,0.2266,118.453,111.236,0.450861,114.805,-72.7367,-3.82657,0.0363553,0.0404969,-0.0758603,0.137856,0.0163961,-0.0057581,0.132839,0.037024235753658985,0.1478102536965784,0.016531253701771664,0.041328081580461085,-0.005741553915431186,-0.07305430817222602
240,0.2276,118.592,111.359,0.451344,114.936,-72.8309,-3.82966,0.0365133,0.0406577,-0.076178,0.138435,0.0164195,-0.00577763,0.133413,0.03718809852772642,0.1484750282671352,0.016555040811416344,0.041495540599323366,-0.005760971593268938,-0.07334875204363411
241,0.2286,118.731,111.482,0.452707,115.067,-72.9249,-3.83285,0.0366712,0.0408185,-0.0764955,0.139014,0.0164427,-0.00579715,0.133987,0.0373518834589639,0.14914018785361982,0.01657862516194064,0.041663026547761106,-0.005780378949686971,-0.0736429171136842
242,0.2296,118.869,111.604,0.453307,115.197,-73.0184,-3.83594,0.0368291,0.0409791,-0.0768129,0.139593,0.0164659,-0.00581665,0.13456,0.037515694253884124,0.14980573267902075,0.016602210059628142,0.04183033106401779,-0.005799766043272703,-0.07393689619484423
243,0.2306,119.007,111.726,0.454562,115.327,-73.1118,-3.83913,0.0369869,0.0411397,-0.0771301,0.140171,0.016489,-0.00583615,0.135133,0.037679427148622935,0.15047051249536847,0.016625693841917144,0.041997662451537465,-0.005819152758813839,-0.07423059682798816
244,0.2316,119.145,111.847,0.455243,115.456,-73.2047,-3.84224,0.0371447,0.0413002,-0.0774472,0.14075,0.016512,-0.00585562,0.135706,0.03784318588245128,0.15113682780176996,0.01664907650177505,0.04216491649813903,-0.0058385092714733355,-0.074524111766481
245,0.2326,119.282,111.968,0.456411,115.585,-73.2974,-3.84543,0.0373024,0.0414605,-0.0777642,0.141328,0.0165349,-0.00587509,0.136278,0.03800686665875497,0.1518023772134902,0.016672358032199464,0.042331988924750874,-0.005857865407265184,-0.0748174411278909
246,0.2336,119.419,112.089,0.457151,115.713,-73.3897,-3.84855,0.0374601,0.0416208,-0.078081,0.141905,0.0165577,-0.00589454,0.13685,0.03817057324955253,0.15246715895623142,0.01669553842621818,0.04249908813521941,-0.005877201283741029,-0.07511049254074686
247,0.2346,119.555,112.209,0.458255,115.841,-73.4817,-3.85173,0.0376176,0.041781,-0.0783976,0.142483,0.0165804,-0.00591398,0.137423,0.03833409799207477,0.15313347752162287,0.01671861767688898,0.0426661098672223,-0.005896526843103045,-0.07540326621029103
248,0.2356,119.691,112.329,0.459037,115.969,-73.5734,-3.85487,0.0377752,0.0419412,-0.0787141,0.14306,0.016603,-0.0059334,0.137994,0.03849775234154218,0.1537990275308656,0.016741595777300056,0.04283315835824997,-0.005915832145096611,-0.07569585477195317
249,0.2366,119.827,112.449,0.46009,116.097,-73.6648,-3.85805,0.0379326,0.0421012,-0.0790305,0.143637,0.0166255,-0.00595281,0.138566,0.03866122475270206,0.15446496167327517,0.01676447272056958,0.0430000250125635,-0.005935127131536211,-0.07598825834281908
250,0.2376,119.962,112.568,0.460903,116.224,-73.7559,-3.86119,0.0380901,0.0422611,-0.0793467,0.144214,0.0166479,-0.00597221,0.139138,0.03882482677892196,0.15513128017056066,0.016787248499846363,0.04316681405099132,-0.005954411803008042,-0.07628038466792508
251,0.2386,120.097,112.687,0.461915,116.35,-73.8467,-3.86437,0.0382474,0.042421,-0.0796628,0.14479,0.0166702,-0.0059916,0.139709,0.03898824677682011,0.1557968274471535,0.016809923108308755,0.04333362976111865,-0.005973686160097635,-0.0765723262945266
252,0.2396,120.231,112.805,0.462749,116.476,-73.9372,-3.86752,0.0384047,0.0425807,-0.0799788,0.145366,0.0166925,-0.00601097,0.14028,0.039151692482706,0.15646275818940536,0.01683259822242067,0.04350026344713731,-0.00599294026332009,-0.07686408333937667
253,0.2406,120.365,112.924,0.463729,116.602,-74.0274,-3.87071,0.0385619,0.0427404,-0.0802945,0.145942,0.0167146,-0.00603033,0.14085,0.03931505996911211,0.1571290726182557,0.01685507047115875,0.043666923746680464,-0.006012184053716174,-0.0771554713502488
254,0.2416,120.498,113.042,0.464576,116.728,-74.1173,-3.87386,0.0387191,0.0429,-0.0806102,0.146518,0.0167367,-0.00604968,0.141421,0.03947845313890608,0.1577957709547717,0.016877543216539115,0.043833506280642975,-0.006031417531870198,-0.07744676738444511
255,0.2426,120.632,113.159,0.465531,116.853,-74.2069,-3.87704,0.0388762,0.0430595,-0.0809257,0.147093,0.0167586,-0.00606902,0.141991,0.03964176803194319,0.1584616949578741,0.016899813078589787,0.04400001100329343,-0.006050640698366472,-0.07773778701857403
256,0.2436,120.764,113.276,0.466387,116.978,-74.2962,-3.88021,0.0390333,0.0432189,-0.0812411,0.147669,0.0167805,-0.00608834,0.142561,0.0398051085837654,0.15912916110596642,0.01692208342835566,0.044166437868916164,-0.00606984361448748,-0.07802862265335775
257,0.2446,120.897,113.393,0.467321,117.102,-74.3852,-3.88339,0.0391903,0.0433782,-0.0815563,0.148244,0.0168023,-0.00610765,0.143131,0.03996837080156168,0.1597958520288738,0.016944252571417184,0.044332786831811744,-0.006089036220502053,-0.07831918223690149
258,0.2456,121.029,113.509,0.468182,117.226,-74.474,-3.88655,0.0393473,0.0435375,-0.0818714,0.148818,0.016824,-0.00612695,0.143701,0.040131658653538516,0.1604617659469494,0.016966320501134113,0.044499162296208095,-0.00610821851699328,-0.07860955811145698
259,0.2466,121.16,113.626,0.469099,117.35,-74.5624,-3.88973,0.0395041,0.0436966,-0.0821863,0.149393,0.0168457,-0.00614624,0.14427,0.04029476408474708,0.16112922333797908,0.016988388909730423,0.04466535533323479,-0.006127390504543584,-0.07889965828293843
260,0.2476,121.292,113.741,0.469961,117.473,-74.6506,-3.89291,0.039661,0.0438557,-0.0825011,0.149967,0.0168672,-0.00616551,0.144839,0.040457999138687084,0.16179590283088485,0.01701025439514492,0.04483157481367739,-0.006146542245200948,-0.07918957503521995
261,0.2486,121.423,113.857,0.470863,117.596,-74.7385,-3.89609,0.0398177,0.0440146,-0.0828158,0.150541,0.0168886,-0.00618478,0.145408,0.040621051681985154,0.1624629651076681,0.01703201864746573,0.04499761174219996,-0.006165693616807855,-0.07947930848400708
262,0.2496,121.553,113.972,0.471724,117.719,-74.8261,-3.89926,0.0399744,0.0441735,-0.0831303,0.151115,0.01691,-0.00620403,0.145977,0.040784129777618805,0.16313041038810994,0.017053783365546415,0.04516367505608665,-0.006184824743068029,-0.07976876672179511
263,0.2506,121.683,114.087,0.472614,117.841,-74.9134,-3.90244,0.0401311,0.0443323,-0.0834446,0.151688,0.0169313,-0.00622327,0.146545,0.04094723342959239,0.16379707509446018,0.017075446841847253,0.045329660226559154,-0.006203945563097113,-0.08005794995088944
264,0.2516,121.813,114.201,0.473473,117.963,-75.0004,-3.90561,0.0402877,0.0444911,-0.0837589,0.152261,0.0169525,-0.0062425,0.147113,0.041110258530879795,0.16446412190915072,0.01709700906987921,0.045495671757569855,-0.006223056077475753,-0.08034704230397671
265,0.2526,121.942,114.315,0.474351,118.084,-75.0872,-3.90879,0.0404442,0.0446497,-0.084073,0.152834,0.0169736,-0.00626172,0.147681,0.04127320503657139,0.1651315510511926,0.01711847004318301,0.045661500520983944,-0.006242156286784373,-0.08063585993680533
266,0.2536,122.071,114.429,0.475207,118.205,-75.1737,-3.91197,0.0406007,0.0448082,-0.0843869,0.153407,0.0169947,-0.00628092,0.148249,0.0414361770453866,0.16579936273972185,0.017139931469318137,0.04582725100419549,-0.006261236254215374,-0.08092440305116011
267,0.2546,122.2,114.543,0.476076,118.326,-75.2599,-3.91515,0.0407571,0.0449667,-0.0847007,0.153979,0.0170156,-0.00630012,0.148816,0.04159907040140487,0.16646639072702651,0.01716118991603599,0.045993027760940386,-0.006280315855314522,-0.08121276372732633
268,0.2556,122.328,114.656,0.476927,118.447,-75.3459,-3.91833,0.0409135,0.0451251,-0.0850144,0.154552,0.0170365,-0.0063193,0.149384,0.041761989235936436,0.16713496749786527,0.01718244880705977,0.046158726179506004,-0.006299375216076597,-0.08150094208020708
269,0.2566,122.456,114.769,0.478102,118.567,-75.4316,-3.92151,0.0410698,0.0452834,-0.0853279,0.155124,0.0170573,-0.00633846,0.149951,0.041924829360478144,0.16780275966962765,0.017203606422033335,0.04632434621434012,-0.006318414337652012,-0.08178884640350437
270,0.2576,122.584,114.881,0.478481,118.687,-75.5168,-3.92471,0.041226,0.0454416,-0.0856413,0.155695,0.017078,-0.00635761,0.150518,0.04208759073015633,0.16846976545742876,0.017224662754618647,0.04648988781990715,-0.006337443157815925,-0.08207656869060409
271,0.2586,122.711,114.994,0.479633,118.806,-75.602,-3.92791,0.0413822,0.0455997,-0.0859545,0.156267,0.0170986,-0.00637676,0.151084,0.042250377525146154,0.1691383213520279,0.01724561779850764,0.04665535095068729,-0.006356471613581438,-0.08236401729248932
272,0.2596,122.838,115.105,0.480187,118.926,-75.6868,-3.93108,0.0415383,0.0457577,-0.0862676,0.156838,0.0171192,-0.00639589,0.151651,0.04241308550810552,0.16980608996331514,0.01726657327407488,0.04682073556117761,-0.006375479832465336,-0.08265128414470257
273,0.2606,122.965,115.217,0.481269,119.045,-75.7714,-3.9343,0.0416944,0.0459157,-0.0865806,0.157409,0.0171397,-0.00641501,0.152217,0.04257581889176354,0.17047423997935995,0.017287427452581605,0.04698614630450093,-0.006394477751670236,-0.08293836936158505
274,0.2616,123.091,115.328,0.481905,119.163,-75.8558,-3.93747,0.0418504,0.0460736,-0.0868934,0.157979,0.0171601,-0.00643411,0.152783,0.042738473406232824,0.17114160047582105,0.017308180327780365,0.04715147846963319,-0.006413455435907656,-0.08322518137991053
275,0.2626,123.217,115.439,0.482908,119.281,-75.9399,-3.94068,0.0420063,0.0462313,-0.087206,0.15855,0.0171804,-0.00645321,0.153348,0.042901049006675684,0.17181051328612562,0.01732883189345369,0.047316627279429424,-0.006432432757674911,-0.08351172039982901
276,0.2636,123.342,115.55,0.483596,119.399,-76.0237,-3.94385,0.0421622,0.046389,-0.0875186,0.15912,0.0172006,-0.0064723,0.153914,0.04306364995463041,0.17247863567549016,0.01734938214341475,0.04748180213524633,-0.006451399781492673,-0.08379816986164856
277,0.2646,123.467,115.66,0.484543,119.517,-76.1073,-3.94706,0.042318,0.0465467,-0.087831,0.15969,0.0172208,-0.00649138,0.154479,0.04322617193142664,0.1731471390031738,0.01736993280849508,0.04764700304119218,-0.006470356507937147,-0.08408434661024822
278,0.2656,123.592,115.77,0.485267,119.634,-76.1906,-3.95023,0.0424738,0.0467042,-0.0881432,0.16026,0.0172409,-0.00651044,0.155044,0.04338871923111931,0.17381602348637348,0.01739038214965971,0.047812020438950054,-0.006489293002476693,-0.08437025084526317
279,0.2666,123.717,115.88,0.486172,119.751,-76.2737,-3.95343,0.0426295,0.0468616,-0.0884553,0.160829,0.0172609,-0.0065295,0.155609,0.043551187502530286,0.1744841148577072,0.017410730160781984,0.04797695903129395,-0.006508229136090171,-0.08465597430050986
280,0.2676,123.841,115.99,0.486919,119.867,-76.3565,-3.95661,0.0427852,0.047019,-0.0887673,0.161398,0.0172809,-0.00654854,0.156173,0.04371368107222051,0.1751525864812027,0.01743107857886872,0.0481419235870153,-0.006527145039327387,-0.08494151708953668
281,0.2686,123.965,116.099,0.487792,119.984,-76.4391,-3.95981,0.0429408,0.0471763,-0.0890792,0.161967,0.0173007,-0.00656758,0.156738,0.043876095556514505,0.1758214385732848,0.017451223913662828,0.04830680927951536,-0.006546060582409363,-0.08522687932580242
282,0.2696,124.088,116.208,0.488553,120.1,-76.5214,-3.96298,0.0430963,0.0473335,-0.0893909,0.162536,0.0173205,-0.0065866,0.157302,0.04403843091062032,0.17649067135050234,0.01747136964733831,0.048471616063407996,-0.006564955896642077,-0.08551196967387753
283,0.2706,124.211,116.316,0.489402,120.215,-76.6035,-3.96617,0.0432518,0.0474906,-0.0897024,0.163105,0.0173403,-0.00660562,0.157866,0.04420079150983636,0.1771602850295262,0.017491515779903377,0.04863634389332372,-0.00658385085148927,-0.08579678833251503
284,0.2716,124.334,116.425,0.490172,120.331,-76.6854,-3.96935,0.0434072,0.0476476,-0.0900138,0.163673,0.0173599,-0.00662462,0.158429,0.0443630729217761,0.1778291019974605,0.017511458809053693,0.04880099272390992,-0.006602725579012647,-0.0860814268921044
285,0.2726,124.457,116.533,0.491003,120.446,-76.767,-3.97253,0.0435625,0.0478046,-0.0903251,0.164241,0.0173795,-0.00664362,0.158993,0.04452527510167403,0.17849829896134128,0.01753140222909133,0.048965667406391855,-0.006621599947919554,-0.08636588546563873
286,0.2736,124.579,116.64,0.491777,120.56,-76.8484,-3.97571,0.0437178,0.0479615,-0.0906363,0.164809,0.017399,-0.0066626,0.159556,0.04468750247352671,0.17916787613706742,0.017551244284894185,0.04913026303179713,-0.006640454091026204,-0.08665016416602178
287,0.2746,124.701,116.748,0.492592,120.675,-76.9295,-3.97889,0.0438731,0.0481182,-0.0909473,0.165376,0.0174185,-0.00668158,0.160119,0.044849755041246775,0.17983665390341663,0.017571086727620866,0.04929467462532622,-0.006659307876284548,-0.08693417179949003
288,0.2756,124.822,116.855,0.493367,120.789,-77.0104,-3.98206,0.0440283,0.048275,-0.0912581,0.165943,0.0174378,-0.00670054,0.160681,0.045011928307548965,0.1805058109742823,0.01759072603911349,0.049459216930086924,-0.006678141437264529,-0.08721790856391753
289,0.2766,124.943,116.962,0.49417,120.903,-77.0911,-3.98524,0.0441834,0.0484316,-0.0915689,0.16651,0.0174571,-0.0067195,0.161244,0.04517402222768818,0.1811753475647908,0.01761036572964847,0.049623575112367924,-0.006696974641163478,-0.0875015571566613
290,0.2776,125.064,117.068,0.494943,121.016,-77.1715,-3.98841,0.0443384,0.0485881,-0.0918794,0.167077,0.0174764,-0.00673844,0.161806,0.045336036756935094,0.18184526389019062,0.01763000579923313,0.04978785405636521,-0.006715787622304292,-0.08778484394061503
291,0.2786,125.185,117.175,0.495736,121.129,-77.2518,-3.99159,0.0444934,0.0487446,-0.0921899,0.167644,0.0174955,-0.00675738,0.162368,0.04549807640038028,0.1825155601658528,0.01764944271796587,0.04995215871202885,-0.006734600247130573,-0.08806804277767666
292,0.2796,125.305,117.281,0.496507,121.242,-77.3317,-3.99475,0.0446484,0.048901,-0.0925002,0.16821,0.0175146,-0.0067763,0.16293,0.045660141161916856,0.18318505342162505,0.01766888000794742,0.050116384071739795,-0.0067533926507172826,-0.08835097136536219
293,0.2806,125.425,117.386,0.49729,121.355,-77.4115,-3.99792,0.0448033,0.0490573,-0.0928104,0.168776,0.0175337,-0.00679522,0.163492,0.04582212646322059,0.18385492571783835,0.01768831766918466,0.05028053009024758,-0.006772184698754957,-0.08863372103730327
294,0.2816,125.545,117.492,0.498057,121.467,-77.491,-4.00109,0.0449581,0.0492135,-0.0931204,0.169342,0.0175526,-0.00681412,0.164053,0.045984032259582364,0.18452517726909057,0.01770755216015396,0.050444596722317936,-0.006790956527069847,-0.08891620079715679
295,0.2826,125.664,117.597,0.498832,121.579,-77.5703,-4.00425,0.0451129,0.0493696,-0.0934303,0.169907,0.0175715,-0.00683302,0.164614,0.04614596312090158,0.18519462309488466,0.017726787014658463,0.050608583922734374,-0.0068097280006004235,-0.08919850192171119
296,0.2836,125.783,117.702,0.499595,121.691,-77.6494,-4.00741,0.0452676,0.0495257,-0.0937401,0.170472,0.0175904,-0.00685191,0.165175,0.04630781442027154,0.1858644472644424,0.017746022232705272,0.05077259672355061,-0.0068284891876385645,-0.0894806245227685
297,0.2846,125.902,117.806,0.500363,121.803,-77.7283,-4.01057,0.0454222,0.0496816,-0.0940497,0.171037,0.0176091,-0.00687079,0.165736,0.046469586113010664,0.18653464999158853,0.017765054261269952,0.05093642494145767,-0.006847240088753703,-0.08976247768829493
298,0.2856,126.02,117.911,0.501121,121.914,-77.8069,-4.01372,0.0455768,0.0498375,-0.0943592,0.171602,0.0176278,-0.00688966,0.166296,0.04663138281758661,0.18720523149026835,0.01778408664573683,0.05110027870217482,-0.00686598070451494,-0.09004415261000775
299,0.2866,126.138,118.015,0.501881,122.025,-77.8853,-4.01688,0.0457314,0.0499933,-0.0946686,0.172167,0.0176465,-0.00690851,0.166856,0.04679320453786695,0.1878761919745482,0.017803119386112787,0.05126405288327396,-0.006884701104338253,-0.09032564939939125
300,0.2876,126.256,118.119,0.502634,122.135,-77.9635,-4.02003,0.0458858,0.0501491,-0.0949778,0.172731,0.0176651,-0.00692736,0.167416,0.046954841886729826,0.18854634311167806,0.017822050700194048,0.051427852582378586,-0.006903421151285505,-0.090606877228534
301,0.2886,126.374,118.222,0.503388,122.246,-78.0415,-4.02318,0.0460402,0.0503047,-0.0952869,0.173295,0.0176836,-0.00694621,0.167976,0.047116504194326,0.18921687232065554,0.017840880582307816,0.051591467485149645,-0.006922140845363134,-0.0908879272042713
302,0.2896,126.491,118.326,0.504135,122.356,-78.1192,-4.02633,0.0461946,0.0504603,-0.0955958,0.173859,0.017702,-0.00696504,0.168536,0.04727819146450973,0.18988777981477334,0.017859609026811718,0.051755107848380444,-0.006940840325394881,-0.09116870855464565
303,0.2906,126.608,118.429,0.504882,122.465,-78.1968,-4.02947,0.0463489,0.0506158,-0.0959046,0.174422,0.0177204,-0.00698386,0.169095,0.04743979895715,0.19055787524897383,0.017878337815922185,0.0519186684841606,-0.00695952952291401,-0.0914493123299912
304,0.2916,126.725,118.531,0.505625,122.575,-78.2741,-4.03261,0.0465031,0.0507712,-0.0962133,0.174986,0.0177387,-0.00700267,0.169654,0.04760132662761252,0.1912295392820671,0.01789696515994388,0.052082149347377316,-0.006978208438487954,-0.0917297386412469
305,0.2926,126.841,118.634,0.506365,122.684,-78.3513,-4.03575,0.0466573,0.0509265,-0.0965218,0.175549,0.017757,-0.00702148,0.170213,0.04776287920756239,0.19190039033953576,0.017915592844849115,0.05224555039293355,-0.0069968870027147245,-0.09200989680025806
306,0.2936,126.957,118.736,0.507102,122.793,-78.4282,-4.03889,0.0468114,0.0510818,-0.0968302,0.176112,0.0177751,-0.00704027,0.170772,0.047924351908400276,0.1925716191924891,0.01793401728382027,0.052408976816642916,-0.0070155453559122005,-0.09228987777279984
307,0.2946,127.073,118.838,0.507837,122.902,-78.5049,-4.04202,0.0469655,0.051237,-0.0971385,0.176674,0.0177933,-0.00705906,0.17133,0.048085849494098776,0.19324203281105645,0.017952543851526004,0.05257232336520912,-0.007034203358522451,-0.09256968166949553
308,0.2956,127.188,118.94,0.508568,123.01,-78.5814,-4.04516,0.0471195,0.0513921,-0.0974466,0.177237,0.0178113,-0.00707784,0.171888,0.04824726714376082,0.1939140172213909,0.017970867162224735,0.05273558999356287,-0.00705285108108078,-0.0928492178858078
309,0.2966,127.303,119.041,0.509296,123.118,-78.6576,-4.04828,0.0472734,0.0515471,-0.0977546,0.177799,0.0178293,-0.0070966,0.172446,0.048408604812789635,0.1945851854796845,0.017989190802745858,0.05289877665665155,-0.007071478594867897,-0.09312857730314028
310,0.2976,127.418,119.143,0.510022,123.226,-78.7337,-4.05141,0.0474273,0.051702,-0.0980625,0.178361,0.0178473,-0.00711536,0.173004,0.048569967313596196,0.1952567310405513,0.01800751477309559,0.05306188330943984,-0.0070901057592061,-0.09340776003180196
311,0.2986,127.533,119.244,0.510745,123.333,-78.8096,-4.05453,0.0475812,0.0518569,-0.0983702,0.178922,0.0178652,-0.00713411,0.173562,0.04873135465000278,0.19592745818803903,0.018025737270700892,0.05322501522940537,-0.007108722645189247,-0.09368667555068699
312,0.2996,127.647,119.344,0.511464,123.441,-78.8853,-4.05765,0.0477349,0.0520117,-0.0986778,0.179484,0.017883,-0.00715286,0.174119,0.048892557047299334,0.196599758318182,0.0180438582901008,0.05338806708165067,-0.00712733918210906,-0.09396541465701524
313,0.3006,127.761,119.445,0.512181,123.548,-78.9607,-4.06077,0.0478886,0.0521664,-0.0989852,0.180045,0.0179008,-0.00717159,0.174676,0.04905378422330853,0.1972712391153515,0.0180619796320578,0.053551038821167296,-0.007145935512891,-0.09424388688517527
314,0.3016,127.875,119.545,0.512895,123.655,-79.036,-4.06388,0.0480423,0.052321,-0.0992925,0.180606,0.0179185,-0.00719031,0.175233,0.04921503618183931,0.19794309671893218,0.01807999948857275,0.053713930402963905,-0.007164521567012194,-0.09452218297635107
315,0.3026,127.989,119.645,0.513607,123.761,-79.1111,-4.067,0.0481959,0.0524755,-0.0995997,0.181166,0.0179361,-0.00720903,0.175789,0.049376207989074716,0.19861413272564032,0.01809791785424486,0.05387674178206625,-0.007183107273205702,-0.09480030304031173
316,0.3036,128.102,119.745,0.514315,123.867,-79.1859,-4.0701,0.0483494,0.05263,-0.0999068,0.181727,0.0179537,-0.00722774,0.176346,0.049537299600465934,0.19928674390389456,0.018115836535282925,0.05403957831747008,-0.0072016827034948605,-0.09507824718673985
317,0.3046,128.215,119.844,0.515021,123.973,-79.2606,-4.07321,0.0485029,0.0527844,-0.100214,0.182287,0.0179712,-0.00724644,0.176902,0.04969841594131741,0.1999585325637494,0.018133653718322318,0.05420233459282353,-0.0072202478584436625,-0.09535619645401083
318,0.3056,128.327,119.944,0.515724,124.079,-79.3351,-4.07631,0.0486563,0.0529387,-0.10052,0.182847,0.0179887,-0.00726513,0.177458,0.04985945202947484,0.20063069753061002,0.01815147121316496,0.05436501056317944,-0.007238802738615213,-0.09563297510860203
319,0.3066,128.44,120.043,0.516424,124.185,-79.4094,-4.07941,0.0488097,0.0530929,-0.100827,0.183407,0.0180061,-0.00728381,0.178014,0.05002051282246334,0.20130323901526692,0.018169187202892623,0.05452760618360841,-0.007257347344572951,-0.09591057317176066
320,0.3076,128.552,120.142,0.517121,124.29,-79.4834,-4.08251,0.048963,0.0532471,-0.101134,0.183966,0.0180235,-0.00730248,0.178569,0.0501814933059177,0.2019749552530734,0.01818690350088148,0.05469022687821523,-0.0072758816768794254,-0.0961880860253943
321,0.3086,128.664,120.24,0.517815,124.395,-79.5573,-4.0856,0.0491162,0.0534012,-0.10144,0.184525,0.0180408,-0.00732115,0.179124,0.050342393435327315,0.20264704708522574,0.01820451828667946,0.05485276716558474,-0.007294415663153253,-0.09646461016072017
322,0.3096,128.775,120.338,0.518507,124.5,-79.631,-4.08869,0.0492694,0.0535552,-0.101746,0.185084,0.018058,-0.0073398,0.179679,0.050503318216525095,0.2033195147217397,0.01822203155500768,0.055015227000814404,-0.007312929449659555,-0.09674104969260555
323,0.3106,128.887,120.437,0.519196,124.604,-79.7045,-4.09177,0.0494225,0.0537091,-0.102052,0.185643,0.0180752,-0.00735845,0.180234,0.05066416258686646,0.20399235837274854,0.018239545124566714,0.05517760633901947,-0.007331442890886941,-0.0970174046469352
324,0.3116,128.998,120.534,0.519882,124.708,-79.7778,-4.09486,0.0495756,0.0538629,-0.102358,0.186202,0.0180924,-0.00737709,0.180789,0.05082503158436613,0.20466557824850362,0.018257058995361675,0.055339905135331824,-0.007349946060341339,-0.09729367504958586
325,0.3126,129.109,120.632,0.520566,124.812,-79.851,-4.09794,0.0497286,0.0540167,-0.102664,0.18676,0.0181094,-0.00739572,0.181343,0.05098582011420749,0.20533796922080105,0.018274369512503608,0.0555022288951188,-0.007368438958584411,-0.0975698609264265
326,0.3136,129.219,120.729,0.521247,124.916,-79.9239,-4.10101,0.0498815,0.0541704,-0.10297,0.187318,0.0181265,-0.00741434,0.181897,0.05114652813191767,0.20601073549195958,0.0182917821530999,0.05566447205576752,-0.007386921586177153,-0.09784596230331788
327,0.3146,129.329,120.827,0.521925,125.019,-79.9966,-4.10409,0.0500344,0.054324,-0.103275,0.187876,0.0181434,-0.00743296,0.182451,0.05130726072376257,0.20668387727145454,0.018308991429636157,0.05582663457243786,-0.0074054038696266256,-0.09812107732764141
328,0.3156,129.439,120.923,0.5226,125.123,-80.0692,-4.10716,0.0501872,0.0544775,-0.103581,0.188433,0.0181603,-0.00745157,0.183005,0.05146791274670326,0.20735618741208683,0.018326200997011766,0.05598871640030678,-0.007423875883178055,-0.0983970100581183
329,0.3166,129.549,121.02,0.523273,125.226,-80.1416,-4.11022,0.05034,0.054631,-0.103886,0.188991,0.0181772,-0.00747016,0.183559,0.05162858931914838,0.20803008016325486,0.018343410855231612,0.0561508231096457,-0.007442327701815188,-0.09867195703850473
330,0.3176,129.659,121.117,0.523943,125.328,-80.2138,-4.11328,0.0504927,0.0547844,-0.104191,0.189548,0.018194,-0.00748876,0.184112,0.0517891852659258,0.20870314034776594,0.01836051916824344,0.056312849072984505,-0.007460789102828325,-0.09894682017284917
331,0.3186,129.768,121.213,0.52461,125.431,-80.2858,-4.11634,0.0506454,0.0549377,-0.104496,0.190105,0.0182108,-0.00750734,0.184665,0.051949805737576904,0.20937657553122713,0.01837762776867713,0.056474794245527704,-0.007479230310047491,-0.09922159948672105
332,0.3196,129.877,121.309,0.525275,125.533,-80.3576,-4.1194,0.050798,0.0550909,-0.104801,0.190661,0.0182275,-0.00752591,0.185218,0.05211034552680682,0.21004917587279048,0.018394634817069377,0.05663665858249778,-0.007497661249608822,-0.09949629500568147
333,0.3206,129.986,121.405,0.525937,125.635,-80.4292,-4.12245,0.0509505,0.0552441,-0.105106,0.191218,0.0182441,-0.00754448,0.18577,0.0522708045891922,0.21072336100688105,0.018411540308322483,0.05679854771898385,-0.007516091846910822,-0.0997709067552841
334,0.3216,130.094,121.5,0.526597,125.737,-80.5007,-4.1255,0.051103,0.0553972,-0.105411,0.191774,0.0182607,-0.00756304,0.186323,0.05243128812345055,0.21139671036937724,0.018428446080209104,0.05696035596274451,-0.007534512177304942,-0.10004543476107464
335,0.3226,130.202,121.596,0.527254,125.839,-80.572,-4.12855,0.0512554,0.0555502,-0.105715,0.19233,0.0182772,-0.00758159,0.186875,0.05259169087413973,0.21207043421821647,0.018445250288203763,0.05712208326903023,-0.0075529222413501795,-0.10031897936802037
336,0.3236,130.31,121.691,0.527908,125.94,-80.6431,-4.13159,0.0514078,0.0557031,-0.10602,0.192885,0.0182937,-0.00760013,0.187427,0.05275211807207092,0.21274332001774487,0.018462054773470182,0.05728372959310879,-0.0075713220396051994,-0.10059334023715372
337,0.3246,130.418,121.786,0.528559,126.041,-80.714,-4.13463,0.0515601,0.0558559,-0.106324,0.193441,0.0183102,-0.00761866,0.187978,0.05291246442971853,0.21341779278973005,0.018478859536012804,0.05744529489026484,-0.007589711572628222,-0.1008667183061498
338,0.3256,130.526,121.88,0.529208,126.142,-80.7848,-4.13766,0.0517123,0.0560087,-0.106628,0.193996,0.0183265,-0.00763719,0.18853,0.053072729902697846,0.21409142658081404,0.018495460876723824,0.057606884876484576,-0.007608100764896375,-0.10114001328084377
339,0.3266,130.633,121.975,0.529855,126.243,-80.8553,-4.14069,0.0518645,0.0561614,-0.106932,0.194551,0.0183429,-0.00765571,0.189081,0.05323301976993844,0.21476543434241924,0.018512164339250292,0.05776839377869614,-0.007626479692680821,-0.10141322518649265
340,0.3276,130.74,122.069,0.530499,126.343,-80.9257,-4.14372,0.0520166,0.0563141,-0.107236,0.195105,0.0183592,-0.00767422,0.189632,0.05339322869582541,0.21543860084294852,0.018528766222833948,0.05792992734520008,-0.0076448483565392245,-0.10168635404834547
341,0.3286,130.847,122.163,0.53114,126.443,-80.996,-4.14675,0.0521687,0.0564666,-0.10754,0.19566,0.0183754,-0.00769272,0.190183,0.05355346199134314,0.21611335649378938,0.01854526652249877,0.058091273961486944,-0.0076632067570289175,-0.10195939989164382
342,0.3296,130.953,122.257,0.531467,126.543,-81.066,-4.14976,0.0523207,0.0566191,-0.107843,0.196214,0.0183916,-0.00771122,0.190734,0.053713614288832146,0.2167872699500779,0.01856176708947066,0.058252645185009166,-0.007681564817891284,-0.1022314649735353
343,0.3306,131.06,122.351,0.533259,126.643,-81.1365,-4.15247,0.0524727,0.0567715,-0.108147,0.196768,0.0184077,-0.00772972,0.191284,0.0538737909313205,0.21746155685785795,0.018578166065932322,0.05841393517812077,-0.007699922539132653,-0.1025043451282982
344,0.3316,131.165,122.444,0.532378,126.742,-81.2057,-4.15573,0.0526246,0.0569238,-0.10845,0.197322,0.0184239,-0.00774822,0.191834,0.054033886519115004,0.21813621742407885,0.018594667165881207,0.05857514389618057,-0.007718279920759463,-0.10277624511679584
345,0.3326,131.271,122.538,0.534274,126.841,-81.2756,-4.15871,0.0527764,0.0570761,-0.108753,0.197876,0.0184399,-0.00776671,0.192384,0.05419390100788113,0.2188112518558043,0.018610964810936492,0.058736377168197906,-0.007736627040143995,-0.10304806273207712
346,0.3336,131.376,122.63,0.533896,126.94,-81.3449,-4.16164,0.0529282,0.0572282,-0.109056,0.198429,0.0184559,-0.0077852,0.192934,0.0543539397886903,0.2194854408741631,0.01862726271675652,0.058897423218406963,-0.007754973820293554,-0.1033197979990974
347,0.3346,131.482,122.723,0.5353,127.039,-81.4143,-4.16467,0.0530799,0.0573804,-0.109359,0.198982,0.0184719,-0.00780367,0.193483,0.05451389741383528,0.22016000282215464,0.018643560883344845,0.05905859967143767,-0.007773300416680451,-0.10359145094280431
348,0.3356,131.587,122.815,0.535291,127.138,-81.4834,-4.16757,0.0532315,0.0575324,-0.109662,0.199535,0.0184878,-0.00782214,0.194033,0.054673773839009954,0.2208349379060659,0.018659757444725367,0.05921958881345257,-0.0077916266745782226,-0.1038630215881382
349,0.3366,131.692,122.908,0.536409,127.236,-81.5524,-4.1706,0.0533831,0.0576843,-0.109965,0.200087,0.0185037,-0.0078406,0.194582,0.05483367450328824,0.22150902482266255,0.018675954263633,0.05938049648962207,-0.0078099426720926735,-0.1041345099600316
350,0.3376,131.796,123.0,0.536636,127.334,-81.6211,-4.1735,0.0535347,0.0578362,-0.110267,0.20064,0.0185195,-0.00785904,0.19513,0.05499359941034454,0.22218470612204966,0.018692049470862226,0.05954142860952372,-0.0078282384880618,-0.10440502048887779
351,0.3386,131.9,123.092,0.537562,127.432,-81.6898,-4.1765,0.0536862,0.057988,-0.11057,0.201192,0.0185353,-0.00787749,0.195679,0.055153443048505,0.2228595383163794,0.018708144932397586,0.059702279206638176,-0.007846543888193946,-0.10467634465998188
352,0.3396,132.005,123.183,0.537932,127.53,-81.7582,-4.1794,0.0538376,0.0581398,-0.110872,0.201744,0.018551,-0.00789592,0.196227,0.0553132053734855,0.22353474312091115,0.01872413877582435,0.05986315422272659,-0.007864829107891214,-0.10494669157945502
353,0.3406,132.108,123.275,0.538735,127.627,-81.8265,-4.18238,0.053989,0.0582914,-0.111174,0.202295,0.0185666,-0.00791435,0.196776,0.055472991888313006,0.2242090965316743,0.018740030996348356,0.06002384165670649,-0.007883113990595048,-0.10521695686648558
354,0.3416,132.212,123.366,0.539193,127.724,-81.8946,-4.18529,0.0541403,0.058443,-0.111476,0.202847,0.0185823,-0.00793277,0.197324,0.055632697033375145,0.2248850464979868,0.018756025340390226,0.06018455345274787,-0.007901388615325522,-0.10548714054572284
355,0.3426,132.316,123.458,0.539918,127.821,-81.9626,-4.18825,0.0542915,0.0585945,-0.111778,0.203398,0.0185978,-0.00795119,0.197871,0.05579232076441665,0.22556014413092496,0.018771816181161638,0.060345183580021056,-0.007919662903440594,-0.10575724264180864
356,0.3436,132.419,123.548,0.540429,127.918,-82.0304,-4.19117,0.0544427,0.0587459,-0.11208,0.203949,0.0186134,-0.00796959,0.198419,0.055951968632390825,0.226235613845158,0.01878770914545891,0.060505731994023204,-0.007937917013704832,-0.10602726317937738
357,0.3446,132.522,123.639,0.541104,128.015,-82.098,-4.19411,0.0545939,0.0588973,-0.112381,0.2045,0.0186288,-0.00798799,0.198966,0.056111640640947646,0.226911455845759,0.018803398596988208,0.0606663047168956,-0.007956170788096517,-0.10629630847981142
358,0.3456,132.624,123.73,0.541645,128.111,-82.1655,-4.19702,0.0547449,0.0590486,-0.112683,0.20505,0.0186443,-0.00800638,0.199513,0.05627112553949121,0.22758644275085782,0.018819190172050915,0.06082679566963356,-0.007974414306366029,-0.10656616624407711
359,0.3466,132.727,123.82,0.542287,128.207,-82.2328,-4.19995,0.054896,0.0591998,-0.112984,0.2056,0.0186597,-0.00802476,0.20006,0.0564307401651416,0.2282618010008648,0.01883488010839174,0.060987204807764206,-0.007992647569066924,-0.10683504935909871
360,0.3476,132.829,123.91,0.542846,128.303,-82.3,-4.20286,0.0550469,0.059351,-0.113286,0.20615,0.018675,-0.00804313,0.200607,0.05659016759232949,0.22893753080007606,0.018850468401307552,0.06114763820159008,-0.008010870576752205,-0.10710474444818407
361,0.3486,132.931,124.0,0.543466,128.399,-82.367,-4.20577,0.0551978,0.059502,-0.113587,0.2067,0.0186903,-0.0080615,0.201153,0.05674961907893117,0.22961363235289967,0.01886605693272614,0.06130788359318107,-0.008029093249683927,-0.1073734654755617
362,0.3496,133.033,124.09,0.544033,128.495,-82.4338,-4.20868,0.0553487,0.059653,-0.113888,0.20725,0.0187056,-0.00807986,0.201699,0.05690909462857774,0.23029010586385645,0.01888164570265083,0.061468153183653174,-0.008047305668341331,-0.10764210563008203
363,0.3506,133.135,124.179,0.544638,128.59,-82.5005,-4.21159,0.0554995,0.059804,-0.114189,0.207799,0.0187208,-0.00809821,0.202245,0.05706848853804658,0.23096572057124387,0.0188971328213674,0.06162844697666059,-0.008065507833276975,-0.10791066493608414
364,0.3516,133.236,124.269,0.545209,128.685,-82.567,-4.21448,0.0556502,0.0599548,-0.114489,0.208348,0.0187359,-0.00811656,0.202791,0.05722780076314371,0.23164170629293945,0.018912518284232904,0.06178855261812677,-0.008083709664205907,-0.10817825159659733
365,0.3526,133.337,124.358,0.545802,128.78,-82.6334,-4.21738,0.0558009,0.0601056,-0.11479,0.208897,0.0187511,-0.0081349,0.203337,0.0573871369984027,0.23231806323268622,0.018928005872216325,0.061948682405344124,-0.008101901242153375,-0.10844664954694883
366,0.3536,133.438,124.447,0.546374,128.875,-82.6996,-4.22027,0.0559515,0.0602563,-0.11509,0.209446,0.0187661,-0.00815323,0.203882,0.057546391492796944,0.2329947915943391,0.01894328990693439,0.06210873013107565,-0.008120082567671272,-0.10871407543619571
367,0.3546,133.539,124.536,0.546958,128.969,-82.7657,-4.22316,0.0561021,0.0604069,-0.115391,0.209994,0.0187812,-0.00817155,0.204427,0.057705669972724305,0.2336706579105896,0.018958676066777036,0.062268695750942404,-0.008138253641311155,-0.10898231212784204
368,0.3556,133.64,124.624,0.547528,129.064,-82.8316,-4.22605,0.0562526,0.0605575,-0.115691,0.210542,0.0187961,-0.00818987,0.204972,0.05786486665530499,0.23434689470308268,0.01897385866416057,0.062428685463445266,-0.00815642438205988,-0.10924957734241703
369,0.3566,133.74,124.713,0.548105,129.158,-82.8973,-4.22893,0.056403,0.060708,-0.115991,0.21109,0.0188111,-0.00820818,0.205517,0.0580239814963861,0.23502350217489498,0.018989143386675567,0.06258859301334896,-0.008174584871669666,-0.1095167623894534
370,0.3576,133.84,124.801,0.548673,129.252,-82.9629,-4.2318,0.0565534,0.0608584,-0.116291,0.211638,0.018826,-0.00822648,0.206061,0.058183120270139055,0.23570048052921422,0.01900432643802552,0.06274841835630274,-0.008192735110691296,-0.10978386729299772
371,0.3586,133.94,124.889,0.549243,129.345,-83.0284,-4.23468,0.0567037,0.0610087,-0.116591,0.212186,0.0188408,-0.00824477,0.206605,0.05834217714594048,0.23637782996933998,0.01901940781365874,0.06290816144797429,-0.008210875099675441,-0.11005089207708951
372,0.3596,134.04,124.977,0.549808,129.439,-83.0937,-4.23755,0.056854,0.061159,-0.116891,0.212733,0.0188556,-0.00826306,0.207149,0.058501257929786776,0.23705431364375062,0.019034489412497857,0.06306792855083687,-0.008229014756882203,-0.11031783676576101
373,0.3606,134.139,125.065,0.550373,129.532,-83.1589,-4.24041,0.0570042,0.0613092,-0.11719,0.21328,0.0188704,-0.00828134,0.207693,0.058660256759241136,0.2377311674559548,0.019049571234546425,0.06322761334573301,-0.00824714416478911,-0.11058381196729383
374,0.3616,134.238,125.152,0.550933,129.625,-83.2239,-4.24327,0.0571543,0.0614593,-0.11749,0.213827,0.0188851,-0.00829961,0.208237,0.0588191735901904,0.23840839160847294,0.019064551373347394,0.06338721578835993,-0.008265263323946281,-0.11085059680397724
375,0.3626,134.337,125.24,0.551494,129.718,-83.2887,-4.24613,0.0573044,0.0616094,-0.117789,0.214373,0.0188998,-0.00831788,0.20878,0.05897811427634636,0.23908474721856998,0.01907953173235799,0.06354684218911144,-0.008283382152069363,-0.11111641273407102
376,0.3636,134.436,125.327,0.55205,129.811,-83.3534,-4.24898,0.0574545,0.0617594,-0.118088,0.21492,0.0189145,-0.00833614,0.209323,0.059137078821289935,0.23976271198175692,0.019094512311581324,0.06370638618094016,-0.00830149073217934,-0.11138214919708256
377,0.3646,134.535,125.414,0.552605,129.904,-83.418,-4.25183,0.0576045,0.0619093,-0.118387,0.215466,0.0189291,-0.00835439,0.209866,0.059295961299001165,0.24043980725268677,0.01910939120007682,0.06386584771957238,-0.008319589064825772,-0.11164780621676895
378,0.3656,134.633,125.501,0.553157,129.996,-83.4824,-4.25468,0.0577544,0.0620592,-0.118686,0.216012,0.0189436,-0.00837263,0.210409,0.05945476166538999,0.2411172723185795,0.0191241683933836,0.06402533316328096,-0.008337677150557332,-0.11191338381688043
379,0.3666,134.731,125.587,0.553708,130.088,-83.5467,-4.25752,0.0579043,0.0622089,-0.118985,0.216557,0.0189582,-0.00839087,0.210951,0.05961358583773779,0.24179386558691163,0.01913904771486097,0.06418462967870209,-0.008355764906365248,-0.11217888202115966
380,0.3676,134.829,125.674,0.554255,130.18,-83.6109,-4.26036,0.0580541,0.0623586,-0.119284,0.217103,0.0189726,-0.0084091,0.211494,0.05977232784237563,0.24247207017052474,0.01915372342281274,0.06434395004259663,-0.008373842415994037,-0.11244430085334245
381,0.3686,134.927,125.76,0.554801,130.272,-83.6749,-4.2632,0.0582038,0.0625083,-0.119582,0.217648,0.0189871,-0.00842732,0.212036,0.05993098763524296,0.24314940200492718,0.01916850125894154,0.06450329425853507,-0.008391909679991927,-0.11270875304635442
382,0.3696,135.025,125.846,0.555345,130.364,-83.7387,-4.26603,0.0583535,0.0626578,-0.119881,0.218193,0.0190015,-0.00844554,0.212578,0.06008967118125885,0.24382710308578992,0.019183177391027595,0.06466244939757693,-0.008409976614807357,-0.11297401347078384
383,0.3706,135.122,125.932,0.555886,130.455,-83.8024,-4.26886,0.0585032,0.0628073,-0.120179,0.218737,0.0190158,-0.00846375,0.213119,0.060248378483980014,0.24450392910985563,0.019197751814671093,0.06482162833209082,-0.008428033304726523,-0.11323830783295374
384,0.3716,135.219,126.018,0.556425,130.546,-83.866,-4.27168,0.0586527,0.0629567,-0.120477,0.219282,0.0190301,-0.00848195,0.213661,0.06040689746556205,0.2451823686091914,0.01921232644673032,0.06498072456755644,-0.008446079750297208,-0.11350252344713774
385,0.3726,135.316,126.103,0.556962,130.637,-83.9294,-4.2745,0.0588023,0.0631061,-0.120775,0.219826,0.0190444,-0.00850014,0.214202,0.060565546204052634,0.24585993209827417,0.019226901287208387,0.06513984457377542,-0.008464115952066753,-0.11376666033679927
386,0.3736,135.413,126.189,0.557497,130.728,-83.9927,-4.27731,0.0589517,0.0632553,-0.121073,0.22037,0.0190586,-0.00851833,0.214743,0.06072400653334742,0.24653786428217095,0.019241374411965717,0.06529877529452266,-0.008482151825760842,-0.1140307185253947
387,0.3746,135.51,126.274,0.55803,130.819,-84.0558,-4.28013,0.0591011,0.0634046,-0.121371,0.220914,0.0190728,-0.00853651,0.215283,0.06088249053838379,0.24721616536150615,0.01925584774224265,0.0654578362752809,-0.008500177456387203,-0.11429469803637338
388,0.3756,135.606,126.359,0.55856,130.909,-84.1189,-4.28293,0.0592505,0.0635537,-0.121669,0.221458,0.019087,-0.00855469,0.215824,0.06104099822269937,0.24789483553701364,0.019270321278042513,0.0656167078822536,-0.008518202759310478,-0.11455859889317799
389,0.3766,135.702,126.444,0.559088,130.999,-84.1817,-4.28574,0.0593998,0.0637028,-0.121966,0.222001,0.0191011,-0.00857285,0.216364,0.061199423469884495,0.24857262643628553,0.019284693090893645,0.06577560317874864,-0.008536207905261217,-0.11482153594122224
390,0.3776,135.798,126.529,0.559614,131.09,-84.2445,-4.28854,0.059549,0.0638518,-0.122264,0.222544,0.0191152,-0.00859101,0.216904,0.0613577662359428,0.24925078547595692,0.01929906510638868,0.06593441557485202,-0.008554212724241395,-0.11508527982372152
391,0.3786,135.894,126.613,0.560138,131.179,-84.3071,-4.29133,0.0596982,0.0640007,-0.122561,0.223087,0.0191292,-0.00860917,0.217444,0.061516132628504305,0.24992931285598208,0.0193133353931918,0.06609314502644548,-0.008572217216257005,-0.11534806047075608
392,0.3796,135.99,126.698,0.56066,131.269,-84.3695,-4.29413,0.0598473,0.0641495,-0.122858,0.22363,0.0191432,-0.00862731,0.217984,0.061674416483647354,0.2506082087764243,0.019327605879780663,0.06625179148942961,-0.008590201553118293,-0.11561076308352725
393,0.3806,136.085,126.782,0.56118,131.359,-84.4319,-4.29691,0.0599964,0.0642983,-0.123155,0.224172,0.0191572,-0.00864545,0.218523,0.06183272394067285,0.2512862221506076,0.01934187656615749,0.06641046156076369,-0.008608185563746651,-0.11587338768520761
394,0.3816,136.18,126.866,0.561697,131.448,-84.4941,-4.2997,0.0601454,0.064447,-0.123452,0.224715,0.0191711,-0.00866359,0.219063,0.06199094880399958,0.2519658550728747,0.01935604551671566,0.06656904858705115,-0.008626169248147963,-0.11613593429896307
395,0.3826,136.275,126.95,0.562213,131.537,-84.5561,-4.30248,0.0602943,0.0645957,-0.123749,0.225257,0.019185,-0.00868171,0.219602,0.06214909102967292,0.2526446044908004,0.01937021466422384,0.06672765919698254,-0.008644132779211167,-0.11639840294795256
396,0.3836,136.37,127.033,0.562726,131.626,-84.618,-4.30526,0.0604432,0.0647443,-0.124046,0.225798,0.0191988,-0.00869983,0.220141,0.06230725680447691,0.2533224685675295,0.019384282070251002,0.06688618670544133,-0.008662095984778073,-0.11666079365532822
397,0.3846,136.465,127.117,0.563237,131.715,-84.6798,-4.30803,0.0605921,0.0648928,-0.124342,0.22634,0.0192126,-0.00871794,0.220679,0.06246544613191829,0.25400195346926746,0.019398349670409765,0.06704463106836989,-0.008680048951655195,-0.11692222336690006
398,0.3856,136.559,127.2,0.563746,131.804,-84.7415,-4.3108,0.0607408,0.0650412,-0.124639,0.226881,0.0192264,-0.00873605,0.221218,0.06262344649079377,0.2546805520704649,0.01941241746470279,0.06720299224172899,-0.008698001593406945,-0.11718445852271187
399,0.3866,136.654,127.284,0.564253,131.892,-84.803,-4.31356,0.0608896,0.0651896,-0.124935,0.227422,0.0192402,-0.00875415,0.221756,0.06278157662422168,0.25535951789282985,0.019426485453132747,0.06736137691762978,-0.008715943997198883,-0.11744573325242147
400,0.3876,136.748,127.367,0.564758,131.981,-84.8644,-4.31633,0.0610382,0.0653379,-0.125231,0.227963,0.0192539,-0.00877224,0.222294,0.06293951770123929,0.25603885113508285,0.019440451691651983,0.06751967834758754,-0.008733876163575016,-0.11770693065625593
401,0.3886,136.842,127.45,0.565261,132.069,-84.9257,-4.31908,0.0611868,0.0654861,-0.125527,0.228504,0.0192675,-0.00879033,0.222831,0.06309748225004519,0.256718551996052,0.019454316176073183,0.06767789648759326,-0.008751808005561301,-0.11796805075710026
402,0.3896,136.935,127.532,0.565762,132.157,-84.9868,-4.32184,0.0613354,0.0656343,-0.125823,0.229044,0.0192811,-0.00880841,0.223369,0.06325547027412681,0.2573973632766804,0.019468180849052663,0.06783613807726496,-0.008769729610860755,-0.11822909357783273
403,0.3906,137.029,127.615,0.566261,132.244,-85.0479,-4.32459,0.0614839,0.0657824,-0.126119,0.229585,0.0192947,-0.00882648,0.223906,0.06341337543563075,0.2580777992915593,0.019482045710593088,0.06799429632064302,-0.008787640980016942,-0.11849005914132482
404,0.3916,137.122,127.697,0.566757,132.332,-85.1087,-4.32733,0.0616323,0.0659304,-0.126415,0.230125,0.0193083,-0.00884454,0.224443,0.06357119769066699,0.2587573447639413,0.0194959107606969,0.06815237117374906,-0.008805542113573095,-0.11875094747044146
405,0.3926,137.215,127.779,0.567252,132.42,-85.1695,-4.33007,0.0617807,0.0660783,-0.12671,0.230664,0.0193218,-0.0088626,0.22498,0.06372904336826402,0.2594359978533465,0.01950967404839421,0.06831036259262313,-0.008823442923837743,-0.11901087759935869
406,0.3936,137.308,127.862,0.567744,132.507,-85.2301,-4.33281,0.061929,0.0662262,-0.127006,0.231204,0.0193353,-0.00888065,0.225517,0.06388680608321162,0.2601162769510128,0.019523437521897113,0.06846837738015599,-0.008841333499229997,-0.11927161178902546
407,0.3946,137.401,127.943,0.568235,132.594,-85.2906,-4.33555,0.0620773,0.066374,-0.127301,0.231743,0.0193487,-0.0088987,0.226053,0.06404459219610481,0.26079566270230137,0.019537099227493027,0.06862630867716812,-0.00885922375170034,-0.11953138834462185
408,0.3956,137.493,128.025,0.568723,132.681,-85.351,-4.33828,0.0622255,0.0665218,-0.127596,0.232282,0.0193621,-0.00891674,0.22659,0.06420229529017885,0.2614754147412155,0.019550761116157167,0.06878426331815124,-0.008877103770025596,-0.11979108827743667
409,0.3966,137.586,128.107,0.56921,132.768,-85.4112,-4.341,0.0623737,0.0666695,-0.127891,0.232821,0.0193755,-0.00893477,0.227126,0.06436002175758349,0.26215553326523766,0.019564423187891755,0.06894213441233643,-0.008894973554748109,-0.12005071161007053
410,0.3976,137.678,128.188,0.569694,132.854,-85.4714,-4.34373,0.0625218,0.0668171,-0.128186,0.23336,0.0193888,-0.0089528,0.227662,0.06451766515001078,0.26283601847195626,0.019577983484895922,0.06909992191580705,-0.008912843017281236,-0.12031025836511688
411,0.3986,137.77,128.27,0.570177,132.941,-85.5314,-4.34645,0.0626698,0.0669646,-0.128481,0.233898,0.0194021,-0.00897081,0.228197,0.0646752254236258,0.2635156070428277,0.019591543962253377,0.06925762578466399,-0.008930692336244883,-0.12056972856516301
412,0.3996,137.862,128.351,0.570657,133.027,-85.5912,-4.34916,0.0628178,0.0671121,-0.128776,0.234436,0.0194154,-0.00898883,0.228733,0.06483280901788668,0.2641955613307194,0.01960510461996612,0.06941535291655732,-0.00894855124425975,-0.12082912223278919
413,0.4006,137.954,128.432,0.571136,133.113,-85.651,-4.35187,0.0629657,0.0672595,-0.12907,0.234974,0.0194286,-0.00900683,0.229268,0.06499030943720929,0.2648758815324401,0.019618563496175634,0.06957299635761349,-0.008966390009787939,-0.12108756047856906
414,0.4016,138.045,128.513,0.571612,133.199,-85.7106,-4.35458,0.0631136,0.0674068,-0.129365,0.235512,0.0194418,-0.00902483,0.229803,0.06514783315256678,0.26555656784490433,0.01963202255004326,0.06973055606396428,-0.00898422845422131,-0.12134680140831067
415,0.4026,138.137,128.593,0.572086,133.285,-85.7701,-4.35728,0.0632614,0.0675541,-0.129659,0.23605,0.019455,-0.00904283,0.230337,0.06530527363687177,0.26623762046513244,0.01964548178157166,0.06988813898056945,-0.009002066577565526,-0.12160508747878385
416,0.4036,138.228,128.674,0.572559,133.37,-85.8295,-4.35998,0.0634091,0.0677013,-0.129953,0.236587,0.0194681,-0.00906081,0.230872,0.06546263084633197,0.26691777267184524,0.019658839224873992,0.07004563810627862,-0.00901988456022429,-0.1218632976243138
417,0.4046,138.319,128.754,0.573029,133.456,-85.8888,-4.36268,0.0635568,0.0678485,-0.130247,0.237124,0.0194812,-0.00907879,0.231406,0.06562001129916828,0.2675982902183778,0.019672196843160128,0.07020316041756569,-0.009037702222518651,-0.12212143186721924
418,0.4056,138.409,128.834,0.573498,133.541,-85.9479,-4.36537,0.0637045,0.0679955,-0.130541,0.237661,0.0194943,-0.00909676,0.23194,0.06577741499881418,0.2682791733009706,0.019685554636432068,0.07036049184572368,-0.009055509655009453,-0.1223794902298121
419,0.4066,138.5,128.915,0.573965,133.626,-86.0069,-4.36805,0.0638521,0.0681425,-0.130835,0.238198,0.0195073,-0.00911473,0.232474,0.06593473535522465,0.26896042211596916,0.019698810634806163,0.07051784640330161,-0.009073316767503559,-0.12263747273439818
420,0.4076,138.59,128.995,0.574429,133.711,-86.0658,-4.37074,0.0639996,0.0682895,-0.131129,0.238734,0.0195203,-0.00913269,0.233008,0.06609197232463093,0.26964076721842245,0.0197120668055093,0.07067522409369964,-0.00909111365091797,-0.12289537940327622
421,0.4086,138.681,129.074,0.574892,133.796,-86.1246,-4.37342,0.0641471,0.0684363,-0.131422,0.23927,0.0195333,-0.00915065,0.233542,0.06624923248820092,0.2703214770835982,0.019725323148543916,0.07083241075381519,-0.00910891021470317,-0.12315233341151055
422,0.4096,138.771,129.154,0.575353,133.88,-86.1833,-4.37609,0.0642945,0.0685831,-0.131716,0.239806,0.0195462,-0.00916859,0.234075,0.06640640920870933,0.271002551907062,0.019738477690059097,0.07098962049062618,-0.009126686641398818,-0.1234100887335986
423,0.4106,138.861,129.233,0.575812,133.965,-86.2418,-4.37876,0.0644419,0.0687299,-0.132009,0.240342,0.0195591,-0.00918654,0.234608,0.06656360909877401,0.27168399188448356,0.01975163240126898,0.07114685330752057,-0.009144472657743652,-0.12366689195409075
424,0.4116,138.951,129.313,0.576268,134.049,-86.3002,-4.38143,0.0645892,0.0688765,-0.132302,0.240878,0.0195719,-0.00920447,0.235141,0.0667207254897324,0.272365797211638,0.0197646853057023,0.07130389494708655,-0.009162238538077294,-0.1239236199422612
425,0.4126,139.04,129.392,0.576723,134.133,-86.3586,-4.3841,0.0647364,0.0690231,-0.132595,0.241413,0.0195848,-0.0092224,0.235673,0.06687775833785858,0.2730466950370736,0.019777840354992415,0.07146095961064436,-0.00918000409987163,-0.12418027272015009
426,0.4136,139.13,129.471,0.577177,134.217,-86.4167,-4.38676,0.0648836,0.0691697,-0.132888,0.241948,0.0195976,-0.00924032,0.236206,0.06703481430292135,0.2737279572403084,0.019790893594889614,0.07161804730156951,-0.009197759435109809,-0.12443685030979068
427,0.4146,139.219,129.55,0.577628,134.301,-86.4748,-4.38941,0.0650307,0.0693161,-0.133181,0.242483,0.0196103,-0.00925823,0.236738,0.06719178666913961,0.2744095840163363,0.019803845021479694,0.07177494366822845,-0.0092155045443304,-0.1246933527332098
428,0.4156,139.308,129.629,0.578077,134.384,-86.5328,-4.39207,0.0651778,0.0694625,-0.133474,0.243017,0.0196231,-0.00927614,0.23727,0.06734878212769169,0.27509030046931815,0.01981689859423863,0.0719318630061967,-0.009233249335738991,-0.12494978001242807
429,0.4166,139.397,129.707,0.578524,134.468,-86.5906,-4.39471,0.0653248,0.0696088,-0.133767,0.243552,0.0196358,-0.00929405,0.237802,0.06750569393139938,0.2757726562939766,0.019829850351094302,0.07208869810996266,-0.009250993809341135,-0.12520613216945942
430,0.4176,139.486,129.786,0.57897,134.551,-86.6484,-4.39736,0.0654718,0.0697551,-0.134059,0.244086,0.0196484,-0.00931194,0.238333,0.06766262880283769,0.27645410082193345,0.01984270028816315,0.07224555616038275,-0.009268718150517219,-0.12546153468828347
431,0.4186,139.574,129.864,0.579413,134.634,-86.706,-4.4,0.0656187,0.0699013,-0.134351,0.24462,0.0196611,-0.00932983,0.238865,0.06781947996344462,0.27713590933844445,0.01985565237270226,0.07240232992057583,-0.009286442174607612,-0.12571686264045934
432,0.4196,139.662,129.942,0.579855,134.717,-86.7635,-4.40264,0.0657656,0.0700474,-0.134644,0.245154,0.0196737,-0.00934772,0.239396,0.0679763541671794,0.27781808203793146,0.019868502634878604,0.07255901934686126,-0.009304165881618087,-0.12597299007520413
433,0.4206,139.751,130.02,0.580295,134.8,-86.8209,-4.40527,0.0659124,0.0701935,-0.134936,0.245687,0.0196862,-0.00936559,0.239927,0.06813314460410758,0.2784993406149403,0.019881251070839268,0.07271573166714407,-0.00932186945799185,-0.12622816870420916
434,0.4216,139.839,130.098,0.580733,134.883,-86.8782,-4.4079,0.0660591,0.0703395,-0.135228,0.246221,0.0196988,-0.00938347,0.240458,0.06828985123057096,0.2791822415811589,0.01989410165556116,0.07287235959752802,-0.009339582624609766,-0.12648327283193228
435,0.4226,139.927,130.176,0.581169,134.966,-86.9353,-4.41052,0.0662058,0.0704854,-0.13552,0.246754,0.0197113,-0.00940133,0.240988,0.06844658084758293,0.27986422744900996,0.019906850411511412,0.07302890309436383,-0.009357275661664777,-0.12673830248012463
436,0.4236,140.014,130.253,0.581603,135.048,-86.9924,-4.41314,0.0663524,0.0706313,-0.135811,0.247287,0.0197238,-0.00941919,0.241518,0.06860322659818818,0.2805465769122182,0.01991959932682219,0.07318546943256199,-0.009374968382725002,-0.12699238466335228
437,0.4246,140.102,130.331,0.582036,135.13,-87.0493,-4.41576,0.066499,0.0707771,-0.136103,0.247819,0.0197362,-0.00943704,0.242049,0.06875989531474369,0.281228008935982,0.01993224640826563,0.07334195128125476,-0.009392650881722586,-0.12724726567259226
438,0.4256,140.189,130.408,0.582466,135.212,-87.1061,-4.41838,0.0666455,0.0709228,-0.136395,0.248352,0.0197486,-0.00945489,0.242578,0.06891648010896345,0.281911085488475,0.019944893646533846,0.07349834859682414,-0.009410333065090426,-0.12750207226744248
439,0.4266,140.277,130.485,0.582895,135.294,-87.1629,-4.42099,0.066792,0.0710685,-0.136686,0.248884,0.019761,-0.00947273,0.243108,0.06907308784453603,0.28259324362393,0.019957541041628613,0.07365476870114263,-0.009428005027114161,-0.12775593222599724
440,0.4276,140.364,130.563,0.583322,135.376,-87.2195,-4.42359,0.0669384,0.0712141,-0.136977,0.249416,0.0197733,-0.00949056,0.243638,0.06922961160185581,0.2832757647640636,0.019970086596538428,0.0738111042164149,-0.009445666768329586,-0.12800971832205166
441,0.4286,140.451,130.639,0.583747,135.458,-87.276,-4.42619,0.0670847,0.0713596,-0.137268,0.249948,0.0197857,-0.00950839,0.244167,0.06938605133732079,0.28395864910204605,0.01998273430402797,0.07396735509905428,-0.00946332819463902,-0.12826343057709644
442,0.4296,140.538,130.716,0.58417,135.539,-87.3324,-4.42879,0.067231,0.0715051,-0.13756,0.25048,0.019798,-0.00952621,0.244696,0.0695425139615935,0.2846418968311495,0.019995280168816798,0.07412362871785128,-0.009480979400857903,-0.12851794049511145
443,0.4306,140.624,130.793,0.584592,135.621,-87.3886,-4.43139,0.0673773,0.0716505,-0.13785,0.251011,0.0198102,-0.00954402,0.245225,0.06969899947802238,0.28532422281988445,0.02000772418714325,0.07427981764812697,-0.009498620387521362,-0.12877063365008945
444,0.4316,140.711,130.869,0.585011,135.702,-87.4448,-4.43398,0.0675235,0.0717959,-0.138141,0.251542,0.0198225,-0.00956183,0.245753,0.06985540090441189,0.28600691121993105,0.020020270359309533,0.07443602928992421,-0.009516261060001585,-0.12902412451098821
445,0.4326,140.797,130.946,0.585429,135.783,-87.5009,-4.43656,0.0676696,0.0719411,-0.138432,0.252073,0.0198347,-0.00957963,0.246282,0.07001171819718421,0.28668996222378085,0.020032714682518105,0.0745920487281142,-0.009533891513643145,-0.1292775416167783
446,0.4336,140.883,131.022,0.585845,135.864,-87.5568,-4.43915,0.0678157,0.0720863,-0.138722,0.252604,0.0198468,-0.00959743,0.24681,0.0701680583295814,0.2873733760240278,0.020045057153037504,0.07474809082197131,-0.009551521653465511,-0.12953001451936919
447,0.4346,140.969,131.098,0.58626,135.945,-87.6127,-4.44172,0.0679617,0.0722315,-0.139013,0.253134,0.019859,-0.00961522,0.247338,0.07032431427250363,0.28805586475685874,0.020057501778646847,0.07490415557478558,-0.00956914157516564,-0.12978328443258436
448,0.4356,141.055,131.174,0.586672,136.025,-87.6684,-4.4443,0.0681076,0.0723766,-0.139303,0.253665,0.0198711,-0.009633,0.247866,0.0704804859824053,0.2887400040439503,0.020069844549091886,0.07506013548382828,-0.009586751279277772,-0.1300356106910231
449,0.4366,141.141,131.25,0.587083,136.106,-87.7241,-4.44687,0.0682535,0.0725216,-0.139593,0.254195,0.0198832,-0.00965078,0.248394,0.07063668047942162,0.2894232172816087,0.02008218746888546,0.07521603050558934,-0.009604360670292023,-0.1302878637854561
450,0.4376,141.226,131.326,0.587492,136.186,-87.7796,-4.44944,0.0683994,0.0726665,-0.139884,0.254725,0.0198952,-0.00966855,0.248921,0.07079289776687747,0.29010679271825723,0.020094428528581343,0.07537184059657798,-0.009621959844433814,-0.13054091319661953
451,0.4386,141.311,131.401,0.587899,136.266,-87.835,-4.452,0.0685452,0.0728114,-0.140173,0.255254,0.0199073,-0.00968632,0.249448,0.07094903075319015,0.2907894397558273,0.020106771745842966,0.07552767326608478,-0.00963955870584099,-0.13079215056715698
452,0.4396,141.397,131.476,0.588304,136.346,-87.8903,-4.45456,0.0686909,0.0729562,-0.140463,0.255784,0.0199193,-0.00970408,0.249975,0.07110507939483823,0.29147373948230704,0.020119013100551753,0.0756834209490338,-0.0096571473510908,-0.1310441842968354
453,0.4406,141.482,131.552,0.588708,136.426,-87.9455,-4.45712,0.0688366,0.073101,-0.140753,0.256313,0.0199312,-0.00972183,0.250502,0.07126115077443007,0.29215710982601295,0.020131152589037526,0.07583919118588023,-0.009674725780716265,-0.13129614494732922
454,0.4416,141.567,131.627,0.58911,136.506,-88.0007,-4.45967,0.0689822,0.0732457,-0.141043,0.256842,0.0199432,-0.00973958,0.251029,0.07141713775355929,0.29284084176826486,0.02014339423631828,0.07599487638039704,-0.009692303898327426,-0.13154803253982827
455,0.4426,141.651,131.702,0.58951,136.585,-88.0557,-4.46222,0.0691278,0.0733903,-0.141332,0.257371,0.0199551,-0.00975732,0.251555,0.07157314744604615,0.29352493550039926,0.0201555340149413,0.07615047648913831,-0.009709871801028447,-0.1317989788949293
456,0.4436,141.736,131.777,0.589908,136.665,-88.1106,-4.46476,0.0692733,0.0735348,-0.141622,0.257899,0.019967,-0.00977505,0.252081,0.07172907268228546,0.2942080970051095,0.02016767393802854,0.07630599146867767,-0.009727429489352124,-0.13205072068672574
457,0.4446,141.82,131.852,0.590305,136.744,-88.1654,-4.4673,0.0694188,0.0736793,-0.141911,0.258428,0.0199788,-0.00979278,0.252607,0.07188502060729718,0.294892914206605,0.020179711987605264,0.07646152892175517,-0.00974498686638059,-0.1323015217859428
458,0.4456,141.905,131.926,0.5907,136.823,-88.2201,-4.46984,0.0695642,0.0738238,-0.1422,0.258956,0.0199906,-0.0098105,0.253133,0.07204088402028908,0.295576798194791,0.020191750179231915,0.07661708885161866,-0.00976253402974503,-0.13255225041411478
459,0.4466,141.989,132.001,0.591093,136.903,-88.2747,-4.47237,0.0697095,0.0739681,-0.142489,0.259484,0.0200024,-0.00982822,0.253658,0.07219666287779702,0.29626104336906756,0.020203788512910048,0.07677245590700332,-0.009780080882176412,-0.13280290659218275
460,0.4476,142.073,132.075,0.591484,136.981,-88.3292,-4.4749,0.0698548,0.0741124,-0.142778,0.260011,0.0200142,-0.00984593,0.254184,0.07235246437161758,0.2969443529751896,0.02021582698864144,0.07692784538347186,-0.009797617521656643,-0.13305349034108183
461,0.4486,142.157,132.149,0.591874,137.06,-88.3836,-4.47743,0.0700001,0.0742567,-0.143067,0.260539,0.0200259,-0.00986364,0.254709,0.07250828850503988,0.2976293204090499,0.020227763583646086,0.07708325728425969,-0.009815153850565639,-0.13330400168174095
462,0.4496,142.24,132.224,0.592262,137.139,-88.4379,-4.47995,0.0701452,0.0744008,-0.143355,0.261066,0.0200377,-0.00988133,0.255234,0.07266392074854822,0.2983133512872107,0.02023980234228495,0.0772384761648861,-0.009832670065562654,-0.13355357418909053
463,0.4506,142.324,132.298,0.592649,137.217,-88.492,-4.48247,0.0702904,0.074545,-0.143644,0.261593,0.0200494,-0.00989903,0.255758,0.07281968285789642,0.2989977427446484,0.02025173921780299,0.07739382515354198,-0.009850195872198708,-0.13380394102639936
464,0.4516,142.407,132.371,0.593033,137.296,-88.5461,-4.48498,0.0704354,0.074689,-0.143932,0.26212,0.020061,-0.00991671,0.256283,0.0729752529904728,0.29968249497143873,0.020263574206620616,0.07754898103531938,-0.009867701565984821,-0.13405336957194913
465,0.4526,142.49,132.445,0.593416,137.374,-88.6001,-4.48749,0.0705805,0.074833,-0.144221,0.262647,0.0200726,-0.00993439,0.256807,0.07313095299544403,0.30036760815775687,0.02027540933272509,0.0777041592611527,-0.009885206950273062,-0.1343035919892619
466,0.4536,142.574,132.519,0.593798,137.452,-88.654,-4.49,0.0707254,0.0749769,-0.144509,0.263173,0.0200842,-0.00995207,0.257331,0.07328646093681135,0.30105178144144684,0.02028724459611775,0.07785925204832878,-0.009902712025068872,-0.13455287665605398
467,0.4546,142.657,132.592,0.594177,137.53,-88.7078,-4.4925,0.0708703,0.0751208,-0.144797,0.263699,0.0200958,-0.00996973,0.257855,0.07344199141291186,0.3017363146949481,0.02029907999680014,0.07801436715496268,-0.009920196988781882,-0.13480208953919925
468,0.4556,142.739,132.666,0.594555,137.608,-88.7615,-4.495,0.0710152,0.0752646,-0.145085,0.264225,0.0201074,-0.0099874,0.258379,0.07359754442701139,0.3024212081076538,0.020310915534774043,0.0781693967673216,-0.009937691544336213,-0.13505123065936864
469,0.4566,142.822,132.739,0.594931,137.685,-88.8151,-4.4975,0.07116,0.0754083,-0.145373,0.264751,0.0201189,-0.0100051,0.258902,0.0737530126070689,0.30310646186905843,0.020322649177771046,0.07832434084210216,-0.009955215492108538,-0.1353003000372267
470,0.4576,142.905,132.812,0.595306,137.763,-88.8686,-4.49999,0.0713047,0.0755519,-0.14566,0.265277,0.0201304,-0.0100227,0.259426,0.073908395909704,0.3037920761687545,0.020334382955705665,0.07847919933602099,-0.009972640126978627,-0.13554843324229793
471,0.4586,142.987,132.885,0.595679,137.84,-88.922,-4.50248,0.0714494,0.0756955,-0.145948,0.265802,0.0201419,-0.0100403,0.259949,0.07406380169792981,0.3044767467190366,0.020346116868579678,0.07863408006921602,-0.009990064455177805,-0.13579735944643012
472,0.4596,143.069,132.958,0.59605,137.918,-88.9753,-4.50496,0.071594,0.0758391,-0.146235,0.266327,0.0201533,-0.010058,0.260472,0.07421912255308238,0.3051617768157302,0.020357748880614146,0.07878898304488158,-0.010007587475957758,-0.1360453500159201
473,0.4606,143.151,133.031,0.596419,137.995,-89.0285,-4.50744,0.0717386,0.0759825,-0.146523,0.266852,0.0201647,-0.0100756,0.260994,0.07437446586925467,0.3058471666476468,0.02036938102525454,0.07894369247745137,-0.01002501118908905,-0.1362941331286277
474,0.4616,143.233,133.103,0.596787,138.072,-89.0816,-4.50992,0.0718831,0.076126,-0.14681,0.267377,0.0201761,-0.0100932,0.261517,0.07452972419671688,0.30653291640369695,0.020381013302502193,0.07909853200679229,-0.010042434595565752,-0.1365419811445282
475,0.4626,143.315,133.176,0.597154,138.149,-89.1346,-4.51239,0.0720276,0.0762693,-0.147097,0.267901,0.0201875,-0.0101109,0.262039,0.07468500496062824,0.3072177190545178,0.020392645712358437,0.07925317790654307,-0.010059956689402405,-0.13678975803825477
476,0.4636,143.397,133.248,0.597518,138.225,-89.1876,-4.51486,0.072172,0.0764126,-0.147384,0.268425,0.0201988,-0.0101285,0.262561,0.0748402006802058,0.3079028806359594,0.020404176214402048,0.07940784596863892,-0.01007737948084364,-0.1370374638302163
477,0.4646,143.478,133.32,0.597881,138.302,-89.2404,-4.51733,0.0723164,0.0765558,-0.147671,0.26895,0.0202101,-0.0101461,0.263083,0.0749954188116635,0.30858970992520596,0.020415706846741433,0.07956242824000825,-0.010094801965646494,-0.13728509854081627
478,0.4656,143.559,133.392,0.598243,138.378,-89.2931,-4.51979,0.0724607,0.076699,-0.147958,0.269473,0.0202214,-0.0101637,0.263604,0.07515055184317698,0.30927428134331847,0.02042723760937748,0.07971703264914365,-0.010112224143816295,-0.13753266219045213
479,0.4666,143.641,133.464,0.598602,138.455,-89.3457,-4.52225,0.0726049,0.0768421,-0.148244,0.269997,0.0202327,-0.0101813,0.264126,0.07530559973143691,0.30996052084579007,0.020438768502311744,0.07987155121205514,-0.010129646015358373,-0.13777929257923893
480,0.4676,143.722,133.536,0.59896,138.531,-89.3983,-4.5247,0.0727491,0.0769851,-0.148531,0.27052,0.0202439,-0.0101989,0.264647,0.07546066997921441,0.3106458093855249,0.020450197480521126,0.08002598388555149,-0.01014706758027828,-0.13802671441553682
481,0.4686,143.803,133.608,0.599317,138.607,-89.4507,-4.52715,0.0728933,0.0771281,-0.148817,0.271044,0.0202551,-0.0102165,0.265168,0.07561576258973379,0.3113327677570179,0.020461626586735893,0.08018043864449931,-0.010164488838581343,-0.13827320352559114
482,0.4696,143.884,133.68,0.599672,138.683,-89.5031,-4.5296,0.0730373,0.077271,-0.149104,0.271567,0.0202663,-0.010234,0.265689,0.0757706624120662,0.3120187741695948,0.020473055820957153,0.08033480745857058,-0.010181810808459035,-0.13852048362978697
483,0.4706,143.964,133.751,0.600025,138.759,-89.5553,-4.53204,0.0731814,0.0774138,-0.14939,0.27209,0.0202775,-0.0102516,0.26621,0.07592569213414313,0.312705139457363,0.020484485183186685,0.08048909028460738,-0.010199231455286673,-0.13876683154203817
484,0.4716,144.045,133.823,0.600377,138.835,-89.6075,-4.53448,0.0733254,0.0775566,-0.149676,0.272612,0.0202886,-0.0102692,0.26673,0.07608063658954345,0.3133905504168566,0.020495812623839482,0.08064339514380459,-0.010216651795513565,-0.13901310900886077
485,0.4726,144.125,133.894,0.600727,138.91,-89.6596,-4.53692,0.0734693,0.0776993,-0.149962,0.273135,0.0202997,-0.0102867,0.26725,0.07623549573499688,0.3140776333312454,0.02050714019022748,0.08079761395954255,-0.010233972852547457,-0.13925931605039898
486,0.4736,144.206,133.965,0.601075,138.986,-89.7116,-4.53935,0.0736131,0.077842,-0.150248,0.273657,0.0203108,-0.0103043,0.26777,0.0763902695272527,0.3147637609195648,0.02051846788235201,0.08095185478387568,-0.010251392581331231,-0.13950545268679182
487,0.4746,144.286,134.036,0.601422,139.061,-89.7635,-4.54178,0.073757,0.0779846,-0.150534,0.274179,0.0203219,-0.0103218,0.26829,0.07654517323209187,0.31545024675998135,0.020529795700214848,0.08110600950933855,-0.010268713030406662,-0.13975151893817217
488,0.4756,144.366,134.107,0.601768,139.136,-89.8153,-4.54421,0.0739007,0.0781271,-0.150819,0.2747,0.0203329,-0.0103394,0.26881,0.0766998838891797,0.31613577490311773,0.02054102158970994,0.08126007809281943,-0.010286132147768634,-0.13999665482175216
489,0.4766,144.446,134.178,0.602111,139.211,-89.867,-4.54663,0.0740444,0.0782696,-0.151105,0.275222,0.0203439,-0.0103569,0.269329,0.07685461677978656,0.3168229771217921,0.020552247602690255,0.08141416863263795,-0.01030345198890703,-0.1402425806094092
490,0.4776,144.525,134.249,0.602454,139.286,-89.9186,-4.54905,0.0741881,0.078412,-0.15139,0.275743,0.0203549,-0.0103745,0.269848,0.07700937190710744,0.31750922064378706,0.020563473739157567,0.0815681729751001,-0.010320870494868739,-0.14048757656035415
491,0.4786,144.605,134.319,0.602794,139.361,-89.9701,-4.55146,0.0743317,0.0785543,-0.151675,0.276264,0.0203659,-0.010392,0.270367,0.07716404155792844,0.3181958217918106,0.02057469999911299,0.08172209107712769,-0.010338189728091307,-0.14073250269740212
492,0.4796,144.684,134.39,0.603133,139.436,-90.0215,-4.55387,0.0744752,0.0786966,-0.151961,0.276785,0.0203768,-0.0104095,0.270886,0.07731862568903813,0.3188827807522341,0.020585824323970492,0.08187603108325958,-0.010355508658229984,-0.14097821806265853
493,0.4806,144.764,134.46,0.603471,139.51,-90.0729,-4.55628,0.0746187,0.0788388,-0.152246,0.277306,0.0203877,-0.010427,0.271405,0.07747323200456235,0.3195700977115268,0.020596948770083667,0.08202988479361917,-0.010372827285289987,-0.14122300438680258
494,0.4816,144.843,134.531,0.603807,139.585,-90.1241,-4.55869,0.0747621,0.078981,-0.152531,0.277827,0.0203986,-0.0104445,0.271923,0.07762775274490408,0.32025777285625434,0.02060807333745407,0.08218376038353203,-0.010390145609276757,-0.14146772095678473
495,0.4826,144.922,134.601,0.604141,139.659,-90.1753,-4.56109,0.0749055,0.0791231,-0.152815,0.278347,0.0204095,-0.010462,0.272441,0.07778229564510886,0.3209444854279344,0.020619198026082808,0.08233754962234907,-0.010407463630195513,-0.14171150950442069
496,0.4836,145.001,134.671,0.604474,139.733,-90.2264,-4.56348,0.0750488,0.0792651,-0.1531,0.278867,0.0204203,-0.0104795,0.272959,0.07793675291467372,0.32163155518301134,0.020630220772944297,0.08249125246703914,-0.01042478134805147,-0.14195608687028172
497,0.4846,145.08,134.741,0.604805,139.807,-90.2774,-4.56588,0.0751921,0.0794071,-0.153385,0.279387,0.0204311,-0.010497,0.273477,0.0780912323195515,0.32231898230726874,0.020641243638852114,0.08264497713908292,-0.010442098762850072,-0.14220059454152556
498,0.4856,145.158,134.811,0.605135,139.881,-90.3283,-4.56827,0.0753353,0.079549,-0.153669,0.279907,0.0204419,-0.0105145,0.273995,0.07824562603834595,0.32300676698658704,0.02065226662380737,0.08279861536171307,-0.010459415874596534,-0.14244417498261597
499,0.4866,145.237,134.88,0.605463,139.955,-90.3791,-4.57065,0.0754784,0.0796909,-0.153953,0.280426,0.0204527,-0.010532,0.274512,0.07839993402790557,0.3236935857126957,0.020663289727811618,0.08295227538715388,-0.010476732683296186,-0.14268768625668327
500,0.4876,145.315,134.95,0.60579,140.029,-90.4298,-4.57304,0.0756216,0.0798327,-0.154238,0.280945,0.0204634,-0.0105495,0.275029,0.07855437195595005,0.32438076099024027,0.02067421088343968,0.08310584890790906,-0.010494049188954357,-0.14293198545181118
501,0.4886,145.393,135.019,0.606115,140.102,-90.4804,-4.57542,0.0757646,0.0799744,-0.154522,0.281464,0.0204741,-0.0105669,0.275546,0.07870861625934467,0.32506829300431894,0.020685132155924935,0.08325933588099454,-0.010511266442707945,-0.1431753582073758
502,0.4896,145.472,135.089,0.606439,140.176,-90.531,-4.57779,0.0759076,0.0801161,-0.154806,0.281983,0.0204848,-0.0105844,0.276063,0.07886288262125163,0.32575618194012623,0.020696053545268267,0.08341284460472509,-0.010528582344030646,-0.1434186618548916
503,0.4906,145.55,135.158,0.606761,140.249,-90.5815,-4.58016,0.0760505,0.0802577,-0.15509,0.282502,0.0204955,-0.0106018,0.276579,0.07901706314311419,0.32644442798295237,0.020706975051471233,0.08356626672555101,-0.010545798996912548,-0.14366189641398264
504,0.4916,145.628,135.227,0.607081,140.322,-90.6318,-4.58253,0.0761934,0.0803992,-0.155374,0.28302,0.0205062,-0.0106193,0.277096,0.07917126569894739,0.3271317041858164,0.02071789667453472,0.08371960220052155,-0.010563114293920761,-0.143905061904267
505,0.4926,145.705,135.296,0.6074,140.395,-90.6821,-4.5849,0.0763363,0.0805407,-0.155657,0.283538,0.0205168,-0.0106367,0.277612,0.0793254902919005,0.32781933648997574,0.020728716341583686,0.08387295937399708,-0.01058033034595196,-0.14414730249308805
506,0.4936,145.783,135.365,0.607718,140.468,-90.7323,-4.58726,0.0764791,0.0806821,-0.155941,0.284056,0.0205274,-0.0106542,0.278128,0.07947962897715444,0.32850732507993863,0.020739536123321578,0.08402622984641961,-0.010597645038666892,-0.1443903301476196
507,0.4946,145.86,135.434,0.608034,140.541,-90.7824,-4.58962,0.0766218,0.0808235,-0.156224,0.284574,0.020538,-0.0106716,0.278644,0.07963368171161078,0.3291956701403089,0.02075035601974995,0.0841795219928192,-0.010614860489868372,-0.14463243342495824
508,0.4956,145.938,135.503,0.608349,140.614,-90.8325,-4.59197,0.0767645,0.0809648,-0.156508,0.285092,0.0205486,-0.010689,0.279159,0.07978775643096081,0.32988437185578645,0.020761176030869688,0.08433272738298281,-0.010632075641523686,-0.1448753233218677
509,0.4966,146.015,135.571,0.608662,140.687,-90.8824,-4.59432,0.0769071,0.081106,-0.156791,0.285609,0.0205591,-0.0107065,0.279675,0.07994174514416219,0.33057209983840075,0.02077189407948765,0.08448584597400743,-0.01064938942870386,-0.14511728936555746
510,0.4976,146.092,135.64,0.608973,140.759,-90.9323,-4.59667,0.0770496,0.0812472,-0.157074,0.286126,0.0205696,-0.0107239,0.28019,0.0800956478081496,0.3312601834683091,0.020782612240645593,0.08463898618690346,-0.010666603979560763,-0.14535918694254546
511,0.4986,146.169,135.708,0.609284,140.832,-90.9821,-4.59902,0.0771922,0.0813883,-0.157357,0.286643,0.0205801,-0.0107413,0.280705,0.08024968042979186,0.3319486229294286,0.020793330514345065,0.08479203954551506,-0.010683818230887043,-0.14560101607220488
512,0.4996,146.246,135.776,0.609592,140.904,-91.0318,-4.60136,0.0773346,0.0815294,-0.15764,0.28716,0.0205906,-0.0107587,0.28122,0.08040351893732689,0.33263741840577166,0.020804048900586958,0.08494511450147901,-0.01070103218268803,-0.14584277677390356
513,0.5006,146.323,135.844,0.609899,140.976,-91.0814,-4.6037,0.077477,0.0816704,-0.157922,0.287677,0.020601,-0.0107761,0.281734,0.0805573793530252,0.3333265700814452,0.02081466531790066,0.08509810254802752,-0.010718245834968831,-0.14608361515104618
514,0.5016,146.399,135.912,0.610205,141.048,-91.1309,-4.60603,0.0776194,0.0818113,-0.158205,0.288193,0.0206114,-0.0107935,0.282249,0.08071126168000653,0.33401474412524124,0.02082528184562582,0.08525100364230576,-0.010735459187734775,-0.14632523929652919
515,0.5026,146.476,135.98,0.610509,141.12,-91.1804,-4.60836,0.0777617,0.0819522,-0.158488,0.288709,0.0206218,-0.0108109,0.282763,0.08086505783488063,0.33470327335847516,0.02083589848376355,0.08540392628186577,-0.010752672240990857,-0.14656679507205383
516,0.5036,146.552,136.048,0.610812,141.192,-91.2297,-4.61069,0.0779039,0.082093,-0.15877,0.289225,0.0206322,-0.0108283,0.283277,0.08101876777462236,0.3353921579644714,0.020846515232314733,0.08555676191406247,-0.010769884994742518,-0.14680742930482205
517,0.5046,146.628,136.116,0.611113,141.264,-91.279,-4.61301,0.0780461,0.0822338,-0.159052,0.289741,0.0206426,-0.0108456,0.283791,0.08117249957347172,0.33608139812665017,0.020857132091280706,0.085709619067031,-0.010786998527699598,-0.14704799568830385
518,0.5056,146.705,136.184,0.611413,141.335,-91.3282,-4.61533,0.0781882,0.0823745,-0.159335,0.290256,0.0206529,-0.010863,0.284304,0.08132614510191738,0.33676965725819974,0.020867646973892873,0.0858623891575574,-0.010804210684179028,-0.14728934695270934
519,0.5066,146.781,136.251,0.611712,141.407,-91.3773,-4.61765,0.0783303,0.0825151,-0.159617,0.290772,0.0206632,-0.0108804,0.284818,0.08147981246494407,0.33745960839342914,0.02087816196480885,0.08601507214283544,-0.010821422541169468,-0.14752977745457452
520,0.5076,146.856,136.319,0.612009,141.478,-91.4264,-4.61996,0.0784724,0.0826557,-0.159899,0.291287,0.0206735,-0.0108977,0.285331,0.08163350166565442,0.3381485774860655,0.020888677064029748,0.08616777659685027,-0.010838535182534748,-0.14777014016459733
521,0.5086,146.932,136.386,0.612304,141.549,-91.4753,-4.62227,0.0786143,0.0827962,-0.160181,0.291802,0.0206838,-0.0109151,0.285844,0.08178699634973108,0.33883790148916604,0.020899192271556677,0.08632039389057589,-0.010855746442284153,-0.14801043510189238
522,0.5096,147.008,136.453,0.612598,141.62,-91.5242,-4.62458,0.0787563,0.0829366,-0.160462,0.292316,0.0206941,-0.0109324,0.286357,0.08194062101030553,0.33952624105864615,0.020909707587390747,0.08647292398123985,-0.01087285848985109,-0.1482498105358051
523,0.5106,147.083,136.52,0.612891,141.691,-91.573,-4.62688,0.0788981,0.083077,-0.160744,0.292831,0.0207043,-0.0109498,0.286869,0.08209405106829881,0.3402162747412134,0.020920120919516227,0.0866254754886322,-0.010890069152380222,-0.14848997022512633
524,0.5116,147.159,136.587,0.613182,141.762,-91.6217,-4.62918,0.0790399,0.0832174,-0.161025,0.293345,0.0207145,-0.0109671,0.287382,0.0822475028842169,0.34090532297665677,0.020930534357857855,0.08677804841575965,-0.010907180606169353,-0.14872921092860003
525,0.5126,147.234,136.654,0.613472,141.833,-91.6703,-4.63148,0.0791817,0.0833577,-0.161307,0.293859,0.0207247,-0.0109844,0.287894,0.0824009764611453,0.34159472547393044,0.020940947902417406,0.08693053407257101,-0.010924291763932947,-0.14896923544607055
526,0.5136,147.309,136.721,0.613761,141.904,-91.7188,-4.63378,0.0793234,0.0834979,-0.161588,0.294373,0.0207349,-0.0110018,0.288406,0.08255436354672807,0.34228448241517184,0.020951361553195547,0.08708293241632226,-0.01094150153153084,-0.149208341494937
527,0.5146,147.384,136.788,0.614048,141.974,-91.7673,-4.63607,0.0794651,0.083638,-0.161869,0.294887,0.020745,-0.0110191,0.288918,0.082707772368801,0.34297459398261254,0.02096167321402098,0.08723524340428934,-0.010958612095547493,-0.14944738036444283
528,0.5156,147.459,136.854,0.614167,142.045,-91.8157,-4.63835,0.0796067,0.0837781,-0.16215,0.295401,0.0207551,-0.0110364,0.289429,0.08286109464432934,0.3436650603585767,0.020971984978994884,0.08738757573252065,-0.010975722363554041,-0.14968635207346281
529,0.5166,147.534,136.921,0.614693,142.115,-91.8641,-4.64062,0.0797482,0.0839182,-0.162431,0.295914,0.0207652,-0.0110537,0.289941,0.08301433033039074,0.3443545373702732,0.02098229684811792,0.08753992940400646,-0.01099283233555548,-0.14992525664086642
530,0.5176,147.609,136.987,0.614835,142.185,-91.9123,-4.64289,0.0798897,0.0840581,-0.162712,0.296427,0.0207753,-0.011071,0.290452,0.08316758770083577,0.3450443681744171,0.020992608821391423,0.08769208688329755,-0.011009942011556917,-0.15016409408551779
531,0.5186,147.683,137.053,0.615228,142.255,-91.9605,-4.64517,0.0800312,0.0841981,-0.162993,0.29694,0.0207854,-0.0110883,0.290963,0.08332086675873307,0.34573455295254973,0.0210029208988165,0.08784437443534099,-0.01102705139156357,-0.15040286442627582
532,0.5196,147.758,137.119,0.615432,142.325,-92.0086,-4.64743,0.0801726,0.0843379,-0.163274,0.297452,0.0207954,-0.0111056,0.291474,0.08347405915974027,0.34642374546188814,0.021013130979075756,0.08799646570981956,-0.011044160475580433,-0.15064156768199388
533,0.5206,147.832,137.185,0.615763,142.395,-92.0566,-4.6497,0.0803139,0.0844777,-0.163554,0.297965,0.0208055,-0.0111229,0.291984,0.08362716486096256,0.3471146380421053,0.0210234432637757,0.08814857824814437,-0.011061269263612838,-0.15087935475129965
534,0.5216,147.906,137.251,0.616004,142.465,-92.1046,-4.65195,0.0804552,0.0846175,-0.163835,0.298477,0.0208155,-0.0111402,0.292495,0.08378029219754901,0.34780453733593086,0.02103365354925968,0.0883007120532886,-0.01107837775566567,-0.15111792413204683
535,0.5226,147.98,137.317,0.616305,142.535,-92.1524,-4.65421,0.0805964,0.0847571,-0.164115,0.298989,0.0208255,-0.0111575,0.293005,0.083933332779218,0.34849478994863703,0.021043863936846874,0.08845264943767406,-0.011095485951744144,-0.15135557784021803
536,0.5236,148.054,137.383,0.616562,142.604,-92.2002,-4.65646,0.0807376,0.0848968,-0.164395,0.299501,0.0208354,-0.0111748,0.293515,0.08408639497174297,0.34918539606116905,0.02105397232113626,0.08860471689446503,-0.01111259385185348,-0.15159316501466613
537,0.5246,148.128,137.449,0.616847,142.674,-92.2479,-4.65871,0.0808787,0.0850363,-0.164675,0.300013,0.0208454,-0.011192,0.294025,0.08423937035423279,0.3498763558545652,0.021064182911912477,0.08875658784522433,-0.011129602568963781,-0.1518306856740178
538,0.5256,148.202,137.514,0.61711,142.743,-92.2956,-4.66096,0.0810198,0.0851758,-0.164955,0.300524,0.0208553,-0.0112093,0.294535,0.0843923673230722,0.3505663189429622,0.02107429149736073,0.08890847998345897,-0.011146709878860683,-0.15206813983689493
539,0.5266,148.275,137.58,0.617386,142.812,-92.3431,-4.6632,0.0811608,0.0853153,-0.165235,0.301036,0.0208652,-0.0112265,0.295044,0.08454527742677365,0.3512579859499052,0.02108440018288449,0.08906039331212501,-0.011163718009180479,-0.15230552752191384
540,0.5276,148.349,137.645,0.617651,142.882,-92.3906,-4.66544,0.0813018,0.0854547,-0.165515,0.301547,0.0208751,-0.0112438,0.295553,0.08469820909231984,0.35194865523169794,0.021094508968484638,0.08921221891295139,-0.011180824728885375,-0.15254284874768553
541,0.5286,148.422,137.71,0.617921,142.951,-92.438,-4.66768,0.0814427,0.085594,-0.165794,0.302057,0.0208849,-0.011261,0.296062,0.08485105383764036,0.35263832489668223,0.021104515743705532,0.08936395674334041,-0.011197832272434649,-0.15277925631249611
542,0.5296,148.496,137.776,0.618185,143.02,-92.4853,-4.66991,0.0815835,0.0857333,-0.166074,0.302568,0.0208948,-0.0112783,0.296571,0.08500381161991633,0.3533296997119253,0.021114624728450826,0.08951571571228145,-0.011214938401967967,-0.153016444912775
543,0.5306,148.569,137.841,0.618451,143.088,-92.5325,-4.67214,0.0817243,0.0858725,-0.166353,0.303079,0.0209046,-0.0112955,0.29708,0.08515659091200223,0.3540214279099807,0.02112463170080736,0.08966738685597542,-0.011231945358767148,-0.15325272036268633
544,0.5316,148.642,137.906,0.618714,143.157,-92.5797,-4.67437,0.0818651,0.0860116,-0.166633,0.303589,0.0209144,-0.0113127,0.297588,0.08530939171692675,0.3547121549586407,0.02113463877123256,0.08981897013185947,-0.011248952023049319,-0.15348977641158923
545,0.5326,148.715,137.971,0.618977,143.226,-92.6268,-4.67659,0.0820058,0.0861507,-0.166912,0.304099,0.0209242,-0.01133,0.298097,0.08546210549150346,0.35540323436793986,0.021144645939727535,0.08997057449444368,-0.011266057268218499,-0.15372591982043304
546,0.5336,148.788,138.035,0.619237,143.294,-92.6738,-4.67881,0.0821465,0.0862898,-0.167191,0.304609,0.0209339,-0.0113472,0.298605,0.08561484075441994,0.3560946663176279,0.021154551090833085,0.09012219994666171,-0.011283063345780775,-0.15396199735445582
547,0.5346,148.86,138.1,0.619497,143.363,-92.7207,-4.68103,0.0822871,0.0864287,-0.16747,0.305118,0.0209437,-0.0113644,0.299113,0.0857674889319453,0.3567850942017736,0.02116455845446974,0.0902736284366994,-0.011300069130841028,-0.15419800903203396
548,0.5356,148.933,138.165,0.619754,143.431,-92.7676,-4.68324,0.0824276,0.0865677,-0.167749,0.305628,0.0209534,-0.0113816,0.29962,0.08592004998130309,0.3574772310797183,0.021174463798727672,0.0904251870041286,-0.011317074623404366,-0.15443395487153888
549,0.5366,149.005,138.229,0.620247,143.499,-92.8144,-4.68545,0.0825681,0.0867065,-0.168027,0.306137,0.0209631,-0.0113988,0.300128,0.08607263246699404,0.35816836286845644,0.021184369239067857,0.09057654852433128,-0.011334079823475673,-0.15466898956074904
550,0.5376,149.078,138.293,0.620211,143.567,-92.8611,-4.68767,0.0827085,0.0868453,-0.168306,0.306646,0.0209728,-0.011416,0.300635,0.08622512776951208,0.3588598465328199,0.021194274775491184,0.0907279310549709,-0.011351084731060057,-0.1549048040150156
551,0.5386,149.15,138.358,0.62058,143.635,-92.9078,-4.68988,0.0828489,0.0869841,-0.168585,0.307155,0.0209825,-0.0114332,0.301142,0.08637764448387375,0.3595516822519589,0.021204180407998763,0.09087933459896425,-0.011368089346162624,-0.1551405526862265
552,0.5396,149.222,138.422,0.620732,143.703,-92.9543,-4.69208,0.0829893,0.0871228,-0.168863,0.307664,0.0209921,-0.0114504,0.301649,0.08653018261308554,0.3602438702051147,0.021213984015187926,0.09103065005615751,-0.01138509366878826,-0.15537539096854602
553,0.5406,149.294,138.486,0.621054,143.771,-93.0008,-4.69429,0.0831295,0.0872614,-0.169141,0.308172,0.0210017,-0.0114675,0.302156,0.08668252482362715,0.3609350496358903,0.021223787716492026,0.09118187738406713,-0.011401998839146943,-0.1556101639748969
554,0.5416,149.366,138.55,0.621256,143.839,-93.0473,-4.69648,0.0832698,0.0874,-0.169419,0.30868,0.0210113,-0.0114847,0.302662,0.08683499707753839,0.36162658027501626,0.021233591511912397,0.0913331256735368,-0.011419002578534343,-0.1558448717234232
555,0.5426,149.438,138.614,0.621537,143.906,-93.0936,-4.69868,0.08341,0.0875385,-0.169698,0.309188,0.0210209,-0.0115019,0.303169,0.08698738202606404,0.3623184623009512,0.021243395401449483,0.09148428577903833,-0.01143600602545991,-0.156080358152328
556,0.5436,149.51,138.678,0.621762,143.974,-93.1399,-4.70087,0.0835501,0.0876769,-0.169976,0.309696,0.0210305,-0.011519,0.303675,0.08713967962648361,0.36301069589224566,0.021253199385104393,0.09163535765812303,-0.011452910325224663,-0.15631493520504058
557,0.5446,149.581,138.742,0.622023,144.041,-93.1861,-4.70306,0.0836901,0.0878153,-0.170253,0.310204,0.0210401,-0.0115362,0.304181,0.08729188983609748,0.3637032812275398,0.021263003462878016,0.09178645044700273,-0.011469913188942082,-0.1565486036034215
558,0.5456,149.653,138.806,0.622258,144.108,-93.2322,-4.70525,0.0838302,0.0879536,-0.170531,0.310711,0.0210496,-0.0115534,0.304687,0.08744423010104985,0.3643948540900288,0.021272705507495493,0.09193745495482064,-0.011486915760212657,-0.15678305050199093
559,0.5466,149.724,138.869,0.622509,144.176,-93.2783,-4.70743,0.0839701,0.0880919,-0.170809,0.311219,0.0210591,-0.0115705,0.305192,0.08759637419107191,0.3650881427563184,0.021282407644282797,0.09208848034800599,-0.011503819189428444,-0.15701743223338127
560,0.5476,149.796,138.933,0.622746,144.243,-93.3243,-4.70961,0.0841101,0.0882302,-0.171086,0.311726,0.0210686,-0.0115876,0.305698,0.08774864834240059,0.3657804179216211,0.02129210987324104,0.09223952662944779,-0.011520722329597999,-0.15725090606703374
561,0.5486,149.867,138.996,0.62299,144.31,-93.3702,-4.71179,0.0842499,0.0883683,-0.171364,0.312233,0.0210781,-0.0116048,0.306203,0.0879007262334357,0.36647304415942217,0.021301812194370662,0.0923903753239379,-0.011537724026958962,-0.15748515775265415
562,0.5496,149.938,139.059,0.623228,144.376,-93.416,-4.71396,0.0843897,0.0885064,-0.171641,0.312739,0.0210875,-0.0116219,0.306708,0.08805282538644632,0.3671646544824221,0.02131141247652657,0.09254124485207127,-0.011554626587360728,-0.15771850204428028
563,0.5506,150.009,139.123,0.623467,144.443,-93.4618,-4.71613,0.0845295,0.0886445,-0.171918,0.313246,0.021097,-0.011639,0.307213,0.08820494580440474,0.3678579827060977,0.021321114981031952,0.09269213521672515,-0.011571528858731361,-0.1579517817084889
564,0.5516,150.08,139.186,0.623704,144.51,-93.5075,-4.7183,0.0846692,0.0887825,-0.172196,0.313752,0.0211064,-0.0116561,0.307717,0.08835697865458103,0.36855029398532935,0.02133071544463494,0.09284293713647829,-0.011588430841075414,-0.1581858385777617
565,0.5526,150.15,139.249,0.62394,144.577,-93.5531,-4.72047,0.0848089,0.0889204,-0.172473,0.314258,0.0211158,-0.0116733,0.308222,0.08850903274523003,0.3692429556627115,0.02134031599848263,0.0929936505689617,-0.011605431373859942,-0.15841898880767802
566,0.5536,150.221,139.312,0.624174,144.643,-93.5987,-4.72263,0.0849485,0.0890583,-0.172749,0.314764,0.0211252,-0.0116904,0.308726,0.08866099921321391,0.36993596791559047,0.021349916642575906,0.09314438478626053,-0.011622332776476063,-0.15865123311557838
567,0.5546,150.292,139.374,0.624408,144.709,-93.6442,-4.72479,0.085088,0.0891961,-0.173026,0.31527,0.0211345,-0.0117075,0.30923,0.08881287801590432,0.3706293309214024,0.02135941524096907,0.09329503046173282,-0.011639233890080702,-0.15888425444906074
568,0.5556,150.362,139.437,0.624639,144.776,-93.6896,-4.72694,0.0852275,0.0893339,-0.173303,0.315775,0.0211439,-0.0117246,0.309734,0.08896477800716562,0.371321673535314,0.02136901606459629,0.0934456968976094,-0.011656134714678745,-0.15911721124457257
569,0.5566,150.432,139.5,0.62487,144.842,-93.7349,-4.7291,0.085367,0.0894716,-0.173579,0.31628,0.0211532,-0.0117416,0.310237,0.08911669918995369,0.3720143658705428,0.021378514840614926,0.09359627473711862,-0.01167293641757372,-0.15934926286967177
570,0.5576,150.503,139.562,0.625099,144.908,-93.7802,-4.73125,0.0855064,0.0896092,-0.173856,0.316785,0.0211625,-0.0117587,0.310741,0.08926853264036638,0.3727074081037427,0.021388013704972453,0.0937467639379419,-0.011689836665863429,-0.1595820908756893
571,0.5586,150.573,139.625,0.625328,144.974,-93.8254,-4.73339,0.0856457,0.0897468,-0.174132,0.31729,0.0211718,-0.0117758,0.311244,0.08942027831580401,0.3734008004116567,0.02139751265766998,0.09389727384750413,-0.011706736625161307,-0.15981401421171504
572,0.5596,150.643,139.687,0.625555,145.04,-93.8706,-4.73554,0.085785,0.0898843,-0.174409,0.317795,0.0211811,-0.0117929,0.311747,0.08957204513088679,0.3740945429711173,0.021407011698708178,0.09404769506387978,-0.011723636295472462,-0.1600467134994391
573,0.5606,150.713,139.75,0.62578,145.106,-93.9156,-4.73768,0.0859242,0.0900218,-0.174685,0.318299,0.0211903,-0.0118099,0.31225,0.08972372411618146,0.37478726117109784,0.0214164086864419,0.09419813696459478,-0.011740436850850355,-0.16027850861731552
574,0.5616,150.783,139.812,0.626005,145.172,-93.9606,-4.73982,0.0860634,0.0901592,-0.174961,0.318804,0.0211996,-0.011827,0.312753,0.0898754242166604,0.37548170407006287,0.02142590790321397,0.0943484901176388,-0.011757335944892477,-0.16051023976856726
575,0.5626,150.852,139.874,0.626228,145.237,-94.0055,-4.74196,0.0862026,0.0902966,-0.175237,0.319308,0.0212088,-0.0118441,0.313255,0.09002714543526324,0.3761751215754472,0.02143530506479352,0.09449886393062523,-0.011774234749962642,-0.16074190697084667
576,0.5636,150.922,139.936,0.62645,145.303,-94.0504,-4.74409,0.0863417,0.0904339,-0.175512,0.319812,0.021218,-0.0118611,0.313757,0.09017877875704627,0.3768688886513387,0.02144470231282747,0.09464914894147292,-0.011791034445174042,-0.16097267121489178
577,0.5646,150.992,139.998,0.62667,145.368,-94.0952,-4.74622,0.0864807,0.0905712,-0.175788,0.320315,0.0212272,-0.0118782,0.31426,0.09033032413945352,0.3775616279116485,0.021454099647316482,0.09479945458786898,-0.011807932674004817,-0.1612042108037034
578,0.5656,151.061,140.06,0.62689,145.433,-94.1399,-4.74835,0.0866197,0.0907084,-0.176064,0.320819,0.0212364,-0.0118952,0.314762,0.09048189058813305,0.37825609396286053,0.021463497068261228,0.09494967137767452,-0.011824731796356458,-0.1614356864964066
579,0.5666,151.13,140.122,0.627108,145.499,-94.1846,-4.75047,0.0867586,0.0908455,-0.176339,0.321322,0.0212455,-0.0119122,0.315263,0.09063336904267105,0.37894953116295915,0.021472792428378407,0.0950997992686522,-0.011841530633125319,-0.16166625997731332
580,0.5676,151.199,140.183,0.627325,145.564,-94.2292,-4.7526,0.0868975,0.0909826,-0.176615,0.321825,0.0212546,-0.0119293,0.315765,0.09078486853902756,0.3796433172497071,0.0214820878730837,0.09524994774357487,-0.011858427998478582,-0.16189760816204146
581,0.5686,151.269,140.245,0.627541,145.629,-94.2737,-4.75472,0.0870363,0.0911196,-0.17689,0.322328,0.0212638,-0.0119463,0.316266,0.09093627998649212,0.3803374523986385,0.02149148555152136,0.0954000072652581,-0.011875226262416994,-0.162128054631955
582,0.5696,151.338,140.307,0.627755,145.694,-94.3181,-4.75683,0.0871751,0.0912566,-0.177165,0.322831,0.0212729,-0.0119633,0.316767,0.09108771245132408,0.3810319367853756,0.021500781166334804,0.09555008734650428,-0.01189202424078728,-0.16235843773780234
583,0.5706,151.406,140.368,0.627968,145.759,-94.3625,-4.75895,0.0873138,0.0913935,-0.17744,0.323334,0.0212819,-0.0119803,0.317268,0.09123905681252986,0.38172677058562954,0.021509974714736257,0.09570007842011674,-0.011908821933594438,-0.16258875749700608
584,0.5716,151.475,140.429,0.628181,145.824,-94.4068,-4.76106,0.0874525,0.0915303,-0.177715,0.323836,0.021291,-0.0119973,0.317769,0.09139042216665438,0.3824205715539366,0.021519270497802,0.09584998044390924,-0.011925619340843241,-0.16281901392698417
585,0.5726,151.544,140.491,0.628391,145.888,-94.4511,-4.76317,0.0875911,0.0916671,-0.17799,0.324338,0.0213,-0.0120143,0.31827,0.09154169936243428,0.38311472089776455,0.021528464212608123,0.09599990297570149,-0.011942416462538463,-0.1630492070451498
586,0.5736,151.613,140.552,0.628601,145.953,-94.4953,-4.76528,0.0877297,0.0918039,-0.178265,0.32484,0.0213091,-0.0120313,0.31877,0.09169299752668647,0.3838092187920421,0.021537760163928832,0.09614984601829879,-0.0119592132986851,-0.16327933686891127
587,0.5746,151.681,140.613,0.628809,146.017,-94.5394,-4.76738,0.0878682,0.0919406,-0.178539,0.325342,0.0213181,-0.0120483,0.31927,0.09184420747789135,0.38450406541178506,0.02154695404514273,0.09629969994453202,-0.011976009849287927,-0.16350856692465743
588,0.5756,151.75,140.674,0.629017,146.082,-94.5835,-4.76948,0.0880067,0.0920772,-0.178814,0.325843,0.0213271,-0.0120653,0.31977,0.09199543837312474,0.3851978757335297,0.021556148009101994,0.09644946471224514,-0.011992806114351828,-0.16373857044182005
589,0.5766,151.818,140.735,0.629223,146.146,-94.6274,-4.77158,0.0881451,0.0922138,-0.179088,0.326345,0.0213361,-0.0120823,0.32027,0.09214658100062412,0.38589341963406043,0.02156534205580729,0.09659924993922298,-0.012009602093881688,-0.16396767468480433
590,0.5776,151.886,140.796,0.629427,146.21,-94.6714,-4.77367,0.0882835,0.0923503,-0.179363,0.326846,0.021345,-0.0120993,0.32077,0.09229774454771089,0.38658792619666427,0.021574434027810785,0.09674894595336014,-0.012026397787882281,-0.16419755196469132
591,0.5786,151.954,140.857,0.629631,146.274,-94.7152,-4.77577,0.0884218,0.0924867,-0.179637,0.327347,0.021354,-0.0121162,0.321269,0.09244881977239272,0.3872827807942312,0.02158362823909088,0.09689855271253722,-0.01204309440067286,-0.16442653046396605
592,0.5796,152.022,140.917,0.629834,146.338,-94.759,-4.77786,0.08856,0.0926232,-0.179911,0.327848,0.0213629,-0.0121332,0.321769,0.0925998066322371,0.387977983601171,0.02159272037384219,0.09704828958429146,-0.01205988952530912,-0.16465544623172657
593,0.5806,152.09,140.978,0.630035,146.402,-94.8027,-4.77994,0.0886983,0.0927595,-0.180185,0.328348,0.0213718,-0.0121502,0.322268,0.09275092363499415,0.38867214611913936,0.021601812589513658,0.09719782745693628,-0.012076684364430657,-0.16488429928515902
594,0.5816,152.158,141.038,0.630235,146.466,-94.8464,-4.78203,0.0888364,0.0928958,-0.180459,0.328849,0.0213807,-0.0121671,0.322766,0.09290184295828752,0.3893680451725019,0.021610904886106397,0.09734738571298229,-0.012093380127385256,-0.16511308964144467
595,0.5826,152.226,141.099,0.630434,146.53,-94.89,-4.78411,0.0889745,0.093032,-0.180733,0.329349,0.0213896,-0.0121841,0.323265,0.09305278312497878,0.39006290289504264,0.02161999726362107,0.09749685460551705,-0.012110174397171436,-0.1653418173177602
596,0.5836,152.293,141.159,0.630631,146.594,-94.9335,-4.78619,0.0891126,0.0931682,-0.181006,0.329849,0.0213985,-0.012201,0.323764,0.0932037441379463,0.39075810813331624,0.021629089722057904,0.09764634385710114,-0.012126869594149325,-0.16556964790134276
597,0.5846,152.361,141.219,0.630828,146.657,-94.977,-4.78827,0.0892506,0.0933043,-0.18128,0.330349,0.0214073,-0.0122179,0.324262,0.09335461666460221,0.3914536610611241,0.02163808009760526,0.09779574369092825,-0.012143564508980687,-0.16579825049783192
598,0.5856,152.428,141.28,0.631023,146.721,-95.0204,-4.79034,0.0893886,0.0934404,-0.181553,0.330848,0.0214161,-0.0122349,0.32476,0.09350551001310348,0.39214816970348876,0.021647070552268,0.0979451638594564,-0.012160357925639631,-0.16602595649216356
599,0.5866,152.496,141.34,0.631217,146.784,-95.0638,-4.79241,0.0895265,0.0935764,-0.181827,0.331348,0.021425,-0.0122518,0.325258,0.09365631482068681,0.39284441783586854,0.02165616325165831,0.0980944945559985,-0.012177052274523037,-0.16625443407722607
600,0.5876,152.563,141.4,0.63141,146.847,-95.107,-4.79448,0.0896643,0.0937124,-0.1821,0.331847,0.0214338,-0.0122687,0.325756,0.09380703104497856,0.39353962063904246,0.021665153865453535,0.09824384556289645,-0.012193746341274347,-0.1664820155504385
601,0.5886,152.63,141.46,0.631602,146.911,-95.1503,-4.79655,0.0898021,0.0938483,-0.182373,0.332346,0.0214425,-0.0122856,0.326253,0.09395776803939682,0.3942351704349827,0.02167404239095716,0.09839310704359616,-0.012210440125898336,-0.1667095349023886
602,0.5896,152.697,141.52,0.631793,146.974,-95.1934,-4.79861,0.0899399,0.0939841,-0.182646,0.332845,0.0214513,-0.0123025,0.326751,0.0941085258068044,0.3949310673968818,0.021683033162089638,0.09854227895607637,-0.012227133628399667,-0.16693699215003333
603,0.5906,152.764,141.579,0.631982,147.037,-95.2365,-4.80067,0.0900776,0.09412,-0.182919,0.333344,0.0214601,-0.0123195,0.327248,0.09425919492413848,0.3956273116980189,0.02169202401234105,0.09869158099663045,-0.01224392562439558,-0.16716438731032468
604,0.5916,152.831,141.639,0.632171,147.1,-95.2795,-4.80273,0.0902152,0.0942557,-0.183192,0.333842,0.0214688,-0.0123364,0.327745,0.09440977534905581,0.3963225071885541,0.02170091277161612,0.09884068356055176,-0.012260618560996805,-0.16739172040021022
605,0.5926,152.898,141.699,0.632358,147.163,-95.3225,-4.80479,0.0903528,0.0943914,-0.183465,0.33434,0.0214775,-0.0123532,0.328242,0.09456037649526494,0.3970180489726636,0.021709801608223556,0.09898980635906396,-0.012277212443216001,-0.16761899143663295
606,0.5936,152.964,141.758,0.632544,147.225,-95.3654,-4.80684,0.0904904,0.094527,-0.183737,0.334838,0.0214862,-0.0123701,0.328739,0.0947109983656178,0.3977139372228442,0.02171869052216424,0.09913883948102353,-0.01229390481727477,-0.16784536828231555
607,0.5946,153.031,141.818,0.632729,147.288,-95.4082,-4.80889,0.0906279,0.0946626,-0.18401,0.335336,0.0214949,-0.012387,0.329235,0.09486153147680731,0.3984101721116795,0.021727579513438844,0.0992878928132448,-0.01231059690923475,-0.16807251548976987
608,0.5956,153.097,141.877,0.632913,147.351,-95.451,-4.81094,0.0907653,0.0947981,-0.184282,0.335834,0.0215036,-0.0124039,0.329731,0.09501197578651954,0.39910675381183824,0.02173646858204803,0.09943685641477695,-0.012327288719100826,-0.16829876899368523
609,0.5966,153.164,141.936,0.633095,147.413,-95.4937,-4.81299,0.0909027,0.0949336,-0.184555,0.336331,0.0215122,-0.0124208,0.330227,0.09516244076870017,0.3998022826930927,0.02174525555346185,0.09958584020224492,-0.012343980246877662,-0.1685257924396396
610,0.5976,153.23,141.995,0.633277,147.476,-95.5364,-4.81503,0.0910401,0.095069,-0.184827,0.336829,0.0215209,-0.0124376,0.330723,0.09531292642618983,0.4004995578369741,0.021754144775853135,0.09973473420490486,-0.012360572728632335,-0.16875192266899064
611,0.5986,153.296,142.055,0.633457,147.538,-95.5789,-4.81707,0.0911774,0.0952043,-0.185099,0.337326,0.0215295,-0.0124545,0.331219,0.09546332321549134,0.4011957791138754,0.02176293189928269,0.0998835383808181,-0.01237726369391412,-0.1689779913992836
612,0.5996,153.362,142.114,0.633636,147.6,-95.6215,-4.81911,0.0913146,0.0953396,-0.185371,0.337823,0.0215381,-0.0124714,0.331714,0.0956136310943212,0.40189234649875183,0.021771719098282016,0.10003236269129867,-0.012393954377120986,-0.16920399864724378
613,0.6006,153.428,142.173,0.633814,147.663,-95.6639,-4.82114,0.0914518,0.0954749,-0.185643,0.33832,0.0215467,-0.0124882,0.33221,0.09576395959680695,0.40258926016366225,0.02178050637285156,0.10018120713907064,-0.012410546019317348,-0.16942994442959236
614,0.6016,153.494,142.231,0.633991,147.725,-95.7064,-4.82318,0.091589,0.0956101,-0.185915,0.338816,0.0215553,-0.0125051,0.332705,0.09591430872577789,0.40328511699493164,0.021789293722991765,0.1003299616938571,-0.012427236140057696,-0.16965582876304552
615,0.6026,153.56,142.29,0.634167,147.787,-95.7487,-4.82521,0.0917261,0.0957452,-0.186186,0.339313,0.0215638,-0.0125219,0.3332,0.09606456887760229,0.4039827230388202,0.021797978968900678,0.10047862631375093,-0.012443827223124981,-0.16988082154555173
616,0.6036,153.626,142.349,0.634341,147.849,-95.791,-4.82724,0.0918631,0.0958803,-0.186458,0.339809,0.0215724,-0.0125387,0.333695,0.09621474001002617,0.4046792711991112,0.021806766469306016,0.10062731101959166,-0.01246041802746456,-0.1701065832571067
617,0.6046,153.692,142.408,0.634515,147.91,-95.8332,-4.82926,0.0920001,0.0960153,-0.186729,0.340305,0.0215809,-0.0125556,0.334189,0.09636493171730476,0.4053761649329848,0.021815451863733903,0.10077590573649697,-0.012477107305375101,-0.17033145390169535
618,0.6056,153.757,142.466,0.634687,147.972,-95.8754,-4.83128,0.0921371,0.0961503,-0.187001,0.3408,0.0215894,-0.0125724,0.334684,0.09651514400225647,0.4060719983391865,0.02182413733198807,0.1009245205150433,-0.012493697550613914,-0.17055709305791777
619,0.6066,153.823,142.525,0.634859,148.034,-95.9175,-4.8333,0.092274,0.0962852,-0.187272,0.341296,0.0215979,-0.0125892,0.335178,0.09666526720116897,0.40676958303706634,0.021832822874068736,0.10107304525062899,-0.012510287517138896,-0.17078184163089194
620,0.6076,153.888,142.583,0.635029,148.095,-95.9595,-4.83532,0.0924108,0.0964201,-0.187543,0.341791,0.0216064,-0.012606,0.335672,0.09681530127181848,0.407466106355969,0.021841508489977013,0.10122159002355291,-0.012526877204954823,-0.17100652930525495
621,0.6086,153.953,142.642,0.635198,148.157,-96.0015,-4.83734,0.0925476,0.0965549,-0.187814,0.342287,0.0216149,-0.0126228,0.336166,0.09696535586853283,0.40816438270294,0.021850194179713345,0.1013700446995085,-0.012543466614066356,-0.17123115609750816
622,0.6096,154.018,142.7,0.635366,148.218,-96.0434,-4.83935,0.0926843,0.0966896,-0.188085,0.342782,0.0216234,-0.0126396,0.336659,0.0971153212825826,0.4088615966185858,0.021858879943278398,0.10151840923665678,-0.01256005574447816,-0.17145572202414827
623,0.6106,154.084,142.758,0.635533,148.28,-96.0853,-4.84136,0.092821,0.0968243,-0.188356,0.343277,0.0216318,-0.0126564,0.337153,0.09726530719830584,0.4095591557405516,0.02186746359392111,0.1016667937598541,-0.012576644596194897,-0.17168022710166775
624,0.6116,154.149,142.816,0.635699,148.341,-96.1271,-4.84337,0.0929577,0.096959,-0.188627,0.343771,0.0216402,-0.0126732,0.337646,0.09741531361850497,0.41025564998340114,0.021876047316666813,0.1018151982717932,-0.01259323316922134,-0.1719046713465544
625,0.6126,154.214,142.874,0.635863,148.402,-96.1688,-4.84538,0.0930943,0.0970936,-0.188897,0.344266,0.0216487,-0.01269,0.338139,0.097565230789455,0.4109538993325996,0.021884733299984527,0.10196351257880942,-0.012609821463562043,-0.17212822690393248
626,0.6136,154.278,142.932,0.636027,148.463,-96.2105,-4.84738,0.0932308,0.0972281,-0.189168,0.34476,0.021657,-0.0127068,0.338632,0.0977150586689779,0.4116510827489954,0.021893214978469855,0.102111736639096,-0.012626409479221667,-0.17235254975732206
627,0.6146,154.343,142.99,0.636189,148.524,-96.2522,-4.84938,0.0933673,0.0973626,-0.189438,0.345254,0.0216654,-0.0127236,0.339125,0.09786490700140216,0.4123486106590821,0.02190179891752808,0.10225998063685915,-0.012642997216205099,-0.1725759844038529
628,0.6156,154.408,143.048,0.636351,148.585,-96.2937,-4.85138,0.0935038,0.097497,-0.189709,0.345748,0.0216738,-0.0127404,0.339618,0.09801477578952,0.41304648323308135,0.02191038292869174,0.10240813433396223,-0.012659584674516777,-0.17280018593140034
629,0.6166,154.472,143.105,0.636511,148.646,-96.3353,-4.85338,0.0936401,0.0976314,-0.189979,0.346242,0.0216822,-0.0127571,0.34011,0.09816444540321245,0.4137447006412991,0.0219189670119615,0.1025563079442604,-0.012676073121773879,-0.1730234997324791
630,0.6176,154.537,143.163,0.63667,148.707,-96.3767,-4.85537,0.0937765,0.0977657,-0.190249,0.346735,0.0216905,-0.0127739,0.340602,0.0983142452496828,0.41444184861156996,0.02192744897458776,0.1027043911999852,-0.012692660024415048,-0.1732467532469706
631,0.6186,154.601,143.221,0.636828,148.767,-96.4181,-4.85736,0.0939128,0.0979,-0.190519,0.347229,0.0216988,-0.0127907,0.341094,0.0984639556838447,0.4151407555005724,0.021935931007614595,0.10285249434462695,-0.012709246648398564,-0.1734699464911501
632,0.6196,154.666,143.278,0.636986,148.828,-96.4594,-4.85935,0.094049,0.0980342,-0.190789,0.347722,0.0217071,-0.0128074,0.341586,0.0986135766635663,0.4158385918955714,0.02194441311104267,0.10300050708080044,-0.01272573426630752,-0.1736930794812882
633,0.6206,154.73,143.336,0.637142,148.888,-96.5007,-4.86134,0.0941852,0.0981684,-0.191059,0.348215,0.0217154,-0.0128242,0.342078,0.0987632180230531,0.41653677240873144,0.02195289528487243,0.10314853968161608,-0.012742320334648505,-0.17391615223365153
634,0.6216,154.794,143.393,0.637296,148.949,-96.5419,-4.86332,0.0943214,0.0983025,-0.191329,0.348707,0.0217237,-0.0128409,0.342569,0.09891287976508112,0.4172338799751558,0.021961377529104542,0.1032964818200861,-0.012758807400231498,-0.17413916476450197
635,0.6226,154.858,143.45,0.63745,149.009,-96.5831,-4.8653,0.0944575,0.0984365,-0.191598,0.3492,0.021732,-0.0128576,0.34306,0.0990624519861758,0.4179327485349287,0.02196985984373967,0.10344433345448834,-0.012775294190482844,-0.17436129145180146
636,0.6236,154.922,143.507,0.637603,149.069,-96.6242,-4.86728,0.0945935,0.0985705,-0.191868,0.349692,0.0217402,-0.0128744,0.343551,0.09921193464423639,0.41863054309059256,0.02197824003094917,0.10359220490233678,-0.012791879426224062,-0.17458418381128693
637,0.6246,154.986,143.565,0.637755,149.13,-96.6653,-4.86926,0.0947295,0.0987045,-0.192137,0.350185,0.0217485,-0.0128911,0.344042,0.09936143763332073,0.41933010037503804,0.021986722485543453,0.1037400961662871,-0.012808365664177201,-0.1748061908045624
638,0.6256,155.05,143.622,0.637905,149.19,-96.7063,-4.87123,0.0948654,0.0988384,-0.192406,0.350677,0.0217567,-0.0129078,0.344533,0.0995108510051037,0.4200285825969594,0.021995102811027234,0.1038878968601995,-0.012824851626812461,-0.17502813808598816
639,0.6266,155.113,143.679,0.638055,149.25,-96.7472,-4.8732,0.0950013,0.0989722,-0.192676,0.351169,0.0217649,-0.0129245,0.345024,0.09966028468354371,0.42072740855668633,0.022003483205229823,0.10403560694238356,-0.012841337314134393,-0.1752508504211867
640,0.6276,155.177,143.736,0.638203,149.31,-96.7881,-4.87517,0.0951372,0.099106,-0.192945,0.35166,0.0217731,-0.0129412,0.345514,0.09980973867140075,0.42142515699751204,0.022011863668151888,0.10418333678949887,-0.01285782272614766,-0.17547267810526235
641,0.6286,155.241,143.792,0.638351,149.37,-96.8289,-4.87714,0.095273,0.0992397,-0.193214,0.352152,0.0217813,-0.0129579,0.346004,0.09995910297551913,0.4221246702409023,0.022020244199794092,0.10433097597108687,-0.012874307862856926,-0.17569444612571594
642,0.6296,155.304,143.849,0.638497,149.429,-96.8697,-4.87911,0.0954087,0.0993734,-0.193483,0.352643,0.0217895,-0.0129746,0.346494,0.10010837755384383,0.422823104905669,0.022028624800156882,0.1044786348933533,-0.012890792724266631,-0.1759161544985951
643,0.6306,155.367,143.906,0.638643,149.489,-96.9104,-4.88107,0.0955444,0.099507,-0.193751,0.353134,0.0217976,-0.0129913,0.346984,0.10025767239010341,0.42352188258605983,0.022036903265545638,0.10462620309631143,-0.012907277310381438,-0.17613697937733397
644,0.6316,155.431,143.962,0.638787,149.549,-96.951,-4.88303,0.0956801,0.0996406,-0.19402,0.353625,0.0218058,-0.013008,0.347474,0.10040698748704702,0.4242210034505365,0.022045284002513377,0.1047737910156985,-0.012923761621206009,-0.17635856872477806
645,0.6326,155.494,144.019,0.63893,149.608,-96.9916,-4.88499,0.0958157,0.0997741,-0.194289,0.354116,0.0218139,-0.0130247,0.347963,0.10055621279179738,0.4249204676676437,0.02205356260284197,0.10492128816201474,-0.012940245656744787,-0.17658009847270417
646,0.6336,155.557,144.075,0.639072,149.668,-97.0322,-4.88694,0.0959512,0.0999076,-0.194557,0.354606,0.021822,-0.0130414,0.348452,0.10070534826233057,0.4256188497864464,0.02206184127022781,0.10506880500051419,-0.012956729417002544,-0.1768007454382995
647,0.6346,155.62,144.132,0.639213,149.727,-97.0727,-4.8889,0.0960867,0.100041,-0.194826,0.355096,0.0218301,-0.0130581,0.348941,0.10085450394208917,0.42631757419634186,0.0220701200046709,0.10521623101219757,-0.012973212901983833,-0.17702215625668638
648,0.6356,155.683,144.188,0.639354,149.786,-97.1131,-4.89085,0.0962222,0.100174,-0.195094,0.355587,0.0218382,-0.0130747,0.34943,0.10100367983381164,0.42701806808244824,0.022078398806171906,0.10536323454644059,-0.01298959741065786,-0.17724268476666927
649,0.6366,155.746,144.244,0.639493,149.846,-97.1535,-4.8928,0.0963576,0.100308,-0.195362,0.356077,0.0218463,-0.0130914,0.349919,0.10115276582495514,0.4277174782773123,0.022086677674731714,0.10551136314426413,-0.013006080346748217,-0.17746315418293046
650,0.6376,155.809,144.301,0.639631,149.905,-97.1938,-4.89474,0.0964929,0.100441,-0.19563,0.356566,0.0218543,-0.0131081,0.350408,0.10130176187352657,0.42841580285063285,0.022094854400859898,0.10565840593369114,-0.01302256300757576,-0.17768356452130485
651,0.6386,155.871,144.357,0.639768,149.964,-97.2341,-4.89669,0.0966282,0.100574,-0.195898,0.357056,0.0218624,-0.0131247,0.350896,0.10145077808262726,0.42911589810335893,0.022103133402710418,0.1058054682811096,-0.013038946697044862,-0.1779039157976232
652,0.6396,155.934,144.413,0.639904,150.023,-97.2743,-4.89863,0.0967635,0.100707,-0.196166,0.357545,0.0218704,-0.0131414,0.351384,0.101599814454985,0.42981490667119737,0.022111310260485073,0.10595255018912098,-0.013055428809009006,-0.17812420802771212
653,0.6406,155.996,144.469,0.640038,150.082,-97.3144,-4.90057,0.0968987,0.10084,-0.196434,0.358035,0.0218784,-0.013158,0.351872,0.10174876081844664,0.43051568765278514,0.022119487183674735,0.1060996516603272,-0.013071811952910295,-0.1783444412273938
654,0.6416,156.059,144.525,0.640172,150.141,-97.3545,-4.90251,0.0970338,0.100973,-0.196701,0.358524,0.0218864,-0.0131747,0.35236,0.10189761713105083,0.43121538088510003,0.022127664172280292,0.10624677269733018,-0.013088293516029248,-0.17856379397669087
655,0.6426,156.121,144.58,0.640305,150.199,-97.3946,-4.90444,0.097169,0.101106,-0.196969,0.359013,0.0218944,-0.0131913,0.352848,0.10204660376015617,0.431915416351075,0.022135841226301745,0.10639391330273229,-0.013104676114380931,-0.17878390938312316
656,0.6436,156.184,144.636,0.640437,150.258,-97.4346,-4.90637,0.097304,0.101239,-0.197237,0.359501,0.0219024,-0.0132079,0.353335,0.10219539009451539,0.4326143616030249,0.02214401834573998,0.10654107347913633,-0.013121058440783817,-0.17900396580653066
657,0.6446,156.246,144.692,0.640568,150.317,-97.4745,-4.9083,0.097439,0.101372,-0.197504,0.35999,0.0219104,-0.0132245,0.353822,0.1023441965163856,0.4333150813378608,0.022152195530595442,0.10668825322914555,-0.013137440495242236,-0.17922314248627158
658,0.6456,156.308,144.747,0.640698,150.375,-97.5144,-4.91023,0.097574,0.101505,-0.197771,0.360478,0.0219183,-0.0132412,0.354309,0.10249302302847885,0.4340147097930125,0.022160270564836493,0.1068354525553632,-0.013153920962373666,-0.17944226065365065
659,0.6466,156.37,144.803,0.640827,150.434,-97.5542,-4.91216,0.0977089,0.101638,-0.198038,0.360966,0.0219263,-0.0132578,0.354796,0.10264175936932585,0.43471467975017,0.022168447879710174,0.1069826714603932,-0.013170302471318784,-0.17966132032428872
660,0.6476,156.432,144.858,0.640954,150.492,-97.594,-4.91408,0.0978437,0.101771,-0.198305,0.361454,0.0219342,-0.0132744,0.355283,0.1027904054970128,0.4354149913760268,0.02217652304234541,0.10712990994683969,-0.013186683708333091,-0.1798803215138023
661,0.6486,156.494,144.914,0.641081,150.55,-97.6337,-4.916,0.0979786,0.101903,-0.198572,0.361942,0.0219421,-0.013291,0.35577,0.10293918195746099,0.436115644837358,0.022184598268774502,0.10727606074069285,-0.013203064673421139,-0.18009926423780376
662,0.6496,156.556,144.969,0.641207,150.609,-97.6734,-4.91792,0.0981133,0.102036,-0.198839,0.362429,0.02195,-0.0133076,0.356256,0.10308775787163382,0.4368152034850985,0.02219267355899812,0.10742333825050876,-0.013219445366587479,-0.1803181485119013
663,0.6506,156.617,145.024,0.641332,150.667,-97.713,-4.91984,0.098248,0.102168,-0.199106,0.362917,0.0219579,-0.0133242,0.356742,0.10323635380033025,0.4375165404166923,0.022200748913016932,0.10756952777945439,-0.013235825787836553,-0.18053697435169902
664,0.6516,156.679,145.08,0.641456,150.725,-97.7526,-4.92175,0.0983827,0.102301,-0.199373,0.363404,0.0219658,-0.0133408,0.357228,0.10338496974624656,0.43821678146673126,0.022208824330831156,0.10771684432298212,-0.0132522059371728,-0.18075574177279674
665,0.6526,156.741,145.135,0.641578,150.783,-97.7921,-4.92367,0.0985173,0.102433,-0.199639,0.363891,0.0219736,-0.0133573,0.357714,0.10353349535872369,0.4389173636172128,0.022216797590756565,0.10786307259728645,-0.013268487141454566,-0.1809736317648315
666,0.6536,156.802,145.19,0.6417,150.841,-97.8316,-4.92558,0.0986519,0.102566,-0.199906,0.364378,0.0219815,-0.0133739,0.3582,0.10368204096409395,0.4396182870342933,0.022224873135355816,0.10801042818487128,-0.013284866748616841,-0.18119228261396303
667,0.6546,156.863,145.245,0.641821,150.899,-97.871,-4.92749,0.0987864,0.102698,-0.200172,0.364865,0.0219893,-0.0133905,0.358685,0.10383049618199336,0.44031955188421024,0.022232846520462646,0.1081566952148032,-0.013301246083880058,-0.1814100565015766
668,0.6556,156.925,145.3,0.641941,150.956,-97.9103,-4.92939,0.0989209,0.10283,-0.200438,0.365351,0.0219971,-0.0134071,0.35917,0.10397897136846224,0.4410197173128436,0.022240819967761727,0.10830298155325746,-0.013317625147248435,-0.18162777246903972
669,0.6566,156.986,145.354,0.64206,151.014,-97.9496,-4.9313,0.0990553,0.102963,-0.200705,0.365837,0.0220049,-0.0134236,0.359655,0.1041273561134457,0.44172022310457715,0.02224879347725417,0.10845039565262438,-0.013333905272122082,-0.1818462486859177
670,0.6576,157.047,145.409,0.642177,151.072,-97.9889,-4.9332,0.0991897,0.103095,-0.200971,0.366323,0.0220127,-0.0134402,0.36014,0.10427576080267897,0.4424210694248669,0.022256767048940196,0.10859672076209526,-0.013350283793352458,-0.18206384864169
671,0.6586,157.108,145.464,0.642294,151.129,-98.0281,-4.9351,0.099324,0.103227,-0.201237,0.366809,0.0220205,-0.0134567,0.360625,0.10442407499643003,0.4431222564392505,0.02226474068282025,0.10874306518775545,-0.013366563379362928,-0.18228139072357175
672,0.6596,157.169,145.519,0.64241,151.187,-98.0672,-4.93699,0.0994583,0.103359,-0.201502,0.367295,0.0220283,-0.0134733,0.36111,0.10457240911011478,0.44382378431334524,0.022272714378894998,0.10888942893215492,-0.013382941358473177,-0.18249805744542136
673,0.6606,157.23,145.573,0.642525,151.244,-98.1063,-4.93889,0.0995925,0.103491,-0.201768,0.367781,0.0220361,-0.0134898,0.361594,0.10472065267433806,0.4445256532128492,0.022280688137164883,0.10903581199784385,-0.013399220405638346,-0.18271548404312143
674,0.6616,157.291,145.628,0.642639,151.302,-98.1454,-4.94078,0.0997267,0.103623,-0.202034,0.368266,0.0220438,-0.0135064,0.362078,0.1048689161341827,0.4452264180764003,0.022288559728768975,0.10918221438737263,-0.013415597842646454,-0.18293285281303784
675,0.6626,157.352,145.682,0.642752,151.359,-98.1843,-4.94267,0.0998608,0.103755,-0.202299,0.368751,0.0220515,-0.0135229,0.362562,0.10501708899060413,0.44592752289334237,0.022296431380984805,0.10932863610329235,-0.013431876350983973,-0.18314934692030627
676,0.6636,157.412,145.736,0.642864,151.416,-98.2233,-4.94456,0.0999949,0.103887,-0.202565,0.369236,0.0220593,-0.0135394,0.363046,0.10516528171833817,0.4466289678285926,0.022304405324247822,0.1094750771481543,-0.013448154590728345,-0.1833666002980452
677,0.6646,157.473,145.791,0.642975,151.473,-98.2622,-4.94645,0.100129,0.104019,-0.20283,0.369721,0.022067,-0.0135559,0.36353,0.10531349432004933,0.44733075304714864,0.022312277098475164,0.10962153752450998,-0.01346443256188401,-0.18358297947745872
678,0.6656,157.534,145.845,0.643085,151.53,-98.301,-4.94833,0.100263,0.104151,-0.203096,0.370206,0.0220747,-0.0135725,0.364014,0.10546161625223616,0.4480328787140875,0.022320148933315354,0.10976801723491159,-0.013480808916379372,-0.18380011752427716
679,0.6666,157.594,145.899,0.643194,151.587,-98.3398,-4.95021,0.100397,0.104282,-0.203361,0.37069,0.0220824,-0.013589,0.364497,0.10560975803409156,0.44873389625994653,0.022328020828768835,0.10991340636794966,-0.013497086348743026,-0.1840163818368462
680,0.6676,157.654,145.953,0.643302,151.644,-98.3785,-4.95209,0.100531,0.104414,-0.203626,0.371174,0.02209,-0.0136055,0.36498,0.10575791966827608,0.44943525318041955,0.02233579055125201,0.1100599246075813,-0.013513363512531296,-0.18423258884696536
681,0.6686,157.715,146.007,0.643409,151.701,-98.4172,-4.95397,0.100665,0.104546,-0.203891,0.371659,0.0220977,-0.013622,0.365463,0.10590610115744958,0.4501383997774788,0.022343662567146483,0.11020646218889696,-0.013529640407748622,-0.1844487385698177
682,0.6696,157.775,146.061,0.643515,151.758,-98.4559,-4.95585,0.100798,0.104677,-0.204156,0.372142,0.0221053,-0.0136385,0.365946,0.1060531964505238,0.4508389858024764,0.022351432408507454,0.11035190876198642,-0.013545917034399335,-0.1846648310205824
683,0.6706,157.835,146.115,0.64362,151.814,-98.4944,-4.95772,0.100932,0.104809,-0.20442,0.372626,0.022113,-0.013655,0.366428,0.10620141750943723,0.45154136183289295,0.022359304544844694,0.11049848488775438,-0.013562193392487987,-0.18488005109489314
684,0.6716,157.895,146.169,0.643724,151.871,-98.533,-4.95959,0.101066,0.10494,-0.204685,0.37311,0.0221206,-0.0136715,0.366911,0.1063496584313035,0.4522440778955892,0.022367074505085016,0.11064396971832302,-0.013578469482018796,-0.18509602926298174
685,0.6726,157.955,146.223,0.643828,151.928,-98.5715,-4.96146,0.101199,0.105072,-0.20495,0.373593,0.0221282,-0.0136879,0.367393,0.10649681272141809,0.4529456812087733,0.022374844524377213,0.11079058439868184,-0.013594646662466126,-0.1853119502044388
686,0.6736,158.015,146.277,0.64393,151.984,-98.6099,-4.96333,0.101333,0.105203,-0.205214,0.374076,0.0221358,-0.0137044,0.367875,0.10664509322889493,0.453647623478209,0.02238261460272195,0.11093610749679295,-0.013610922216522492,-0.18552699946183382
687,0.6746,158.075,146.33,0.644031,152.041,-98.6483,-4.96519,0.101467,0.105335,-0.205479,0.374559,0.0221434,-0.0137209,0.368357,0.10679339360729112,0.45434990486765137,0.02239038474011945,0.11108276074188361,-0.01362719750203445,-0.18574280621131922
688,0.6756,158.135,146.384,0.644132,152.097,-98.6866,-4.96706,0.1016,0.105466,-0.205743,0.375042,0.022151,-0.0137374,0.368839,0.10694060691810892,0.45505252554093567,0.022398154936570158,0.11122832211760292,-0.013643472519006439,-0.1859577417377416
689,0.6766,158.194,146.437,0.644231,152.153,-98.7249,-4.96892,0.101734,0.105597,-0.206007,0.375525,0.0221585,-0.0137538,0.36932,0.10708894689799275,0.4557554856619752,0.022405822951487187,0.1113739025631113,-0.013659648633412624,-0.18617262052867434
690,0.6776,158.254,146.491,0.64433,152.209,-98.7631,-4.97078,0.101867,0.105728,-0.206271,0.376007,0.0221661,-0.0137703,0.369802,0.1072361995200124,0.45645732893670554,0.022413593265268705,0.11151950208090722,-0.013675923114945254,-0.1863874425990939
691,0.6786,158.314,146.544,0.644427,152.265,-98.8013,-4.97263,0.102,0.105859,-0.206535,0.37649,0.0221736,-0.0137867,0.370283,0.10738347172793339,0.45716096774167414,0.02242126139597378,0.11166512067348933,-0.013692098697166033,-0.1866022079639722
692,0.6796,158.373,146.597,0.644524,152.321,-98.8394,-4.97449,0.102134,0.10599,-0.206799,0.376972,0.0221812,-0.0138032,0.370764,0.10753187105567785,0.4578634886220567,0.022429031827087886,0.11181075834335674,-0.013708372643277178,-0.1868169166382776
693,0.6806,158.432,146.651,0.644619,152.377,-98.8775,-4.97634,0.102267,0.106121,-0.207063,0.377454,0.0221887,-0.0138196,0.371245,0.10767918259052811,0.4585663481991229,0.02243670007358256,0.11195641509300835,-0.01372454769332998,-0.18703156863697457
694,0.6816,158.492,146.704,0.644714,152.433,-98.9156,-4.97819,0.1024,0.106252,-0.207327,0.377935,0.0221962,-0.0138361,0.371726,0.10782651371911567,0.45926808736734714,0.02244436837758923,0.11210209092494439,-0.013740821104037071,-0.18724616397502347
695,0.6826,158.551,146.757,0.644808,152.489,-98.9536,-4.98004,0.102533,0.106383,-0.20759,0.378417,0.0222037,-0.0138525,0.372206,0.10797386444404622,0.4599716241241958,0.02245203673910834,0.11224778584166417,-0.01375699562193955,-0.18745989012767705
696,0.6836,158.61,146.81,0.644901,152.545,-98.9915,-4.98189,0.102666,0.106514,-0.207854,0.378898,0.0222112,-0.0138689,0.372687,0.10812123476792657,0.4606740393927291,0.02245970515814033,0.11239349984566838,-0.013773169874582103,-0.18767437240377716
697,0.6846,158.669,146.863,0.644993,152.601,-99.0294,-4.98373,0.102799,0.106645,-0.208117,0.37938,0.0222186,-0.0138853,0.373167,0.10826862469336351,0.46137825398179855,0.02246727138795368,0.11253923293945722,-0.013789343861969061,-0.18788798595242207
698,0.6856,158.728,146.916,0.645084,152.656,-99.0672,-4.98557,0.102932,0.106776,-0.20838,0.379861,0.0222261,-0.0139018,0.373647,0.10841603422296409,0.462081346002039,0.02247493992124605,0.11268498512553204,-0.013805616203548254,-0.1881015433280907
699,0.6866,158.787,146.969,0.645174,152.712,-99.105,-4.98741,0.103065,0.106907,-0.208643,0.380342,0.0222335,-0.0139182,0.374126,0.10856346335933598,0.4627847762908883,0.022482506263796775,0.11283075640639395,-0.01382178965881975,-0.1883150445455546
700,0.6876,158.846,147.022,0.645263,152.767,-99.1428,-4.98925,0.103198,0.107037,-0.208907,0.380822,0.022241,-0.0139346,0.374606,0.1087109121050871,0.46348708152327944,0.0224901749113513,0.11297543380855424,-0.013837962848848862,-0.18852930109068622
701,0.6886,158.905,147.074,0.645351,152.823,-99.1805,-4.99109,0.103331,0.107168,-0.20917,0.381303,0.0222484,-0.013951,0.375086,0.10885838046282537,0.46419118813355653,0.0224977413666414,0.11312124314068583,-0.013854135773639809,-0.1887426898226512
702,0.6896,158.964,147.127,0.645439,152.878,-99.2181,-4.99292,0.103464,0.107298,-0.209433,0.381783,0.0222558,-0.0139674,0.375565,0.1090058684351598,0.46489416860567667,0.022505307877923597,0.11326595830857622,-0.01387030843319692,-0.18895602244075882
703,0.6906,159.022,147.18,0.645525,152.934,-99.2557,-4.99476,0.103597,0.107429,-0.209695,0.382263,0.0222632,-0.0139838,0.376044,0.10915337602469877,0.4655974865894199,0.022512874445198117,0.11341180570191045,-0.013886480827524639,-0.18916848812865894
704,0.6916,159.081,147.232,0.645611,152.989,-99.2933,-4.99659,0.10373,0.107559,-0.209958,0.382743,0.0222706,-0.0140002,0.376523,0.10930090323405217,0.4663011422468304,0.022520441068465402,0.11355655864538905,-0.013902652956627182,-0.18938170877653682
705,0.6926,159.14,147.285,0.645695,153.044,-99.3308,-4.99841,0.103862,0.10769,-0.210221,0.383223,0.022278,-0.0140165,0.377002,0.10944734061793371,0.46700513574003044,0.02252800774772612,0.11370244410986086,-0.013918726212386656,-0.1895948733547579
706,0.6936,159.198,147.337,0.645779,153.099,-99.3682,-5.00024,0.103995,0.10782,-0.210483,0.383703,0.0222853,-0.0140329,0.37748,0.10959490692717799,0.46770946723122053,0.022535472229427977,0.11384723483878867,-0.013934897812669322,-0.1898071716856432
707,0.6946,159.256,147.389,0.645862,153.154,-99.4056,-5.00207,0.104127,0.10795,-0.210746,0.384182,0.0222927,-0.0140493,0.377959,0.10974138312210857,0.46841266846927554,0.022543039019919497,0.11399204439173483,-0.013951069147739803,-0.1900202243818322
708,0.6956,159.315,147.442,0.645944,153.209,-99.443,-5.00389,0.10426,0.108081,-0.211008,0.384661,0.0223,-0.0140657,0.378437,0.10988898854160656,0.46911620662140807,0.022550503611350026,0.11413798690857613,-0.01396724021760265,-0.19023241128534607
709,0.6966,159.373,147.494,0.646024,153.264,-99.4803,-5.00571,0.104393,0.108211,-0.21127,0.38514,0.0223074,-0.014082,0.378915,0.11003661359393102,0.46982008184903856,0.022558070513074346,0.11428283426174835,-0.01398331242059836,-0.19044454260317323
710,0.6976,159.431,147.546,0.646105,153.319,-99.5176,-5.00753,0.104525,0.108341,-0.211532,0.385619,0.0223147,-0.0140984,0.379393,0.11018314809798979,0.47052429431366494,0.0225655352142351,0.11442770044630035,-0.013999482961675858,-0.19065661834987524
711,0.6986,159.489,147.598,0.646184,153.373,-99.5548,-5.00934,0.104657,0.108471,-0.211794,0.386098,0.022322,-0.0141147,0.37987,0.11032970194587999,0.4712288441768624,0.022572999969888707,0.11457258546468041,-0.014015554639119077,-0.1908686385400098
712,0.6996,159.547,147.65,0.646262,153.428,-99.592,-5.01116,0.10479,0.108601,-0.212056,0.386577,0.0223293,-0.0141311,0.380348,0.11047738561698517,0.4719337316002834,0.022580464780034948,0.11471748931933745,-0.014031724651428434,-0.19108060318813092
713,0.7006,159.605,147.702,0.646339,153.483,-99.6291,-5.01297,0.104922,0.108731,-0.212318,0.387055,0.0223366,-0.0141474,0.380825,0.11062397830679127,0.4726374841074379,0.022587929644674487,0.11486241201271974,-0.014047795803336371,-0.19129251230878863
714,0.7016,159.663,147.754,0.646416,153.537,-99.6662,-5.01478,0.105054,0.108861,-0.21258,0.387533,0.0223439,-0.0141638,0.381303,0.11077059034810954,0.47334157308870184,0.02259539456380777,0.11500735354727709,-0.01406396528689513,-0.1915043659165292
715,0.7026,159.721,147.806,0.646491,153.592,-99.7032,-5.01659,0.105187,0.108991,-0.212841,0.388011,0.0223511,-0.0141801,0.38178,0.11091833266127193,0.4740459987049479,0.02260275727715433,0.11515231392545866,-0.014080035913284994,-0.1917153557416551
716,0.7036,159.779,147.858,0.646566,153.646,-99.7402,-5.0184,0.105319,0.109121,-0.213103,0.388489,0.0223584,-0.0141964,0.382256,0.11106498355992955,0.47475076111712644,0.022610222304529914,0.11529729314971449,-0.014096106277725728,-0.19192709857892787
717,0.7046,159.836,147.91,0.64664,153.701,-99.7772,-5.0202,0.105451,0.109251,-0.213365,0.388967,0.0223656,-0.0142128,0.382733,0.11121165381778364,0.4754558604862644,0.02261758512463663,0.11544229122249439,-0.014112274968999139,-0.19213878594684408
718,0.7056,159.894,147.961,0.646713,153.755,-99.814,-5.02201,0.105583,0.109381,-0.213626,0.389444,0.0223729,-0.0142291,0.38321,0.11135834343738948,0.47615982081290653,0.02262505026025563,0.11558730814624907,-0.014128344807947668,-0.19234961020994878
719,0.7066,159.951,148.013,0.646785,153.809,-99.8509,-5.02381,0.105715,0.10951,-0.213887,0.389921,0.0223801,-0.0142454,0.383686,0.11150505242130304,0.4768641170087231,0.022632413187124056,0.11573122819164339,-0.014144414384959836,-0.19256037945510107
720,0.7076,160.009,148.064,0.646856,153.863,-99.8877,-5.02561,0.105847,0.10964,-0.214148,0.390399,0.0223873,-0.0142617,0.384162,0.11165178077208093,0.4775702268034496,0.022639776167005632,0.11587628267964556,-0.014160483700040083,-0.19277109369665857
721,0.7086,160.066,148.116,0.646926,153.917,-99.9245,-5.0274,0.105979,0.10977,-0.214409,0.390876,0.0223945,-0.014278,0.384638,0.11179852849227911,0.4782751959234033,0.022647139199901023,0.11602135602595731,-0.014176552753192628,-0.19298175294897546
722,0.7096,160.123,148.167,0.646995,153.971,-99.9612,-5.0292,0.106111,0.109899,-0.21467,0.391352,0.0224017,-0.0142943,0.385114,0.1119452955844551,0.4789790224140784,0.02265450228581045,0.11616533206713964,-0.014192621544421802,-0.19319235722640205
723,0.7106,160.181,148.219,0.647064,154.025,-99.9978,-5.03099,0.106243,0.110029,-0.214931,0.391829,0.0224089,-0.0143106,0.38559,0.11209208205116594,0.47968466368983464,0.02266186542473414,0.11631044299231408,-0.014208690073731711,-0.19340290654328485
724,0.7116,160.238,148.27,0.647131,154.079,-100.034,-5.03278,0.106374,0.110158,-0.215192,0.392305,0.022416,-0.0143269,0.386065,0.1122377756566375,0.4803891612468678,0.02266912634975493,0.11645445632812046,-0.014224758341126797,-0.19361340091396673
725,0.7126,160.295,148.321,0.647198,154.133,-100.071,-5.03457,0.106506,0.110288,-0.215453,0.392782,0.0224232,-0.0143432,0.38654,0.11238460073326606,0.48109547531929664,0.02267648959397217,0.11659960484189225,-0.01424082634661128,-0.19382384035278677
726,0.7136,160.352,148.372,0.647264,154.187,-100.108,-5.03636,0.106638,0.110417,-0.215713,0.393258,0.0224304,-0.0143594,0.387015,0.1125314451920838,0.4818006445825187,0.022683852891205225,0.11674365548198318,-0.014256795515873777,-0.19403341890790227
727,0.7146,160.409,148.424,0.647329,154.241,-100.144,-5.03815,0.106769,0.110546,-0.215974,0.393734,0.0224375,-0.0143757,0.38749,0.11267719635789697,0.48250614958620974,0.022691113972337362,0.11688772470580555,-0.014272862999156533,-0.19424374873633077
728,0.7156,160.466,148.475,0.647393,154.294,-100.18,-5.03993,0.106901,0.110676,-0.216234,0.394209,0.0224446,-0.014392,0.387965,0.11282407944188644,0.48321050727897186,0.022698375105023594,0.1170329295481276,-0.014288930220541451,-0.19445321812945815
729,0.7166,160.523,148.526,0.647456,154.348,-100.217,-5.04171,0.107033,0.110805,-0.216494,0.394685,0.0224517,-0.0144083,0.38844,0.11297098191572275,0.48391668353705275,0.02270563628926414,0.1171770360907114,-0.014304997180032752,-0.19466263306762288
730,0.7176,160.58,148.577,0.647519,154.401,-100.253,-5.04349,0.107164,0.110934,-0.216755,0.39516,0.0224588,-0.0144245,0.388914,0.11311679066461822,0.48462171139259236,0.022712897525059006,0.11732116122423841,-0.014320965309736255,-0.19487279869258511
731,0.7186,160.636,148.628,0.64758,154.455,-100.29,-5.04527,0.107296,0.111063,-0.217015,0.395635,0.0224659,-0.0144408,0.389388,0.11326373177888627,0.48532707421591215,0.022720158812409075,0.11746530495110674,-0.014337031747059914,-0.195082104553984
732,0.7196,160.693,148.678,0.647641,154.508,-100.326,-5.04705,0.107427,0.111192,-0.217275,0.39611,0.022473,-0.014457,0.389863,0.11340957888052583,0.48603277216615925,0.022727420151314348,0.11760946727371535,-0.01435299935780765,-0.1952913560029328
733,0.7206,160.749,148.729,0.6477,154.562,-100.362,-5.04882,0.107558,0.111321,-0.217535,0.396585,0.0224801,-0.0144733,0.390336,0.1135554450893872,0.486738805402557,0.02273468154177527,0.11775364819446321,-0.014369065272980541,-0.19550055305357694
734,0.7216,160.806,148.78,0.647759,154.615,-100.398,-5.05059,0.10769,0.11145,-0.217795,0.39706,0.0224872,-0.0144895,0.39081,0.11370244410986086,0.4874451740844039,0.022741942983792285,0.11789784771574952,-0.014385032364789274,-0.19570969572005814
735,0.7226,160.862,148.831,0.647817,154.668,-100.434,-5.05237,0.107821,0.111579,-0.218054,0.397535,0.0224942,-0.0145058,0.391284,0.11384834868658045,0.48815187837107454,0.02274910220245041,0.11804206583997368,-0.014401097757828385,-0.19591797993489657
736,0.7236,160.919,148.881,0.647875,154.721,-100.47,-5.05413,0.107952,0.111708,-0.218314,0.398009,0.0225013,-0.014522,0.391757,0.1139942723780516,0.48885742956384504,0.022756363746854635,0.11818630256953622,-0.014417064330715212,-0.1961270140844965
737,0.7246,160.975,148.932,0.647931,154.774,-100.506,-5.0559,0.108083,0.111837,-0.218573,0.398483,0.0225083,-0.0145382,0.39223,0.1141402151867783,0.4895633152671537,0.022763523066458458,0.11833055790683678,-0.0144330306449455,-0.19633519022787427
738,0.7256,161.031,148.982,0.647986,154.827,-100.542,-5.05767,0.108214,0.111966,-0.218833,0.398957,0.0225153,-0.0145544,0.392703,0.11428617711526545,0.4902695356395961,0.022770682436177525,0.11847483185427632,-0.014448996700523686,-0.19654411591689858
739,0.7266,161.087,149.033,0.648041,154.88,-100.578,-5.05943,0.108346,0.112094,-0.219092,0.399431,0.0225223,-0.0145707,0.393176,0.11443327259873293,0.49097609083984284,0.022777841856012504,0.11861800579569048,-0.014465061050952688,-0.19675218404489037
740,0.7276,161.144,149.083,0.648095,154.933,-100.614,-5.06119,0.108477,0.112223,-0.219352,0.399904,0.0225293,-0.0145869,0.393649,0.11457927292025549,0.49168148934440503,0.022785001325963616,0.11876231682629945,-0.014481026587642387,-0.19696100132961536
741,0.7286,161.2,149.133,0.648148,154.986,-100.65,-5.06295,0.108608,0.112352,-0.219611,0.400378,0.0225363,-0.0146031,0.394122,0.11472529236907314,0.492388713969349,0.022792160846031306,0.1189066464742321,-0.014496991865692643,-0.19716896149826657
742,0.7296,161.256,149.184,0.6482,155.039,-100.686,-5.06471,0.108739,0.11248,-0.21987,0.400851,0.0225433,-0.0146193,0.394594,0.11487133094769164,0.49309478080269864,0.022799320416215574,0.11904987569145531,-0.014512956885107342,-0.19737686781220865
743,0.7306,161.311,149.234,0.648251,155.091,-100.722,-5.06647,0.108869,0.112609,-0.220129,0.401324,0.0225503,-0.0146355,0.395066,0.1150162736417859,0.4938011816846566,0.022806480036517307,0.11919424243687438,-0.014528921645890924,-0.1975847202853881
744,0.7316,161.367,149.284,0.648302,155.144,-100.757,-5.06822,0.109,0.112737,-0.220388,0.401797,0.0225572,-0.0146517,0.395538,0.11516235034144784,0.49450791677326555,0.022813537425577346,0.1193375084687367,-0.014544886148047387,-0.19779251893174787
745,0.7326,161.423,149.334,0.648351,155.197,-100.793,-5.06998,0.109131,0.112866,-0.220646,0.40227,0.0225642,-0.0146679,0.39601,0.11530844617841085,0.4952149862266424,0.02282069714539836,0.11948191232117744,-0.01456085039158106,-0.1979994617650901
746,0.7336,161.479,149.384,0.6484,155.249,-100.829,-5.07173,0.109262,0.112994,-0.220905,0.402743,0.0225711,-0.014684,0.396482,0.11545456115518227,0.495922390202979,0.02282775463255704,0.11962521517714153,-0.014576715834172638,-0.19820715300731606
747,0.7346,161.534,149.434,0.648448,155.302,-100.864,-5.07348,0.109393,0.113122,-0.221164,0.403215,0.0225781,-0.0147002,0.396953,0.11560069527426942,0.49662863223116194,0.02283491445189889,0.11976853637704532,-0.014592679562069555,-0.19841479046447574
748,0.7356,161.59,149.484,0.648495,155.354,-100.9,-5.07522,0.109523,0.113251,-0.221422,0.403687,0.022585,-0.0147164,0.397425,0.1157457327918896,0.4973352076842641,0.0228419720371571,0.11991299583567283,-0.014608643031356228,-0.19862157277247117
749,0.7366,161.645,149.534,0.648541,155.406,-100.936,-5.07697,0.109654,0.113379,-0.221681,0.404159,0.0225919,-0.0147326,0.397896,0.11589190505695957,0.49804211671969956,0.02284902967111302,0.12005635387385838,-0.014624606242036764,-0.19882910290881028
750,0.7376,161.701,149.584,0.648587,155.459,-100.971,-5.07871,0.109784,0.113507,-0.221939,0.404631,0.0225988,-0.0147487,0.398367,0.11603698043431221,0.4987493594949559,0.022856087353766652,0.12019973026304753,-0.014640470658167426,-0.19903577833798303
751,0.7386,161.756,149.633,0.648631,155.511,-101.006,-5.08046,0.109915,0.113635,-0.222197,0.405103,0.0226057,-0.0147649,0.398838,0.11618319085532258,0.4994569361675958,0.022863145085118664,0.12034312500558886,-0.014656433353244513,-0.1992424004517731
752,0.7396,161.812,149.683,0.648675,155.563,-101.042,-5.0822,0.110045,0.113763,-0.222455,0.405575,0.0226126,-0.014781,0.399308,0.11632830410229045,0.5001648468952562,0.022870202865169054,0.12048653810383203,-0.01467229725696284,-0.19944896926393385
753,0.7406,161.867,149.733,0.648718,155.615,-101.077,-5.08394,0.110176,0.113891,-0.222713,0.406046,0.0226194,-0.0147972,0.399779,0.11647455268920104,0.5008715909633064,0.022877158406197307,0.12062996956012673,-0.014688259436453244,-0.1996554847882156
754,0.7416,161.922,149.782,0.64876,155.667,-101.112,-5.08567,0.110306,0.114019,-0.222971,0.406517,0.0226263,-0.0148133,0.400249,0.11661970381566955,0.5015786679862175,0.022884216282939907,0.12077341937682284,-0.014704122827775667,-0.1998619470383648
755,0.7426,161.977,149.832,0.648802,155.719,-101.148,-5.08741,0.110437,0.114147,-0.223229,0.406988,0.0226331,-0.0148295,0.40072,0.11676599057844306,0.502286078120848,0.022891171919259712,0.12091688755627072,-0.01472008449169604,-0.20006835602812423
756,0.7436,162.032,149.881,0.648842,155.771,-101.183,-5.08914,0.110567,0.114275,-0.223487,0.407459,0.02264,-0.0148456,0.40119,0.11691117959429986,0.5029938215241305,0.022898229892696076,0.12106037410082093,-0.014735947370639213,-0.20027471177123346
757,0.7446,162.087,149.931,0.648882,155.823,-101.218,-5.09087,0.110697,0.114403,-0.223744,0.40793,0.0226468,-0.0148617,0.401659,0.1170563874859556,0.5037018983530714,0.022905185624308766,0.12120387901282426,-0.014751809994192011,-0.2004802147620428
758,0.7456,162.142,149.98,0.648921,155.875,-101.253,-5.0926,0.110827,0.114531,-0.224002,0.4084,0.0226536,-0.0148779,0.402129,0.11720161425586428,0.5044088043551951,0.02291214140322073,0.12134740229463192,-0.014767770885586562,-0.20068646425930503
759,0.7466,162.197,150.029,0.648959,155.926,-101.288,-5.09433,0.110958,0.114659,-0.224259,0.408871,0.0226605,-0.014894,0.402599,0.11734797725389878,0.5051175477980248,0.02291919952134669,0.12149094394859539,-0.014783632996784979,-0.20089186144332172
760,0.7476,162.252,150.079,0.648996,155.978,-101.323,-5.09606,0.111088,0.114786,-0.224517,0.409341,0.0226673,-0.0149101,0.403068,0.11749324193294153,0.5058251193117704,0.022926155395553538,0.12163338234312349,-0.014799494852605455,-0.20109800474943929
761,0.7486,162.306,150.128,0.649032,156.03,-101.358,-5.09778,0.111218,0.114914,-0.224774,0.409811,0.0226741,-0.0149262,0.403537,0.11763852549761977,0.5065330234622909,0.02293311131706033,0.1217769606048762,-0.014815356453052098,-0.20130329618113985
762,0.7496,162.361,150.177,0.649068,156.081,-101.393,-5.09951,0.111348,0.115042,-0.225031,0.410281,0.0226808,-0.0149423,0.404006,0.11778382795038933,0.5072412604059624,0.02293996499186579,0.12192055724582262,-0.014831217798129015,-0.20150853485972142
763,0.7506,162.416,150.226,0.649103,156.133,-101.428,-5.10123,0.111478,0.115169,-0.225288,0.41075,0.0226876,-0.0149584,0.404475,0.11792914929370557,0.5079483223501582,0.022946921007278354,0.1220630502047042,-0.014847078887840426,-0.20171372079873995
764,0.7516,162.47,150.275,0.649137,156.184,-101.463,-5.10295,0.111608,0.115297,-0.225545,0.41122,0.0226944,-0.0149745,0.404944,0.1180744895300243,0.5086572246406513,0.022953877069991746,0.1222066834674631,-0.014862939722190216,-0.2019188540117477
765,0.7526,162.525,150.324,0.64917,156.235,-101.498,-5.10467,0.111738,0.115424,-0.225802,0.411689,0.0227011,-0.0149906,0.405412,0.11821984866180202,0.5093649508278262,0.02296073088392836,0.12234921276668231,-0.014878800301182715,-0.2021239345122936
766,0.7536,162.579,150.373,0.649202,156.287,-101.533,-5.10638,0.111867,0.115552,-0.226059,0.412158,0.0227079,-0.0150067,0.40588,0.11836410832682787,0.5100730090164309,0.0229676870405493,0.12249288266059355,-0.01489466062482192,-0.20232896231392294
767,0.7546,162.634,150.422,0.649234,156.338,-101.568,-5.1081,0.111997,0.115679,-0.226316,0.412627,0.0227146,-0.0150228,0.406349,0.1185095051114966,0.5107813993622108,0.02297454094701301,0.12263544830941853,-0.01491052069311194,-0.20253393743017767
768,0.7556,162.688,150.471,0.649265,156.389,-101.602,-5.10981,0.112127,0.115806,-0.226572,0.413096,0.0227214,-0.0150389,0.406817,0.118654920798976,0.5114901220209842,0.02298149719754261,0.12277803206523075,-0.014926380506056991,-0.20273806261305727
769,0.7566,162.742,150.519,0.649295,156.44,-101.637,-5.11152,0.112257,0.115934,-0.226829,0.413565,0.0227281,-0.015055,0.407284,0.11880035539172362,0.5121991771486425,0.02298835119653475,0.12292175685152507,-0.014942240063660961,-0.20294293260404428
770,0.7576,162.796,150.568,0.649324,156.491,-101.672,-5.11323,0.112386,0.116061,-0.227085,0.414033,0.0227348,-0.015071,0.407752,0.11894468994694773,0.5129070519933414,0.022995205241448824,0.12306437697083106,-0.014958000861733267,-0.20314695309756026
771,0.7586,162.85,150.617,0.649352,156.542,-101.706,-5.11494,0.112516,0.116188,-0.227342,0.414502,0.0227415,-0.0150871,0.40822,0.1190901622121332,0.5136167718170157,0.023002059332285052,0.12320701520404254,-0.014973859910253684,-0.20335171801719498
772,0.7596,162.904,150.665,0.64938,156.593,-101.741,-5.11665,0.112646,0.116315,-0.227598,0.41497,0.0227482,-0.0151032,0.408687,0.11923565338994235,0.5143253102512875,0.02300891346904388,0.12334967155345988,-0.014989718703445565,-0.20355563387503905
773,0.7606,162.958,150.714,0.649407,156.644,-101.775,-5.11835,0.112775,0.116442,-0.227854,0.415438,0.0227549,-0.0151192,0.409154,0.11938004410223035,0.515034180359152,0.02301576765172575,0.12349234602138415,-0.015005478741865641,-0.20375949753710498
774,0.7616,163.012,150.762,0.649433,156.695,-101.81,-5.12005,0.112905,0.116569,-0.22811,0.415906,0.0227615,-0.0151353,0.409621,0.11952557296713495,0.515743382295869,0.023022519578073553,0.12363503861011638,-0.015021337025998394,-0.20396330901675297
775,0.7626,163.066,150.811,0.649458,156.746,-101.844,-5.12175,0.113034,0.116696,-0.228366,0.416373,0.0227682,-0.0151513,0.410088,0.11967000108146086,0.5164513997646125,0.0230293738519165,0.12377774932195829,-0.015037096558529361,-0.20416706832734022
776,0.7636,163.12,150.859,0.649482,156.797,-101.879,-5.12345,0.113163,0.116823,-0.228622,0.416841,0.0227749,-0.0151673,0.410555,0.11981444782821526,0.517161265115238,0.02303622817168316,0.12392047815921159,-0.015052855838909807,-0.20437077548222005
777,0.7646,163.174,150.907,0.649506,156.847,-101.913,-5.12515,0.113293,0.11695,-0.228878,0.417308,0.0227815,-0.0151834,0.411021,0.11996003316927495,0.5178699448898947,0.023042980233070942,0.12406322512417822,-0.015068713360277486,-0.20457443049474278
778,0.7656,163.227,150.956,0.649529,156.898,-101.947,-5.12685,0.113422,0.117077,-0.229134,0.417775,0.0227881,-0.0151994,0.411487,0.1201045173325821,0.5185789556952956,0.02304973233902241,0.12420599021916057,-0.015084472134793137,-0.20477803337825506
779,0.7666,163.281,151.004,0.649551,156.949,-101.982,-5.12854,0.113551,0.117204,-0.229389,0.418242,0.0227948,-0.0152154,0.411954,0.12024902013554839,0.5192882976860684,0.023056586795191514,0.12434877344646145,-0.015100230657170477,-0.2049807891272869
780,0.7676,163.335,151.052,0.649572,156.999,-102.016,-5.13024,0.11368,0.117331,-0.229645,0.418709,0.0228014,-0.0152315,0.41242,0.12039354158057858,0.5199979710169129,0.02306333899094648,0.12449157480838369,-0.01511608741580961,-0.20518428799630373
781,0.7686,163.388,151.1,0.649593,157.049,-102.05,-5.13193,0.11381,0.117457,-0.2299,0.419176,0.022808,-0.0152475,0.412885,0.12053920220871972,0.520707975842601,0.023070091231266243,0.1246332696733985,-0.015131845432346469,-0.20538694016361525
782,0.7696,163.442,151.148,0.649613,157.1,-102.084,-5.13362,0.113939,0.117584,-0.230156,0.419642,0.0228146,-0.0152635,0.413351,0.12068376108965206,0.5214167909004253,0.023076843516150802,0.12477610716863596,-0.01514760319675712,-0.20559033507127433
783,0.7706,163.495,151.196,0.649632,157.15,-102.118,-5.13531,0.114068,0.117711,-0.230411,0.420108,0.0228212,-0.0152795,0.413817,0.12082833861988274,0.5221259363430399,0.023083595845600824,0.1249189628053875,-0.015163360709045559,-0.20579288370978222
784,0.7716,163.548,151.244,0.64965,157.2,-102.152,-5.13699,0.114197,0.117837,-0.230666,0.420574,0.0228278,-0.0152955,0.414282,0.12097293480181803,0.5228354123244405,0.023090348219616086,0.12506071152468268,-0.015179117969215783,-0.20599538070497203
785,0.7726,163.602,151.292,0.649667,157.251,-102.187,-5.13868,0.114326,0.117964,-0.230921,0.42104,0.0228343,-0.0153115,0.414747,0.12111754963786381,0.523545218998694,0.023096998328492324,0.12520360330848246,-0.0151948749772719,-0.20619782607001125
786,0.7736,163.655,151.34,0.649684,157.301,-102.22,-5.14036,0.114455,0.11809,-0.231176,0.421506,0.0228409,-0.0153275,0.415212,0.1212621831304268,0.5242553565199388,0.023103750790964384,0.1253453878947408,-0.015210631733217905,-0.20640021981806378
787,0.7746,163.708,151.388,0.6497,157.351,-102.254,-5.14205,0.114584,0.118217,-0.231431,0.421972,0.0228475,-0.0153435,0.415677,0.12140683528191376,0.5249658250423861,0.023110503298003016,0.12548831583473552,-0.015226388237057797,-0.20660256196229032
788,0.7756,163.761,151.435,0.649715,157.401,-102.288,-5.14373,0.114712,0.118343,-0.231686,0.422437,0.022854,-0.0153595,0.416142,0.12155038454378664,0.5256750990444561,0.02311715353788757,0.12563013629703224,-0.015242144488795684,-0.20680485251584824
789,0.7766,163.814,151.483,0.649729,157.451,-102.322,-5.1454,0.114841,0.118469,-0.23194,0.422902,0.0228605,-0.0153755,0.416606,0.12169507387565393,0.5263847029356301,0.0231238038209991,0.12577197462983292,-0.01525790048843545,-0.20700629849858632
790,0.7776,163.867,151.531,0.649743,157.501,-102.356,-5.14708,0.11497,0.118596,-0.232195,0.423368,0.0228671,-0.0153914,0.41707,0.12183978187364919,0.5270961639647431,0.023130556460387863,0.12591495674978326,-0.01527355776334205,-0.2072084861124528
791,0.7786,163.92,151.578,0.649756,157.551,-102.39,-5.14876,0.115099,0.118722,-0.232449,0.423833,0.0228736,-0.0154074,0.417535,0.12198450854018028,0.5278064288047639,0.023137206830618595,0.1260568309722221,-0.015289313260373527,-0.20740982958527676
792,0.7796,163.973,151.626,0.649768,157.601,-102.424,-5.15043,0.115227,0.118848,-0.232704,0.424297,0.0228801,-0.0154234,0.417999,0.12212813174896264,0.5285154954784761,0.02314385724407675,0.12619872307193902,-0.015305068505319097,-0.2076119143118348
793,0.7806,164.026,151.673,0.649779,157.65,-102.457,-5.1521,0.115356,0.118974,-0.232958,0.424762,0.0228866,-0.0154394,0.418463,0.12227289561502674,0.5292264204611221,0.023150507700762768,0.12634063305118715,-0.015320823498182645,-0.2078131553269087
794,0.7816,164.078,151.721,0.64979,157.7,-102.491,-5.15378,0.115485,0.1191,-0.233212,0.425226,0.0228931,-0.0154553,0.418926,0.12241767815683424,0.5299361461638457,0.023157158200677097,0.1264825609122191,-0.015336479772621314,-0.2080143452332559
795,0.7826,164.131,151.768,0.649799,157.75,-102.525,-5.15544,0.115613,0.119226,-0.233467,0.425691,0.0228996,-0.0154713,0.41939,0.12256135681487645,0.5306477319026741,0.023163808743819514,0.1266245066572882,-0.01535223426290877,-0.20821627582797642
796,0.7836,164.184,151.815,0.649808,157.799,-102.558,-5.15711,0.115742,0.119352,-0.233721,0.426155,0.0229061,-0.0154872,0.419853,0.1227061765705788,0.5313581172469317,0.023170459330190685,0.12676647028864796,-0.015367890037920273,-0.20841736335471917
797,0.7846,164.236,151.863,0.649817,157.849,-102.592,-5.15878,0.11587,0.119478,-0.233975,0.426619,0.0229125,-0.0155032,0.420316,0.12284989215878128,0.5320688322864724,0.023177007642084968,0.12690845180855215,-0.015383644025647403,-0.20861839981171615
798,0.7856,164.289,151.91,0.649824,157.899,-102.625,-5.16044,0.115998,0.119604,-0.234228,0.427082,0.022919,-0.0155191,0.420779,0.12299362614375653,0.5327783443951992,0.02318365831424929,0.12705045121925518,-0.015399299301247615,-0.20881859403092717
799,0.7866,164.341,151.957,0.649831,157.948,-102.659,-5.16211,0.116127,0.11973,-0.234482,0.427546,0.0229254,-0.015535,0.421242,0.12313850166579932,0.533489718573045,0.023190206710617556,0.12719246852301103,-0.015414954327930941,-0.20901952858827422
800,0.7876,164.393,152.004,0.649837,157.997,-102.692,-5.16377,0.116255,0.119856,-0.234736,0.42801,0.0229319,-0.015551,0.421705,0.12328227259515567,0.5342014229050989,0.023196857468575915,0.12733450372207455,-0.015430707562635426,-0.20922041211472497
801,0.7886,164.446,152.051,0.649842,158.047,-102.726,-5.16543,0.116383,0.119982,-0.234989,0.428473,0.0229383,-0.0155669,0.422168,0.12342606192836891,0.5349119226318984,0.02320340594941883,0.12747655681870063,-0.015446362089931442,-0.20942045404408882
802,0.7896,164.498,152.098,0.649847,158.096,-102.759,-5.16709,0.116512,0.120107,-0.235243,0.428936,0.0229447,-0.0155828,0.42263,0.12357099323822607,0.5356227513962375,0.023209954472172223,0.1276175001970805,-0.01546201636832234,-0.20962123574840574
803,0.7906,164.55,152.145,0.649851,158.145,-102.793,-5.16874,0.11664,0.120233,-0.235496,0.429399,0.0229512,-0.0155987,0.423092,0.12371481953004682,0.5363339093504962,0.023216605358491682,0.12775958895350903,-0.015477670397812227,-0.2098211762822173
804,0.7916,164.602,152.192,0.649854,158.194,-102.826,-5.1704,0.116768,0.120359,-0.23575,0.429862,0.0229576,-0.0156146,0.423554,0.12385866423281144,0.5370453966471247,0.0232231539657215,0.1279016956142489,-0.015493324178404988,-0.2100218562160111
805,0.7926,164.654,152.239,0.649856,158.243,-102.859,-5.17205,0.116896,0.120484,-0.236003,0.430324,0.022964,-0.0156305,0.424016,0.12400252734887607,0.5377556756821988,0.023229702614862457,0.12804269213829977,-0.015508977710104621,-0.21022169540566504
806,0.7936,164.706,152.286,0.649858,158.293,-102.892,-5.17371,0.117024,0.12061,-0.236256,0.430787,0.0229704,-0.0156465,0.424478,0.12414640888059836,0.5384678214090537,0.023236251305915,0.12818483447228823,-0.015524729440447138,-0.21042148404239913
807,0.7946,164.758,152.333,0.649858,158.342,-102.926,-5.17536,0.117152,0.120735,-0.236509,0.431249,0.0229767,-0.0156623,0.424939,0.12429030883033554,0.5391787577561955,0.02324269771460452,0.1283258663909086,-0.015540284026840379,-0.2106212221390018
808,0.7956,164.81,152.379,0.649859,158.391,-102.959,-5.17701,0.11728,0.120861,-0.236762,0.431711,0.0229831,-0.0156782,0.425401,0.12443422720044484,0.5398900226318137,0.02324924648882587,0.1284680444071007,-0.015555936811884385,-0.21082090970825795
809,0.7966,164.862,152.426,0.649858,158.439,-102.992,-5.17866,0.117408,0.120986,-0.237015,0.432173,0.0229895,-0.0156941,0.425862,0.12457816399328481,0.5406016161877241,0.023255795304959692,0.12860911172917544,-0.01557158934805114,-0.21102054676294946
810,0.7976,164.914,152.473,0.649857,158.488,-103.025,-5.1803,0.117536,0.121112,-0.237268,0.432635,0.0229958,-0.01571,0.426323,0.12472211921121334,0.5413135385758114,0.023262241836776498,0.1287513254365289,-0.015587241635344418,-0.21122013331585487
811,0.7986,164.966,152.519,0.649854,158.537,-103.058,-5.18195,0.117664,0.121237,-0.237521,0.433096,0.0230022,-0.0157259,0.426784,0.124866092856589,0.5420242479230126,0.02326879073608068,0.1288924281709456,-0.015602893673768436,-0.21141966937974954
812,0.7996,165.018,152.566,0.649852,158.586,-103.091,-5.18359,0.117791,0.121362,-0.237773,0.433558,0.0230085,-0.0157418,0.427245,0.12500895992224859,0.5427368277188114,0.02327523734976933,0.1290335485443066,-0.015618545463326972,-0.2116183665861664
813,0.8006,165.069,152.612,0.649848,158.635,-103.124,-5.18523,0.117919,0.121487,-0.238026,0.434019,0.0230149,-0.0157576,0.427705,0.12515297028558514,0.5434481933535702,0.02328178633224498,0.1291746865588168,-0.015634098567438803,-0.21181780190978783
814,0.8016,165.121,152.659,0.649844,158.683,-103.157,-5.18687,0.118047,0.121613,-0.238278,0.43448,0.0230212,-0.0157735,0.428166,0.12529699908342806,0.5441598870034883,0.023288233027805916,0.1293169715330882,-0.015649749860843443,-0.21201639879944745
815,0.8026,165.172,152.705,0.649839,158.732,-103.19,-5.18851,0.118174,0.121738,-0.23853,0.434941,0.0230275,-0.0157894,0.428626,0.12543992087765354,0.5448719088198155,0.023294679763981252,0.12945814497768637,-0.015665400905394478,-0.21221494564899623
816,0.8036,165.224,152.751,0.649833,158.78,-103.223,-5.19015,0.118302,0.121863,-0.238783,0.435402,0.0230338,-0.0158052,0.429086,0.12558398640752322,0.5455842589538717,0.02330112654077099,0.12959933607006802,-0.015680953269196163,-0.2124142300572064
817,0.8046,165.275,152.798,0.649826,158.829,-103.256,-5.19179,0.118429,0.121988,-0.239035,0.435863,0.0230401,-0.0158211,0.429546,0.1257269446514533,0.5462969375570459,0.023307573358175793,0.12974054481243935,-0.01569660381761706,-0.2126126766659091
818,0.8056,165.327,152.844,0.649819,158.877,-103.288,-5.19342,0.118557,0.122113,-0.239287,0.436323,0.0230464,-0.0158369,0.430006,0.12587104692271733,0.547008397771626,0.02331402021619544,0.1298817712070066,-0.015712155688416662,-0.21281107327236704
819,0.8066,165.378,152.89,0.649811,158.926,-103.321,-5.19506,0.118684,0.122238,-0.239539,0.436783,0.0230527,-0.0158528,0.430465,0.1260140416256479,0.5477201853331888,0.0233204671148306,0.1300230152559767,-0.015727805740722967,-0.21300941988917899
820,0.8076,165.429,152.936,0.649803,158.974,-103.354,-5.19669,0.118812,0.122363,-0.239791,0.437244,0.023059,-0.0158686,0.430925,0.1261581806476766,0.5484338488254235,0.02332691405408127,0.1301642769615563,-0.015743357118536028,-0.21320771652894088
821,0.8086,165.48,152.982,0.649793,159.022,-103.386,-5.19832,0.118939,0.122487,-0.240043,0.437704,0.0230652,-0.0158844,0.431384,0.12630121181890597,0.549146292245307,0.023333258700616755,0.1303044260209616,-0.015758908250639303,-0.21340596320424543
822,0.8096,165.531,153.028,0.649783,159.07,-103.419,-5.19995,0.119067,0.122612,-0.240294,0.438163,0.0230715,-0.0159003,0.431843,0.12644538760107205,0.5498575136062631,0.023339705720454518,0.1304457229050855,-0.01577455755958579,-0.21360337353144865
823,0.8106,165.582,153.074,0.649772,159.119,-103.452,-5.20157,0.119194,0.122737,-0.240546,0.438623,0.0230778,-0.0159161,0.432302,0.1265884552499008,0.5505706120625926,0.023346152780908902,0.13058703745242384,-0.01579010819872595,-0.21380152051375034
824,0.8116,165.633,153.12,0.649761,159.167,-103.484,-5.2032,0.119321,0.122862,-0.240797,0.439083,0.023084,-0.0159319,0.432761,0.1267315410694747,0.5512840386196696,0.02335249754672497,0.13072836966518464,-0.01580565859216798,-0.21399883156852817
825,0.8126,165.684,153.166,0.649749,159.215,-103.517,-5.20482,0.119448,0.122986,-0.241049,0.439542,0.0230902,-0.0159477,0.43322,0.12687464506210167,0.5519962414314372,0.02335884235187846,0.13086858867642226,-0.01582120873991577,-0.21419687890796002
826,0.8136,165.735,153.212,0.649736,159.263,-103.549,-5.20645,0.119575,0.123111,-0.2413,0.440001,0.0230965,-0.0159636,0.433678,0.12701776723008984,0.5527087712193308,0.023365289532893962,0.13100995608528576,-0.015836857058292297,-0.21439409074023386
827,0.8146,165.786,153.258,0.649722,159.311,-103.582,-5.20807,0.119703,0.123236,-0.241551,0.44046,0.0231027,-0.0159794,0.434137,0.12716203473721888,0.553421628133467,0.023371634417358234,0.13115134116617977,-0.01585240671310817,-0.21459125307854943
828,0.8156,165.837,153.304,0.649708,159.359,-103.614,-5.20969,0.11983,0.12336,-0.241803,0.440919,0.0231089,-0.0159952,0.434595,0.12730519340601343,0.5541348123240308,0.023377979341160815,0.13129161262913547,-0.015867956122241456,-0.21478915114656982
829,0.8166,165.888,153.349,0.649693,159.406,-103.647,-5.21131,0.119957,0.123485,-0.242054,0.441378,0.0231151,-0.016011,0.435053,0.12744837025711364,0.5548483239412767,0.02338432430430215,0.1314330329192981,-0.015883505285696042,-0.21498621433716703
830,0.8176,165.939,153.395,0.649677,159.454,-103.679,-5.21293,0.120084,0.123609,-0.242305,0.441836,0.0231213,-0.0160268,0.435511,0.12759156529282856,0.5555606075741428,0.02339066930678224,0.13157333931419668,-0.015899054203475704,-0.21518322807111046
831,0.8186,165.989,153.441,0.64966,159.502,-103.711,-5.21454,0.120211,0.123733,-0.242556,0.442294,0.0231275,-0.0160425,0.435968,0.12773477851546788,0.5562732175076299,0.02339701434860153,0.13171366310816723,-0.01591450446703979,-0.21538019236081218
832,0.8196,166.04,153.486,0.649643,159.55,-103.744,-5.21616,0.120337,0.123858,-0.242806,0.442753,0.0231337,-0.0160583,0.436426,0.12787688204989567,0.5569877108781502,0.02340335942976024,0.13185513615793698,-0.01593005289503635,-0.21557632279539607
833,0.8206,166.09,153.532,0.649625,159.597,-103.776,-5.21777,0.120464,0.123982,-0.243057,0.443211,0.0231399,-0.0160741,0.436883,0.1280201315100642,0.5577009745746508,0.023409704550258592,0.13199549489688267,-0.015945601077369642,-0.2157731884307037
834,0.8216,166.141,153.577,0.649607,159.645,-103.808,-5.21938,0.120591,0.124106,-0.243308,0.443668,0.023146,-0.0160899,0.437341,0.12816339916406938,0.5584130066069586,0.023415947368496948,0.1321358710413909,-0.015961149014043552,-0.21597000465893756
835,0.8226,166.191,153.622,0.649587,159.693,-103.84,-5.22099,0.120718,0.124231,-0.243558,0.444126,0.0231522,-0.0161057,0.437798,0.12830668501422204,0.5591269232384137,0.023422292567040648,0.13227739687045115,-0.015976696705062077,-0.21616598765887718
836,0.8236,166.242,153.668,0.649567,159.74,-103.872,-5.2226,0.120845,0.124355,-0.243809,0.444584,0.0231583,-0.0161214,0.438255,0.12844998906283323,0.5598411669185743,0.023428535462066247,0.13241780797297142,-0.015992145749648468,-0.21636270530687718
837,0.8246,166.292,153.713,0.649547,159.788,-103.904,-5.22421,0.120971,0.124479,-0.244059,0.445041,0.0231645,-0.0161372,0.438711,0.1285921827194676,0.5605541772423057,0.023434880738656405,0.13255823648754816,-0.016007692950922414,-0.21655859014392553
838,0.8256,166.342,153.758,0.649525,159.835,-103.937,-5.22582,0.121098,0.124603,-0.24431,0.445498,0.0231706,-0.016153,0.439168,0.12873552302858982,0.5612675134862224,0.023441123710469913,0.1326986824163403,-0.016023239906552522,-0.21675520926106795
839,0.8266,166.392,153.804,0.649503,159.882,-103.969,-5.22742,0.121224,0.124727,-0.24456,0.445955,0.0231767,-0.0161687,0.439624,0.12887775266477042,0.5619811757993034,0.023447366720365626,0.13283914576150724,-0.01603868822041643,-0.2169509959843926
840,0.8276,166.443,153.849,0.64948,159.93,-104.001,-5.22903,0.121351,0.124851,-0.24481,0.446412,0.0231829,-0.0161845,0.44008,0.12902112924357878,0.5626951643305966,0.023453712113710168,0.132979626525209,-0.016054234686325164,-0.2171467337671542
841,0.8286,166.493,153.894,0.649457,159.977,-104.033,-5.23063,0.121477,0.124975,-0.24506,0.446869,0.023189,-0.0162002,0.440537,0.12916339486840966,0.5634094792292181,0.023459955200395344,0.13312012470960566,-0.016069682513574768,-0.21734242262158632
842,0.8296,166.543,153.939,0.649433,160.024,-104.064,-5.23223,0.121604,0.125099,-0.24531,0.447325,0.0231951,-0.0162159,0.440993,0.12930680772608172,0.5641225565210131,0.023466198325163612,0.13326064031685725,-0.016085130098295486,-0.2175380625599197
843,0.8306,166.593,153.984,0.649408,160.071,-104.096,-5.23383,0.12173,0.125223,-0.24556,0.447782,0.0232012,-0.0162317,0.441448,0.12944910934866916,0.564837523886943,0.023472441488014972,0.1334011733491245,-0.01610067583042829,-0.21773365359438168
844,0.8316,166.643,154.029,0.649382,160.118,-104.128,-5.23543,0.121857,0.125347,-0.245809,0.448238,0.0232073,-0.0162474,0.441904,0.12959255849438422,0.5655512525155952,0.02347868468894987,0.1335417238085681,-0.016116122928557797,-0.21792841366600157
845,0.8326,166.693,154.074,0.649356,160.165,-104.16,-5.23702,0.121983,0.12547,-0.246059,0.448694,0.0232133,-0.0162631,0.442359,0.12973489612383693,0.5662653066787184,0.023484825579480617,0.13368115801562452,-0.01613156978416963,-0.2181239071248845
846,0.8336,166.742,154.119,0.649329,160.212,-104.192,-5.23862,0.122109,0.125594,-0.246309,0.44915,0.0232194,-0.0162789,0.442815,0.1298772516889608,0.56697968652479,0.02349106885595864,0.13382174319531948,-0.016147114782561256,-0.2183193517165114
847,0.8346,166.792,154.164,0.649302,160.259,-104.224,-5.24021,0.122236,0.125718,-0.246558,0.449606,0.0232255,-0.0162946,0.44327,0.13002075521220613,0.5676943922023554,0.023497312170520646,0.1339623458086574,-0.01616256115160486,-0.2185139659674542
848,0.8356,166.842,154.209,0.649273,160.306,-104.255,-5.24181,0.122362,0.125841,-0.246808,0.450061,0.0232315,-0.0163103,0.443725,0.13016314679784435,0.5684078554513878,0.023503453172816657,0.1341018317554019,-0.016178007278142337,-0.21870931305655872
849,0.8366,166.892,154.253,0.649244,160.353,-104.287,-5.2434,0.122488,0.125965,-0.247057,0.450517,0.0232376,-0.016326,0.44418,0.13030555632595275,0.5691232125224901,0.023509696562923343,0.13424246910187487,-0.016193453162177573,-0.2189038302192159
850,0.8376,166.941,154.298,0.649215,160.4,-104.319,-5.24499,0.122614,0.126088,-0.247306,0.450972,0.0232436,-0.0163417,0.444634,0.1304479837987922,0.5698373260326914,0.023515837639525916,0.1343819895059033,-0.016208898803714344,-0.21909829895312916
851,0.8386,166.991,154.343,0.649184,160.447,-104.35,-5.24658,0.12274,0.126212,-0.247555,0.451427,0.0232497,-0.0163574,0.445089,0.13059042921862396,0.570551764538471,0.023522081105178172,0.13452266159409132,-0.016224344202756424,-0.21929271927035576
852,0.8396,167.04,154.387,0.649153,160.493,-104.382,-5.24816,0.122866,0.126335,-0.247804,0.451882,0.0232557,-0.0163731,0.445543,0.13073289258770915,0.5712665281877349,0.023528222256088194,0.13466221646391574,-0.016239789359307588,-0.21948709118295007
853,0.8406,167.09,154.432,0.649122,160.54,-104.413,-5.24975,0.122992,0.126459,-0.248053,0.452337,0.0232617,-0.0163888,0.445997,0.13087537390830994,0.5719816171284577,0.023534363443845407,0.13480292330240107,-0.016255234273371832,-0.21968141470296332
854,0.8416,167.139,154.477,0.649089,160.587,-104.445,-5.25133,0.123118,0.126582,-0.248302,0.452792,0.0232677,-0.0164045,0.446451,0.1310178731826881,0.5726970315086801,0.02354050466844959,0.134942512646536,-0.01627067894495271,-0.21987568984244366
855,0.8426,167.189,154.521,0.649056,160.633,-104.476,-5.25292,0.123244,0.126705,-0.248551,0.453246,0.0232737,-0.0164202,0.446905,0.13116039041310623,0.5734111980645265,0.02354664592990141,0.13508211916121615,-0.016286123374054218,-0.22006991661343633
856,0.8436,167.238,154.565,0.649023,160.68,-104.508,-5.2545,0.12337,0.126829,-0.2488,0.4537,0.0232798,-0.0164358,0.447359,0.13130292560182655,0.574125688925601,0.02355288958348467,0.1352228780708642,-0.016301469190831863,-0.22026409502798372
857,0.8446,167.287,154.61,0.648988,160.726,-104.539,-5.25608,0.123496,0.126952,-0.249048,0.454155,0.0232857,-0.0164515,0.447813,0.13144547875111212,0.5748420790804631,0.02355892856334818,0.13536251907261243,-0.016316913136530276,-0.22045744555596025
858,0.8456,167.337,154.654,0.648953,160.773,-104.571,-5.25766,0.123621,0.127075,-0.249297,0.454609,0.0232917,-0.0164672,0.448266,0.1315869182757421,0.5755572197090049,0.023565069935343796,0.13550217725126035,-0.016332356839760642,-0.22065152748781358
859,0.8466,167.386,154.698,0.648917,160.819,-104.602,-5.25924,0.123747,0.127198,-0.249545,0.455062,0.0232977,-0.0164828,0.448719,0.13172950721035903,0.5762711088132071,0.023571211344187493,0.13564185260892048,-0.016347701935301884,-0.22084478194445345
860,0.8476,167.435,154.743,0.648881,160.865,-104.633,-5.26082,0.123873,0.127321,-0.249794,0.455516,0.0233037,-0.0164985,0.449172,0.1318721141123138,0.5769868983685427,0.023577352789879935,0.13578154514770646,-0.016363145155151915,-0.2210387674415526
861,0.8486,167.484,154.787,0.648844,160.911,-104.665,-5.26239,0.123998,0.127444,-0.250042,0.45597,0.0233096,-0.0165142,0.449625,0.1320136069696971,0.5777030129661154,0.023583391914076657,0.1359212548697315,-0.016378588132545335,-0.2212319258745914
862,0.8496,167.533,154.831,0.648806,160.958,-104.696,-5.26396,0.124124,0.127567,-0.25029,0.456423,0.0233156,-0.0165298,0.450078,0.1321562496704769,0.5784178743348645,0.02358953343285286,0.136060981777109,-0.016393932506884035,-0.22142503641027844
863,0.8506,167.582,154.875,0.648768,161.004,-104.727,-5.26554,0.124249,0.12769,-0.250538,0.456876,0.0233216,-0.0165455,0.450531,0.13229777804702492,0.5791330596091726,0.023595674988478033,0.1362007258719533,-0.016409375000919768,-0.22161809906049046
864,0.8516,167.631,154.919,0.648729,161.05,-104.758,-5.26711,0.124375,0.127813,-0.250786,0.457329,0.0233275,-0.0165611,0.450983,0.1324404565556161,0.5798485689358022,0.023601714220776282,0.13634048715637825,-0.01642471889498709,-0.22181111383710195
865,0.8526,167.68,154.963,0.648689,161.096,-104.79,-5.26868,0.1245,0.127936,-0.251034,0.457782,0.0233334,-0.0165767,0.451436,0.13258202046024525,0.5805644024615826,0.023607753488705807,0.1364802656324986,-0.016440062549691437,-0.22200408075198386
866,0.8536,167.729,155.007,0.648649,161.142,-104.821,-5.27025,0.124626,0.128059,-0.251282,0.458235,0.0233394,-0.0165924,0.451888,0.13272473478563684,0.5812805603334088,0.023613895153651754,0.13662006130242887,-0.016455504319491276,-0.22219699981700458
867,0.8546,167.777,155.051,0.648608,161.188,-104.852,-5.27182,0.124751,0.128182,-0.25153,0.458687,0.0233453,-0.016608,0.45234,0.1328663342272658,0.5819954607019913,0.023619934493449346,0.13675987416828406,-0.016470847493946783,-0.22238987104402919
868,0.8556,167.826,155.095,0.648566,161.234,-104.883,-5.27338,0.124877,0.128305,-0.251777,0.45914,0.0233512,-0.0166236,0.452792,0.13300908437844905,0.5827122669900557,0.02362597386887888,0.13689970423217934,-0.01648619042905064,-0.22258191702722607
869,0.8566,167.875,155.139,0.648524,161.28,-104.914,-5.27495,0.125002,0.128427,-0.252025,0.459592,0.0233571,-0.0166393,0.453243,0.13315071936599865,0.5834278146363208,0.023632013279941022,0.1370384144572474,-0.016501631474648448,-0.22277469280661866
870,0.8576,167.923,155.183,0.648481,161.326,-104.945,-5.27651,0.125127,0.12855,-0.252273,0.460044,0.023363,-0.0166549,0.453695,0.13329237205902844,0.5841436857832276,0.023638052726635772,0.13717827878370525,-0.01651697392952589,-0.2229674207835457
871,0.8586,167.972,155.227,0.648437,161.372,-104.976,-5.27808,0.125252,0.128673,-0.25252,0.460496,0.0233689,-0.0166705,0.454146,0.13343404245975132,0.5848598805770315,0.02364409220896313,0.13731816031453348,-0.01653231614506301,-0.2231593241295733
872,0.8596,168.02,155.27,0.648393,161.417,-105.007,-5.27964,0.125377,0.128795,-0.252767,0.460948,0.0233748,-0.0166861,0.454597,0.1335757305703813,0.5855763991640541,0.023650131726923762,0.13745692159435796,-0.016547658121263464,-0.22335118008132782
873,0.8606,168.069,155.314,0.648348,161.463,-105.038,-5.2812,0.125503,0.128918,-0.253015,0.461399,0.0233807,-0.0167017,0.455048,0.1337185701111352,0.5862916553982342,0.023656171280517668,0.13759683740035955,-0.016562999858130922,-0.22354376510713736
874,0.8616,168.117,155.358,0.648302,161.509,-105.068,-5.28276,0.125628,0.12904,-0.253262,0.461851,0.0233865,-0.0167173,0.455499,0.13386029378994446,0.5870088212937568,0.023662108503529122,0.13773563268086253,-0.016578341355669157,-0.22373552611369663
875,0.8626,168.166,155.401,0.648256,161.554,-105.099,-5.28431,0.125753,0.129163,-0.253509,0.462302,0.0233924,-0.0167329,0.45595,0.13400203518532083,0.5877247236960172,0.02366814812778606,0.13787558277043632,-0.016593682613881833,-0.22392723976113638
876,0.8636,168.214,155.445,0.648209,161.6,-105.13,-5.28587,0.125878,0.129285,-0.253756,0.462753,0.0233983,-0.0167485,0.456401,0.13414379429947898,0.58844094904308,0.023674187787676937,0.1380144120599487,-0.016609023632772835,-0.22411890606115292
877,0.8646,168.262,155.488,0.648162,161.645,-105.161,-5.28743,0.126003,0.129407,-0.254003,0.463204,0.0234041,-0.0167641,0.456851,0.13428557113463402,0.5891574974806253,0.02368012511518436,0.13815325828766767,-0.016624364412345716,-0.22431052502543947
878,0.8656,168.311,155.532,0.648113,161.691,-105.192,-5.28898,0.126127,0.12953,-0.254249,0.463655,0.02341,-0.0167796,0.457301,0.1344262312662028,0.5898743691544006,0.02368616484573982,0.13829325974835038,-0.016639606616569935,-0.22450132116739563
879,0.8666,168.359,155.575,0.648064,161.736,-105.222,-5.29053,0.126252,0.129652,-0.254496,0.464106,0.0234158,-0.0167952,0.457752,0.1345680434081853,0.5905915642102177,0.02369210224271434,0.13843213999756254,-0.016654946919052116,-0.22469284568681536
880,0.8676,168.407,155.619,0.648015,161.782,-105.253,-5.29208,0.126377,0.129774,-0.254743,0.464556,0.0234216,-0.0168108,0.458201,0.13470987327779338,0.5913074914856682,0.02369803967412576,0.1385710371911988,-0.01667028698222739,-0.22488432290552074
881,0.8686,168.455,155.662,0.647965,161.827,-105.284,-5.29364,0.126502,0.129896,-0.254989,0.465007,0.0234274,-0.0168264,0.458651,0.1348517208772435,0.5920253330254279,0.02370397713997452,0.13870995133132658,-0.01668562680609953,-0.22507497791055886
882,0.8696,168.503,155.705,0.647914,161.872,-105.314,-5.29518,0.126627,0.130018,-0.255236,0.465457,0.0234333,-0.0168419,0.459101,0.13499358620875146,0.5927419056420358,0.02371001701125741,0.13884888242001292,-0.016700868060763985,-0.22526636075426076
883,0.8706,168.551,155.749,0.647863,161.917,-105.345,-5.29673,0.126751,0.13014,-0.255482,0.465907,0.0234391,-0.0168575,0.45955,0.13513433413963272,0.5934588007888852,0.023715954546574824,0.1389878304593264,-0.016716207407574957,-0.2254569217895469
884,0.8716,168.599,155.792,0.647811,161.963,-105.375,-5.29828,0.126876,0.130263,-0.255728,0.466357,0.0234449,-0.016873,0.46,0.13527623480000672,0.5941760186111471,0.023721892116330245,0.13912793457869954,-0.01673144818824379,-0.22564743595258385
885,0.8726,168.647,155.835,0.647758,162.008,-105.406,-5.29982,0.127001,0.130385,-0.255975,0.466806,0.0234507,-0.0168886,0.460449,0.1354181531990719,0.5948919643612964,0.023727829720523452,0.1392669166644529,-0.016746787058008583,-0.22583867741661046
886,0.8736,168.695,155.878,0.647705,162.053,-105.436,-5.30137,0.127125,0.130506,-0.256221,0.467256,0.0234565,-0.0169041,0.460898,0.1355589537795241,0.5956098272522956,0.02373376735915489,0.13940477630170922,-0.016762027364696563,-0.22602909767931334
887,0.8746,168.742,155.921,0.647651,162.098,-105.467,-5.30291,0.12725,0.130628,-0.256467,0.467705,0.0234622,-0.0169197,0.461347,0.13570090752067054,0.5963264169270752,0.023739602658259473,0.1395437921642131,-0.01677736575742983,-0.2262194711043929
888,0.8756,168.79,155.964,0.647596,162.143,-105.497,-5.30445,0.127374,0.13075,-0.256713,0.468155,0.023468,-0.0169352,0.461796,0.13584174316483266,0.597044925466989,0.02374554036517429,0.13968282498768692,-0.01679260559015161,-0.22640979770336978
889,0.8766,168.838,156.007,0.647541,162.188,-105.527,-5.30599,0.127499,0.130872,-0.256959,0.468604,0.0234738,-0.0169508,0.462244,0.13598373225686156,0.5977621596455471,0.02375147810652778,0.13982187477419994,-0.01680794350586834,-0.22660007748776168
890,0.8776,168.886,156.05,0.647485,162.233,-105.558,-5.30753,0.127623,0.130994,-0.257204,0.469053,0.0234796,-0.0169663,0.462693,0.1361246029734653,0.5984797159345598,0.023757415882320387,0.13996094152582184,-0.016823182864638686,-0.22678953725900752
891,0.8786,168.933,156.093,0.647429,162.278,-105.588,-5.30907,0.127747,0.131116,-0.25745,0.469501,0.0234853,-0.0169818,0.463141,0.136265491159121,0.5991959952818924,0.023763251316221812,0.14010002524462228,-0.016838421987200758,-0.2269797236389579
892,0.8796,168.981,156.136,0.647371,162.323,-105.618,-5.31061,0.127872,0.131237,-0.257696,0.46995,0.0234911,-0.0169973,0.463589,0.13640753322295995,0.5999141955076588,0.02376918916029913,0.14023798569411583,-0.01685366087355833,-0.22716986323881305
893,0.8806,169.028,156.179,0.647314,162.367,-105.649,-5.31214,0.127996,0.131359,-0.257941,0.470398,0.0234968,-0.0170129,0.464037,0.13654845649414193,0.6006311176458143,0.023775024661308652,0.14037710321436658,-0.016868997836820054,-0.22735918342964923
894,0.8816,169.076,156.222,0.647255,162.412,-105.679,-5.31368,0.12812,0.131481,-0.258187,0.470847,0.0235025,-0.0170284,0.464485,0.1366893972408929,0.6013499623862049,0.023780860195580455,0.14051623770799027,-0.016884236249255613,-0.2275492296938766
895,0.8826,169.123,156.264,0.647196,162.457,-105.709,-5.31521,0.128244,0.131602,-0.258432,0.471295,0.0235083,-0.0170439,0.464933,0.13683035546538003,0.6020675278920258,0.023786798141789633,0.14065424852223884,-0.01689947442549755,-0.227738456951316
896,0.8836,169.17,156.307,0.647137,162.501,-105.739,-5.31675,0.128369,0.131724,-0.258677,0.471743,0.023514,-0.0170594,0.46538,0.1369724681416704,0.6027854149392131,0.02379263374317042,0.14079341682965274,-0.016914712365549645,-0.22792763785375614
897,0.8846,169.218,156.35,0.647076,162.546,-105.769,-5.31828,0.128493,0.131845,-0.258923,0.472191,0.0235197,-0.0170749,0.465828,0.13711346146912562,0.6035036236718496,0.02379846937781438,0.1409314611846042,-0.016929950069415445,-0.2281175442953941
898,0.8856,169.265,156.392,0.647016,162.591,-105.799,-5.31981,0.128617,0.131967,-0.259168,0.472638,0.0235254,-0.0170904,0.466275,0.13725447228083754,0.6042205500127307,0.023804305045721508,0.14107066331402596,-0.016945187537098616,-0.22830663233281134
899,0.8866,169.312,156.435,0.646954,162.635,-105.829,-5.32134,0.128741,0.132088,-0.259413,0.473086,0.0235311,-0.0171059,0.466722,0.1373955005789742,0.6049394018299206,0.023810140746891806,0.14120874121783156,-0.016960424768603044,-0.2284956740493339
900,0.8876,169.359,156.477,0.646892,162.68,-105.859,-5.32286,0.128865,0.132209,-0.259658,0.473533,0.0235368,-0.0171214,0.467169,0.1375365463657039,0.6056569701071004,0.02381597648132594,0.14134683583007446,-0.01697566176393206,-0.22868466945630905
901,0.8886,169.407,156.52,0.646829,162.724,-105.89,-5.32439,0.128989,0.132331,-0.259902,0.473981,0.0235425,-0.0171368,0.467615,0.13767760964319575,0.6063764655846615,0.02382181224902391,0.14148608863829448,-0.016990800222174474,-0.22887284743831426
902,0.8896,169.454,156.562,0.646766,162.768,-105.919,-5.32591,0.129113,0.132452,-0.260147,0.474428,0.0235482,-0.0171523,0.468062,0.1378186904136185,0.6070946763729304,0.023827648049985717,0.14162421681160553,-0.01700603674668766,-0.22906175044912824
903,0.8906,169.501,156.605,0.646702,162.813,-105.949,-5.32744,0.129236,0.132573,-0.260392,0.474875,0.0235539,-0.0171678,0.468508,0.13795865071992175,0.6078132082731846,0.02383348388421158,0.141762361699437,-0.017021273035036533,-0.2292506071843734
904,0.8916,169.548,156.647,0.646637,162.857,-105.979,-5.32896,0.12936,0.132694,-0.260636,0.475321,0.0235596,-0.0171833,0.468955,0.13809976634159882,0.6085304528977364,0.02383931975170195,0.1419005233038111,-0.01703650908722476,-0.2294386470944184
905,0.8926,169.595,156.689,0.646572,162.901,-106.009,-5.33048,0.129484,0.132815,-0.260881,0.475768,0.0235652,-0.0171987,0.469401,0.1382408994626978,0.6092496267335592,0.023845053267946392,0.1420387016267508,-0.01705164660842562,-0.22962741150129629
906,0.8936,169.641,156.732,0.646506,162.945,-106.039,-5.332,0.129608,0.132937,-0.261125,0.476214,0.0235709,-0.0172142,0.469847,0.13838205008538895,0.609967512143629,0.023850889201382452,0.14217803884774693,-0.017066882189827104,-0.2298153594823038
907,0.8946,169.688,156.774,0.64644,162.99,-106.069,-5.33352,0.129731,0.133058,-0.26137,0.476661,0.0235765,-0.0172296,0.470293,0.1385220796891935,0.6106873284885248,0.02385662278241596,0.14231625075209897,-0.017082019243285784,-0.23000403160595173
908,0.8956,169.735,156.816,0.646373,163.034,-106.099,-5.33504,0.129855,0.133179,-0.261614,0.477107,0.0235822,-0.0172451,0.470738,0.1386632651803945,0.6114058552565893,0.02386245878179838,0.14245447938110356,-0.01709725435391507,-0.23019188770286403
909,0.8966,169.782,156.858,0.646305,163.078,-106.128,-5.33656,0.129979,0.1333,-0.261858,0.477553,0.0235878,-0.0172605,0.471184,0.13880446817968184,0.6121247025590664,0.023868192427621837,0.14259272473678397,-0.017112390939646116,-0.23037969796848035
910,0.8976,169.829,156.9,0.646237,163.122,-106.158,-5.33808,0.130102,0.13342,-0.262102,0.477999,0.0235935,-0.017276,0.471629,0.13894454974410753,0.6128438705389461,0.023874028492951505,0.14272984409074896,-0.017127625579517747,-0.23056746241398207
911,0.8986,169.875,156.943,0.646168,163.166,-106.188,-5.33959,0.130226,0.133541,-0.262346,0.478444,0.0235991,-0.0172914,0.472075,0.13908578762484347,0.61356174577673,0.023879762203565358,0.1428681227675752,-0.01714276169753537,-0.23075518105054815
912,0.8996,169.922,156.985,0.646098,163.21,-106.218,-5.3411,0.130349,0.133662,-0.26259,0.47889,0.0236047,-0.0173069,0.47252,0.13922590379368915,0.6142815548208314,0.023885495946288193,0.14300641817713378,-0.017157995866664,-0.23094285388935432
913,0.9006,169.968,157.027,0.646028,163.254,-106.247,-5.34262,0.130473,0.133783,-0.262834,0.479335,0.0236103,-0.0173223,0.472965,0.13936717656449038,0.6150000699704905,0.02389122972112001,0.14314473032144903,-0.017173131516982854,-0.23113048094157407
914,0.9016,170.015,157.069,0.645958,163.298,-106.277,-5.34413,0.130596,0.133904,-0.263078,0.479781,0.0236159,-0.0173377,0.473409,0.1395073273463041,0.6157205206502565,0.023896963528061033,0.14328305920254647,-0.01718826693421449,-0.23131806221837792
915,0.9026,170.061,157.111,0.645886,163.341,-106.306,-5.34564,0.130719,0.134024,-0.263321,0.480226,0.0236215,-0.0173531,0.473854,0.13964749536772425,0.6164396762822064,0.023902697367111703,0.14342026140161823,-0.017203402118362465,-0.23150482923614712
916,0.9036,170.108,157.152,0.645814,163.385,-106.336,-5.34715,0.130843,0.134145,-0.263565,0.480671,0.0236271,-0.0173686,0.474298,0.139788820419122,0.6171591520096285,0.0239084312382718,0.1435586236239934,-0.01721863534757173,-0.23169231918310984
917,0.9046,170.154,157.194,0.645742,163.429,-106.365,-5.34866,0.130966,0.134266,-0.263809,0.481115,0.0236327,-0.017384,0.474743,0.1399290230663197,0.6178773300968579,0.023914165141541543,0.14369700258921037,-0.017233770064049803,-0.23187976338810612
918,0.9056,170.201,157.236,0.645669,163.473,-106.395,-5.35016,0.131089,0.134386,-0.264052,0.48156,0.0236383,-0.0173994,0.475187,0.1400692429595034,0.6185974457225942,0.02391989907692138,0.14383425446446907,-0.01724890454745498,-0.2320663939290738
919,0.9066,170.247,157.278,0.645595,163.516,-106.424,-5.35167,0.131212,0.134507,-0.264295,0.482004,0.0236439,-0.0174148,0.475631,0.1402094801007947,0.619316262554023,0.02392563304441131,0.14397266678303544,-0.017264038797790926,-0.23225297912432963
920,0.9076,170.293,157.32,0.645521,163.56,-106.454,-5.35318,0.131335,0.134627,-0.264539,0.482449,0.0236494,-0.0174302,0.476075,0.14034973449231547,0.6200370186471962,0.023931264650880024,0.1441099517399822,-0.017279172815061195,-0.23244028654498872
921,0.9086,170.339,157.361,0.645446,163.603,-106.483,-5.35468,0.131459,0.134748,-0.264782,0.482893,0.023655,-0.0174456,0.476518,0.14049114662676354,0.6207564747909202,0.023936998682017263,0.14424839741993756,-0.01729430659926945,-0.23262678089537703
922,0.9096,170.386,157.403,0.64537,163.647,-106.513,-5.35618,0.131582,0.134868,-0.265025,0.483337,0.0236606,-0.017461,0.476962,0.1406314356653977,0.621476250444098,0.02394273274526526,0.14438571546654577,-0.01730944015041913,-0.2328132299331438
923,0.9106,170.432,157.444,0.645294,163.69,-106.542,-5.35768,0.131705,0.134989,-0.265268,0.483781,0.0236661,-0.0174764,0.477405,0.1407717419606449,0.622196345748623,0.023948364445782522,0.1445241945159308,-0.017324573468514015,-0.23299963366929888
924,0.9116,170.478,157.486,0.645218,163.734,-106.571,-5.35918,0.131828,0.135109,-0.265511,0.484224,0.0236717,-0.0174918,0.477849,0.14091206551462765,0.6229151379305027,0.02395409857267894,0.14466154566017653,-0.017339706553557543,-0.23318599211484914
925,0.9126,170.524,157.528,0.64514,163.777,-106.6,-5.36068,0.131951,0.135229,-0.265754,0.484668,0.0236772,-0.0175071,0.478292,0.14105240632946914,0.6236358722429209,0.023959730335708418,0.14479891328754868,-0.017354741141032415,-0.23337230528079866
926,0.9136,170.57,157.569,0.645062,163.82,-106.63,-5.36218,0.132073,0.135349,-0.265996,0.485111,0.0236827,-0.0175225,0.478735,0.1411916232150987,0.6243553022763115,0.023965362129712675,0.144936297400025,-0.017369873761497345,-0.2335578067363393
927,0.9146,170.616,157.61,0.644984,163.864,-106.659,-5.36368,0.132196,0.13547,-0.266239,0.485554,0.0236883,-0.0175379,0.479178,0.1413319984176522,0.6250750510878107,0.023971096351796506,0.14507484307385465,-0.01738500614892169,-0.23374402956231266
928,0.9156,170.662,157.652,0.644905,163.907,-106.688,-5.36518,0.132319,0.13559,-0.266482,0.485998,0.0236938,-0.0175533,0.47962,0.14147239088741737,0.6257967446146007,0.02397672820831387,0.1452122602998922,-0.01740013830330911,-0.23393020714163704
929,0.9166,170.707,157.693,0.644825,163.95,-106.717,-5.36667,0.132442,0.13571,-0.266724,0.48644,0.0236993,-0.0175686,0.480063,0.1416128006265185,0.6265155056101988,0.023982360095806676,0.14534969401698628,-0.01741517196618525,-0.23411557360126256
930,0.9176,170.753,157.735,0.644745,163.993,-106.746,-5.36816,0.132565,0.13583,-0.266967,0.486883,0.0237048,-0.017584,0.480505,0.14175322763707965,0.6272362116037751,0.023987992014274928,0.14548714422711595,-0.017430303656022716,-0.23430166090635418
931,0.9186,170.799,157.776,0.644664,164.037,-106.776,-5.36966,0.132687,0.13595,-0.267209,0.487326,0.0237103,-0.0175993,0.480947,0.1418925300281244,0.6279572369408359,0.02399362396371907,0.14562461093226053,-0.017445336857372484,-0.23448693748504457
932,0.9196,170.845,157.817,0.644583,164.08,-106.805,-5.37115,0.13281,0.13607,-0.267451,0.487768,0.0237158,-0.0176147,0.481389,0.14203299144751802,0.6286769530851146,0.023999255944138653,0.14576209413439956,-0.017460468082674097,-0.23467216923222778
933,0.9206,170.89,157.858,0.644501,164.123,-106.834,-5.37264,0.132933,0.13619,-0.267693,0.488211,0.0237213,-0.01763,0.481831,0.14217347014472903,0.6293986168120447,0.02400488795553435,0.14589959383551276,-0.017475500822511703,-0.2348573561587517
934,0.9216,170.936,157.899,0.644418,164.166,-106.863,-5.37413,0.133055,0.13631,-0.267935,0.488653,0.0237268,-0.0176454,0.482273,0.1423128238084872,0.6301189701870438,0.024010519997906155,0.14603711003758013,-0.017490631583291893,-0.23504249827546153
935,0.9226,170.982,157.941,0.644335,164.209,-106.892,-5.37562,0.133178,0.13643,-0.268177,0.489095,0.0237323,-0.0176607,0.482715,0.14245333692719542,0.6308396420286106,0.024016152071254515,0.14617464274258185,-0.017505663861631438,-0.23522759559320017
936,0.9236,171.027,157.982,0.644251,164.252,-106.921,-5.37711,0.1333,0.13655,-0.268419,0.489537,0.0237378,-0.017676,0.483156,0.14259272473678397,0.6315606324775387,0.02402178417557921,0.14631219195249856,-0.017520695909978845,-0.23541264812280738
937,0.9246,171.073,158.023,0.644167,164.295,-106.95,-5.37859,0.133423,0.136669,-0.268661,0.489978,0.0237432,-0.0176914,0.483597,0.14273327228542354,0.6322803093935576,0.024027313908143944,0.14644861122012642,-0.01753582597476011,-0.23559765587512072
938,0.9256,171.118,158.064,0.644082,164.337,-106.978,-5.38008,0.133545,0.136789,-0.268903,0.49042,0.0237487,-0.0177067,0.484039,0.14287269424920934,0.6330019367582089,0.024032946073858863,0.14658619330823286,-0.017550857561630773,-0.23578261886097496
939,0.9266,171.164,158.105,0.643996,164.38,-107.007,-5.38156,0.133667,0.136909,-0.269145,0.490861,0.0237542,-0.017722,0.48448,0.14301213322351214,0.6337222494295893,0.02403857827055078,0.14672379190718066,-0.017565888918519845,-0.23596753709120233
940,0.9276,171.209,158.146,0.64391,164.423,-107.036,-5.38305,0.13379,0.137028,-0.269386,0.491303,0.0237596,-0.0177373,0.484921,0.14315273236256854,0.6344445142726087,0.024044108093803862,0.1468602601581177,-0.017580920045430992,-0.23615164672866096
941,0.9286,171.254,158.186,0.643824,164.466,-107.065,-5.38453,0.133912,0.137148,-0.269628,0.491744,0.0237651,-0.0177527,0.485361,0.14329220550360522,0.6351654632609707,0.024049740351887117,0.14699789164706067,-0.017596049182767692,-0.2363364756649493
942,0.9296,171.299,158.227,0.643736,164.508,-107.094,-5.38601,0.134034,0.137268,-0.269869,0.492185,0.0237705,-0.017768,0.485802,0.14343169566140324,0.6358867302579521,0.02405527023541576,0.1471355396527736,-0.017611079848230293,-0.23652049639892492
943,0.9306,171.345,158.268,0.643649,164.551,-107.123,-5.38749,0.134156,0.137387,-0.270111,0.492626,0.0237759,-0.0177833,0.486242,0.1435712028380387,0.636608315403826,0.02406080014880585,0.14727205690460754,-0.017626110283725516,-0.23670523608439287
944,0.9316,171.39,158.309,0.64356,164.594,-107.151,-5.38897,0.134279,0.137507,-0.270352,0.493066,0.0237814,-0.0177986,0.486683,0.14371187074688696,0.6373285815095266,0.024066432498695445,0.1474097378121253,-0.0176411404892568,-0.23688916795781545
945,0.9326,171.435,158.35,0.643471,164.636,-107.18,-5.39045,0.134401,0.137626,-0.270593,0.493507,0.0237868,-0.0178139,0.487123,0.14385141210696784,0.6380508026520295,0.024071962472361985,0.14754628769548206,-0.017656170464827703,-0.2370730555089977
946,0.9336,171.48,158.39,0.643382,164.679,-107.209,-5.39193,0.134523,0.137745,-0.270834,0.493947,0.0237922,-0.0178292,0.487563,0.14399097049213339,0.6387717035917726,0.024077492475890194,0.14768285382924162,-0.017671200210441662,-0.23725689874861988
947,0.9346,171.525,158.431,0.643292,164.721,-107.237,-5.3934,0.134645,0.137865,-0.271075,0.494387,0.0237976,-0.0178445,0.488002,0.1441305459044604,0.6394929217977225,0.024083022509280738,0.14782058403534815,-0.017686229726102454,-0.23744069768735976
948,0.9356,171.57,158.472,0.643201,164.764,-107.266,-5.39488,0.134767,0.137984,-0.271316,0.494827,0.023803,-0.0178597,0.488442,0.14427013834602653,0.6402144574095074,0.024088552572533395,0.1479571828123143,-0.01770116078193429,-0.23762445233589258
949,0.9366,171.615,158.512,0.64311,164.806,-107.295,-5.39635,0.134889,0.138103,-0.271557,0.495267,0.0238084,-0.017875,0.488882,0.14440974781890947,0.6409363105668164,0.02409408266564861,0.14809379784550236,-0.017716189839201757,-0.2378081627048909
950,0.9376,171.66,158.553,0.643018,164.848,-107.323,-5.39782,0.135011,0.138223,-0.271798,0.495707,0.0238138,-0.0178903,0.489321,0.1445493743251871,0.6416584814094002,0.02409961278862638,0.14823157736784975,-0.017731218666526383,-0.237991828805025
951,0.9386,171.705,158.593,0.642926,164.891,-107.352,-5.3993,0.135133,0.138342,-0.272039,0.496147,0.0238192,-0.0179056,0.48976,0.14468901786693755,0.6423809700770708,0.024105142941466706,0.1483682250559326,-0.01774624726391172,-0.23817545064696233
952,0.9396,171.75,158.634,0.642833,164.933,-107.38,-5.40077,0.135254,0.138461,-0.272279,0.496586,0.0238246,-0.0179208,0.490199,0.1448275336181335,0.6431021336067477,0.024110673124170034,0.14850488900605807,-0.01776117740748384,-0.23835826660001513
953,0.9406,171.795,158.674,0.642739,164.975,-107.409,-5.40224,0.135376,0.13858,-0.27252,0.497025,0.02383,-0.0179361,0.490638,0.14496721109738786,0.6438236137967157,0.024116203336736586,0.14864156922016125,-0.017776205546504054,-0.2385418001410845
954,0.9416,171.84,158.715,0.642645,165.017,-107.437,-5.40371,0.135498,0.138699,-0.27276,0.497465,0.0238353,-0.0179514,0.491077,0.14510690561833428,0.6445470553322525,0.02412163116699806,0.14877826570017771,-0.0177912334555953,-0.2387245281808088
955,0.9426,171.884,158.755,0.64255,165.059,-107.466,-5.40517,0.13562,0.138818,-0.273001,0.497904,0.0238407,-0.0179666,0.491516,0.14524661718305176,0.6452691699821118,0.024127161438737943,0.14891497844804324,-0.017806162915382617,-0.2389079734634728
956,0.9436,171.929,158.795,0.642455,165.102,-107.494,-5.40664,0.135741,0.138937,-0.273241,0.498342,0.023846,-0.0179819,0.491954,0.14538520040784708,0.6459899557191171,0.024132589327077403,0.14905170746569385,-0.017821190366129724,-0.23909061363214468
957,0.9446,171.974,158.836,0.642359,165.144,-107.522,-5.40811,0.135863,0.139056,-0.273481,0.498781,0.0238514,-0.0179971,0.492393,0.14552494592660015,0.6467127039413052,0.02413811965799173,0.14918845275506554,-0.0178361193705755,-0.23927320997243562
958,0.9456,172.018,158.876,0.642263,165.186,-107.551,-5.40957,0.135985,0.139175,-0.273721,0.49922,0.0238567,-0.0180124,0.492831,0.1456647084953464,0.6474357695196173,0.024143547604410065,0.14932521431809498,-0.017851146362992343,-0.23945576249486333
959,0.9466,172.063,158.916,0.642166,165.228,-107.579,-5.41104,0.136106,0.139294,-0.273961,0.499658,0.0238621,-0.0180276,0.493269,0.14580334231225112,0.6481575044350751,0.024149077994499057,0.14946199215671885,-0.01786607491211034,-0.23963827120994274
960,0.9476,172.107,158.956,0.642069,165.27,-107.607,-5.4125,0.136228,0.139413,-0.274201,0.500096,0.0238674,-0.0180428,0.493707,0.1459431388474286,0.648879555539666,0.02415450599899671,0.14959878627287404,-0.017881003234316073,-0.23982073612818622
961,0.9486,172.152,158.996,0.641971,165.311,-107.635,-5.41396,0.136349,0.139532,-0.274441,0.500535,0.0238728,-0.0180581,0.494145,0.1460818063564442,0.6496035725746594,0.024160036448261257,0.14973559666849745,-0.017896029540015124,-0.24000315726010402
962,0.9496,172.196,159.037,0.641872,165.353,-107.664,-5.41542,0.136471,0.13965,-0.274681,0.500973,0.0238781,-0.0180733,0.494582,0.1462216368663074,0.6503262571958255,0.024165464510838675,0.14987127347367846,-0.017910957406914063,-0.2401855346162035
963,0.9506,172.241,159.077,0.641773,165.395,-107.692,-5.41688,0.136592,0.139769,-0.274921,0.50141,0.0238834,-0.0180885,0.49502,0.146360338075622,0.6510476073737546,0.02417089260218508,0.15000811629720845,-0.01792588504691106,-0.24036786820698952
964,0.9516,172.285,159.117,0.641674,165.437,-107.72,-5.41834,0.136713,0.139888,-0.27516,0.501848,0.0238887,-0.0181037,0.495457,0.14649905606879865,0.6517709246206975,0.02417632072230047,0.15014497540600313,-0.01794081246000978,-0.24054939859274282
965,0.9526,172.329,159.157,0.641573,165.479,-107.748,-5.4198,0.136835,0.140006,-0.2754,0.502286,0.023894,-0.0181189,0.495894,0.14663893748623202,0.6524945587499871,0.02418174887118485,0.1502807005207254,-0.017955739646213442,-0.24073164486665288
966,0.9536,172.374,159.197,0.641472,165.52,-107.776,-5.42126,0.136956,0.140125,-0.275639,0.502723,0.0238993,-0.0181342,0.496331,0.14677768919197676,0.6532168566827643,0.024187177048838437,0.15041759206897298,-0.017970764808454054,-0.24091308832017344
967,0.9546,172.418,159.236,0.641371,165.562,-107.804,-5.42271,0.137077,0.140243,-0.275879,0.50316,0.0239046,-0.0181494,0.496768,0.14691645768769357,0.6539394703287167,0.02419260525526168,0.15055334935435938,-0.017985691539385562,-0.24109524731902232
968,0.9556,172.462,159.276,0.641269,165.604,-107.833,-5.42417,0.137198,0.140362,-0.276118,0.503597,0.0239099,-0.0181646,0.497205,0.1470552429754144,0.6546623998258405,0.02419803349045435,0.1506902733497486,-0.018000618043432448,-0.2412766038819406
969,0.9566,172.506,159.316,0.641167,165.645,-107.861,-5.42562,0.137319,0.14048,-0.276357,0.504034,0.0239152,-0.0181798,0.497641,0.14719404505717093,0.6553856453121933,0.024203461754416677,0.1508260628134248,-0.018015544320598154,-0.24145791710581954
970,0.9576,172.55,159.356,0.641064,165.687,-107.889,-5.42708,0.137441,0.140599,-0.276596,0.504471,0.0239205,-0.018195,0.498078,0.14733401126843315,0.6561092069258927,0.02420889004714888,0.15096301926364664,-0.01803047037088623,-0.24163918700101583
971,0.9586,172.594,159.396,0.64096,165.728,-107.917,-5.42853,0.137562,0.140717,-0.276835,0.504908,0.0239258,-0.0182101,0.498514,0.14747284708319408,0.656833084805116,0.024214318368651178,0.15109884091323966,-0.01804529799883481,-0.24182041357788397
972,0.9596,172.638,159.435,0.640856,165.77,-107.945,-5.42998,0.137683,0.140836,-0.277074,0.505344,0.0239311,-0.0182253,0.49895,0.14761169969810495,0.6575556215316516,0.024219746718923574,0.15123582982598682,-0.018060223596870317,-0.2420015968467758
973,0.9606,172.682,159.475,0.640752,165.811,-107.972,-5.43143,0.137804,0.140954,-0.277313,0.50578,0.0239363,-0.0182405,0.499386,0.1477505691151988,0.6582784733528855,0.02422507267545404,0.15137168366912546,-0.018075148968038524,-0.2421827368180406
974,0.9616,172.726,159.515,0.640646,165.853,-108.0,-5.43288,0.137925,0.141072,-0.277552,0.506217,0.0239416,-0.0182557,0.499822,0.14788945533650866,0.659003299408699,0.02423050108272462,0.1515075535439634,-0.01809007411234287,-0.2423638335020254
975,0.9626,172.77,159.554,0.640541,165.894,-108.028,-5.43433,0.138045,0.14119,-0.277791,0.506653,0.0239468,-0.0182709,0.500258,0.14802721033628363,0.6597267825551061,0.024235827095177687,0.15164343945239245,-0.018104999029786684,-0.2425448869090744
976,0.9636,172.814,159.594,0.640434,165.935,-108.056,-5.43578,0.138166,0.141309,-0.27803,0.507089,0.0239521,-0.018286,0.500693,0.14816613003320667,0.6604505812089407,0.024241255559446895,0.1517804931762221,-0.018119825532361022,-0.24272589704952974
977,0.9646,172.858,159.634,0.640328,165.977,-108.084,-5.43722,0.138287,0.141427,-0.278268,0.507524,0.0239573,-0.0183012,0.501129,0.14830506654042974,0.661173034333929,0.02424658162782345,0.15191641129342814,-0.018134749997586685,-0.24290610684021618
978,0.9656,172.902,159.673,0.64022,166.018,-108.112,-5.43867,0.138408,0.141545,-0.278507,0.50796,0.0239626,-0.0183164,0.501564,0.14844401985998745,0.6618974636910224,0.02425201014909173,0.1520523454499183,-0.018149674235962143,-0.24308703065942383
979,0.9666,172.945,159.713,0.640112,166.059,-108.14,-5.44011,0.138529,0.141663,-0.278745,0.508395,0.0239678,-0.0183315,0.501999,0.14858298999391395,0.6626205463468038,0.024257336273392438,0.1521882956475853,-0.018164500063945987,-0.24326715451053826
980,0.9676,172.989,159.752,0.640004,166.1,-108.167,-5.44156,0.138649,0.141781,-0.278984,0.508831,0.023973,-0.0183467,0.502434,0.1487208282228416,0.663345606956738,0.024262662425388992,0.15232426188832204,-0.018179423850123944,-0.2434479920496636
981,0.9686,173.033,159.791,0.639895,166.141,-108.195,-5.443,0.13877,0.141899,-0.279222,0.509266,0.0239783,-0.0183618,0.502869,0.14885983185260665,0.6640693196918719,0.02426809103188554,0.15246024417402193,-0.0181942492288919,-0.24362803000218958
982,0.9696,173.076,159.831,0.639785,166.183,-108.223,-5.44444,0.138891,0.142017,-0.27946,0.509701,0.0239835,-0.018377,0.503304,0.14899885230282828,0.6647933473105279,0.024273417239807138,0.15259624250657833,-0.01820917256288601,-0.24380802511078148
983,0.9706,173.12,159.87,0.639675,166.224,-108.25,-5.44588,0.139011,0.142135,-0.279698,0.510136,0.0239887,-0.0183921,0.503738,0.14913674043822733,0.6655176899497102,0.024278743475425024,0.15273225688788483,-0.018223997492451738,-0.24398797738563494
984,0.9716,173.163,159.909,0.639565,166.265,-108.278,-5.44732,0.139132,0.142252,-0.279936,0.51057,0.0239939,-0.0184073,0.504173,0.14927579439641514,0.6662406815049673,0.0242840697387392,0.1528671344521244,-0.018238920374275658,-0.24416788683694324
985,0.9726,173.207,159.949,0.639454,166.306,-108.306,-5.44876,0.139252,0.14237,-0.280174,0.511005,0.0239991,-0.0184224,0.504607,0.14941371576685958,0.6669656538714801,0.024289396029750332,0.15300318080056652,-0.01825374485465292,-0.24434775347489712
986,0.9736,173.25,159.988,0.639342,166.347,-108.333,-5.4502,0.139373,0.142488,-0.280412,0.511439,0.0240043,-0.0184375,0.505041,0.14955280324108977,0.6676892739794653,0.024294722348457976,0.15313924320342487,-0.018268569111182242,-0.24452757730968488
987,0.9746,173.294,160.027,0.63923,166.387,-108.361,-5.45164,0.139493,0.142606,-0.28065,0.511874,0.0240095,-0.0184526,0.505475,0.14969075785459007,0.6684148766207791,0.024300048694862797,0.15327532166259394,-0.018283393143866955,-0.2447073583514926
988,0.9756,173.337,160.066,0.639117,166.428,-108.388,-5.45307,0.139614,0.142723,-0.280888,0.512308,0.0240147,-0.0184678,0.505909,0.14982987885294108,0.6691391258279424,0.024305375068964574,0.1534102627691294,-0.018298315122883824,-0.24488709661050367
989,0.9766,173.38,160.105,0.639004,166.469,-108.416,-5.45451,0.139734,0.142841,-0.281125,0.512742,0.0240199,-0.0184829,0.506343,0.14996786671750972,0.6698636894274799,0.02431070147076353,0.15354637321049425,-0.01831313870640716,-0.245066037163314
990,0.9776,173.424,160.145,0.63889,166.51,-108.443,-5.45594,0.139854,0.142959,-0.281363,0.513176,0.024025,-0.018498,0.506776,0.15010587114161567,0.6705885675558672,0.024315925468662236,0.15368249971383885,-0.018327962066095993,-0.24524569006692554
991,0.9786,173.467,160.184,0.638776,166.551,-108.471,-5.45738,0.139975,0.143076,-0.2816,0.513609,0.0240302,-0.0185131,0.50721,0.15024504237171343,0.6713120890367152,0.024321251925323306,0.15381748846299304,-0.01834278520195387,-0.24542454564315674
992,0.9796,173.51,160.223,0.638661,166.591,-108.498,-5.45881,0.140095,0.143194,-0.281838,0.514043,0.0240354,-0.0185282,0.507643,0.15038308005889367,0.6720375959069602,0.02432657840968222,0.15395364695982505,-0.018357608113984014,-0.2456041132319029
993,0.9806,173.553,160.262,0.638545,166.632,-108.526,-5.46024,0.140215,0.143311,-0.282075,0.514476,0.0240405,-0.0185433,0.508076,0.1505211343115902,0.6727617449529424,0.02433180248855349,0.15408866743506322,-0.018372430802189976,-0.24578288387190939
994,0.9816,173.597,160.301,0.63843,166.673,-108.553,-5.46167,0.140335,0.143429,-0.282312,0.51491,0.0240457,-0.0185584,0.508509,0.15065920513179099,0.6734878811104004,0.024337129027775406,0.15422485793290175,-0.018387253266574866,-0.24596161214829437
995,0.9826,173.64,160.339,0.638313,166.713,-108.58,-5.4631,0.140455,0.143546,-0.282549,0.515343,0.0240508,-0.0185735,0.508942,0.15079729252148466,0.6742126582658512,0.024342353160454966,0.15435991014168016,-0.018402075507142346,-0.24614029807109694
996,0.9836,173.683,160.378,0.638196,166.754,-108.608,-5.46453,0.140575,0.143663,-0.282786,0.515776,0.024056,-0.0185886,0.509374,0.1509353964826592,0.6749377493177642,0.024347679754540552,0.15449497815249136,-0.018416897523895748,-0.24631894165035384
997,0.9846,173.726,160.417,0.638079,166.794,-108.635,-5.46596,0.140695,0.143781,-0.283023,0.516208,0.0240611,-0.0186037,0.509807,0.15107351701730343,0.6756614787397692,0.02435290394102907,0.15463121659782342,-0.01843171931683829,-0.24649754289609904
998,0.9856,173.769,160.456,0.637961,166.835,-108.662,-5.46739,0.140815,0.143898,-0.28326,0.516641,0.0240663,-0.0186188,0.510239,0.15121165412740623,0.6763871972667861,0.02435823058997877,0.15476631635334703,-0.018446540885973528,-0.24667610181836463
999,0.9866,173.812,160.495,0.637842,166.875,-108.689,-5.46881,0.140935,0.144015,-0.283497,0.517074,0.0240714,-0.0186338,0.510672,0.1513498078149571,0.677113230097967,0.024363454830276687,0.15490143191646655,-0.01846126407743598,-0.24685461842717993
