,Time,S11,S22,S33,S12,S13,S23,LE11,LE22,LE33,LE12,LE13,LE23,SDV_EPBAR,E11,E12,E13,E22,E23,E33
0,1e-05,0.228235,0.684705,0.0,0.395315,-5.94131e-18,1.20159e-17,2.50015e-07,6.74997e-06,-3.00001e-06,1.12583e-05,-1.55021e-22,5.78535e-22,0.0,2.500150313444749e-07,1.1258363374899716e-05,0.0,6.749992781163172e-06,0.0,-3.0000055000201087e-06
1,2e-05,0.456468,1.3694,1.66533e-16,0.790625,-4.83306e-23,-8.37111e-23,5.00016e-07,1.34999e-05,-5.99997e-06,2.25164e-05,1.73192e-38,-7.46797e-39,0.0,5.000161249490986e-07,2.2516653495952e-05,0.0,1.3499991124099608e-05,0.0,-5.999952000235176e-06
2,3.5e-05,0.798812,2.39644,-5.55112e-17,1.38358,2.72161e-18,-1.01571e-17,8.74997e-07,2.36246e-05,-1.04998e-05,3.94035e-05,7.3357e-22,-4.23516e-22,0.0,8.749973827715252e-07,3.940427632809218e-05,0.0,2.3624879063044446e-05,0.0,-1.0499744877323636e-05
3,5.75e-05,1.31232,3.93696,-2.05391e-15,2.273,-1.0157e-17,-2.72136e-18,1.43746e-06,3.88114e-05,-1.72495e-05,6.47335e-05,7.91424e-27,1.37079e-26,0.0,1.4374610330936122e-06,6.473559525832506e-05,0.0,3.8812153172029795e-05,0.0,-1.7249351228265652e-05
4,9.125e-05,2.08256,6.24768,-1.20459e-14,3.6071,2.72189e-18,-1.01566e-17,2.2812e-06,6.1591e-05,-2.73738e-05,0.000102728,1.25593e-26,2.17534e-26,0.0,2.2812026019281006e-06,0.00010273327670162757,0.0,6.159289676466173e-05,0.0,-2.737342534098186e-05
5,0.00014188,3.23787,9.71361,-6.80012e-14,5.60816,-1.01566e-17,-2.72065e-18,3.54667e-06,9.57588e-05,-4.25595e-05,0.000159716,-5.86865e-21,3.38831e-21,0.0,3.546676289545303e-06,0.00015972875527947572,0.0,9.576338502026438e-05,0.0,-4.255859435731146e-05
6,0.00021781,4.97073,14.9122,-3.50442e-13,8.60955,4.71337e-18,2.30348e-17,5.44479e-06,0.000147007,-6.53367e-05,0.000245194,-4.17471e-21,6.3226e-21,0.0,5.444804822785088e-06,0.00024522406250571116,0.0,0.00014701780605852477,0.0,-6.533456560431361e-05
7,0.00033172,7.56976,22.7093,-1.77419e-12,13.1112,-2.5026e-17,-2.84752e-17,8.29165e-06,0.000223873,-9.94992e-05,0.000373398,-1.17378e-20,6.77734e-21,0.0,8.29168437577188e-06,0.00037346772171087395,0.0,0.00022389806143019442,0.0,-9.949425011879232e-05
8,0.00050258,11.4678,34.4033,-8.98798e-12,19.8628,-1.06272e-16,-5.02293e-17,1.25613e-05,0.000339155,-0.000150736,0.000565677,8.99066e-25,1.55723e-24,0.0,1.256137889349418e-05,0.0005658370254069123,0.0,0.0003392125195595952,0.0,-0.00015072463989995732
9,0.00075887,17.3135,51.9406,-4.54495e-11,29.9879,-6.26908e-17,-2.12681e-16,1.89646e-05,0.000512041,-0.000227574,0.000854034,8.35363e-21,-1.26423e-20,0.0,1.896477982921141e-05,0.00085439879087712,0.0,0.0005121721153706904,0.0,-0.0002275481070015406
10,0.0011433,26.0793,78.238,-2.2986e-10,45.1708,2.50515e-16,5.67744e-16,2.85663e-05,0.000771287,-0.000342794,0.00128643,5.3729e-20,-1.53961e-20,0.0,2.8566708020649756e-05,0.0012872578060059148,0.0,0.0007715845183038361,0.0,-0.00034273525284966855
11,0.00172,30.9505,92.7088,-0.0861328,53.6687,0.00453524,0.00793216,2.50415e-05,0.00115513,-0.000638807,0.00195344,1.61744e-07,2.75448e-07,0.000345918,2.5041813541015756e-05,0.001955349206888002,1.6174401307189612e-07,0.0011557974196192422,2.7544803793411177e-07,-0.000638603006248184
12,0.0025849,31.5267,94.4366,-0.116349,54.686,0.00574348,0.0100322,4.73393e-06,0.00172885,-0.00118284,0.00296475,2.89638e-07,4.77186e-07,0.00114544,4.73394120503734e-06,0.0029691492177339462,2.896380419947775e-07,0.0017303453227666132,4.771861139563072e-07,-0.001182140720506264
13,0.0034499,32.242,96.3753,0.0986546,55.6336,0.00725949,0.0126638,-1.61261e-05,0.00230362,-0.00172476,0.00397281,4.48797e-07,7.28034e-07,0.00194431,-1.6125969975133714e-05,0.003980712070657866,4.48797100816023e-07,0.0023062753711493578,7.280342650961558e-07,-0.001723273456237795
14,0.0043149,32.7658,97.9573,0.0746457,56.5754,0.008394,0.0146356,-3.70984e-05,0.00287665,-0.00226825,0.00498227,6.13189e-07,9.84395e-07,0.00274436,-3.7097711862887905e-05,0.004994702145369567,6.13189188092278e-07,0.0028807915279012164,9.843954844601654e-07,-0.0022656794648748813
15,0.0056123,33.5294,100.242,0.0436842,57.9135,0.00997668,0.0173875,-6.91971e-05,0.00373521,-0.00308212,0.0064953,8.8852e-07,1.41163e-06,0.00394518,-6.919470593591548e-05,0.00651644020692177,8.885203948150178e-07,0.0037421945904685394,1.41163099631747e-06,-0.0030773751441429686
16,0.0060989,33.7751,101.013,5.77152e-05,58.409,0.0105163,0.0183261,-8.13888e-05,0.00405675,-0.00338732,0.0070625,9.94076e-07,1.57498e-06,0.00439541,-8.138548802150147e-05,0.007087498268563586,9.940764940097324e-07,0.004064989748713721,1.5749812403154095e-06,-0.0033815895037763166
17,0.0068287,34.2182,102.276,0.0344716,59.1136,0.0112751,0.0196457,-9.91623e-05,0.00453922,-0.00384472,0.00791174,1.15894e-06,1.82953e-06,0.00507039,-9.91573835816828e-05,0.007943120518489444,1.1589406716527861e-06,0.004549537864883213,1.8295316734917577e-06,-0.003837338526989864
18,0.0079234,34.7741,104.004,-0.00434679,60.1426,0.012319,0.0214617,-0.000126624,0.00526191,-0.00453049,0.00918553,1.41965e-06,2.23105e-06,0.00608341,-0.0001266159835197067,0.009227846447785293,1.4196510076391888e-06,0.005275778162094458,2.23105248875477e-06,-0.0045202428109497594
19,0.0095656,35.5184,106.382,-0.131264,61.6246,0.0134723,0.0234713,-0.000166396,0.00634273,-0.00555942,0.0110958,1.82277e-06,2.84903e-06,0.0076037,-0.00016638215695341518,0.011157586701653566,1.8227716611640687e-06,0.006362887707689557,2.8490340584497176e-06,-0.00554399502251246
20,0.010181,36.0001,107.553,0.0887748,62.1277,0.01412,0.0245969,-0.000181446,0.00674939,-0.00594301,0.0118084,1.98494e-06,3.09873e-06,0.00817211,-0.00018142953967015263,0.011878394391214853,1.9849419699013993e-06,0.00677221846318643,3.098734800976999e-06,-0.005925385248046977
21,0.011105,36.4559,108.902,0.104179,62.9015,0.0147272,0.0256532,-0.000203955,0.0073573,-0.00652099,0.0128791,2.22468e-06,3.46566e-06,0.00902587,-0.00020393420259290362,0.012962392803081535,2.224682474682993e-06,0.00738443142885048,3.465666005508794e-06,-0.006499774485145604
22,0.012491,37.0429,110.727,0.00393661,64.0252,0.0155115,0.0270191,-0.00023817,0.00826735,-0.00738733,0.0144851,2.59259e-06,4.02782e-06,0.010307,-0.00023814163977708969,0.014590517440063566,2.5925933606618656e-06,0.008301618910605768,4.027828111707876e-06,-0.007360110744850434
23,0.01301,37.2857,111.439,0.0206784,64.4369,0.0158265,0.0275672,-0.000251189,0.00860863,-0.00771145,0.0150862,2.73269e-06,4.24196e-06,0.0107868,-0.0002511574546845141,0.015200571133365592,2.7326937337424084e-06,0.008645790813260446,4.241968997176215e-06,-0.007681793051105168
24,0.013789,37.6231,112.439,-0.00803197,65.0418,0.0161727,0.0281699,-0.000270107,0.00911981,-0.00819831,0.0159878,2.94175e-06,4.56071e-06,0.0115066,-0.0002700705243884327,0.016116288711752746,2.9417543270238156e-06,0.009161522173156245,4.5607204000042145e-06,-0.008164795506511946
25,0.014959,38.189,114.074,0.090379,65.9019,0.0167388,0.0291538,-0.000299587,0.009887,-0.00892632,0.0173376,3.26288e-06,5.05053e-06,0.0125854,-0.0002995421282958599,0.017488768556519707,3.2628853232630206e-06,0.00993603786370989,5.050542754014842e-06,-0.00888659868189079
26,0.016712,38.8286,116.057,-0.0906083,67.179,0.0172855,0.0301076,-0.000341407,0.0110328,-0.0100207,0.0193636,3.74249e-06,5.78026e-06,0.0142046,-0.00034134872726199195,0.019552290443445974,3.7424970031896265e-06,0.011093885780291579,5.780276705724674e-06,-0.009970660070278803
27,0.01737,39.1703,117.034,0.0798559,67.627,0.0176105,0.0306711,-0.000358183,0.0114637,-0.0104285,0.0201201,3.92719e-06,6.06191e-06,0.0148101,-0.0003581188601273766,0.02032387356568477,3.927197711472985e-06,0.011529660016490695,6.0619283734908436e-06,-0.010374311724935747
28,0.018356,39.4421,117.934,-0.138213,68.3317,0.0177807,0.030968,-0.000381192,0.0121064,-0.0110445,0.0212582,4.19562e-06,6.46936e-06,0.0157197,-0.0003811193555603998,0.021485765215219166,4.1956288017175325e-06,0.012179979086631265,6.469380926299451e-06,-0.010983733427758047
29,0.019836,40.1855,119.961,0.139683,69.2812,0.0181403,0.0315908,-0.000418145,0.0130732,-0.0119617,0.0229579,4.6028e-06,7.08805e-06,0.0170814,-0.0004180575895633698,0.02322346093271377,4.602810592890805e-06,0.013159027886342045,7.088075120176285e-06,-0.011890443266761364
30,0.021315,40.5302,121.262,-0.156697,70.2597,0.0183956,0.0320362,-0.000454253,0.0140353,-0.0128823,0.0246604,5.0075e-06,7.70233e-06,0.018444,-0.00045414984272640346,0.02496698262665964,5.0075125375137475e-06,0.014134257245929316,7.702359662964398e-06,-0.012799678339570852
31,0.022795,41.0462,122.834,-0.165187,71.1836,0.0185979,0.0323869,-0.000490298,0.0149971,-0.0137996,0.0263585,5.40917e-06,8.31159e-06,0.0198043,-0.000490177823577187,0.026708957665176003,5.409184629545649e-06,0.015110120792100057,8.311624541290641e-06,-0.013704821987027493
32,0.02335,41.4005,123.692,0.0649569,71.4926,0.0186835,0.032531,-0.000504133,0.015359,-0.0141415,0.0269921,5.55945e-06,8.53955e-06,0.0203129,-0.000504005946310726,0.027359686589906396,5.559465453774948e-06,0.015477555628138129,8.539586461964177e-06,-0.01404197866817114
33,0.024182,41.555,124.29,-0.150299,72.0216,0.0187614,0.0326735,-0.000524072,0.0158981,-0.0146586,0.0279472,5.78348e-06,8.87943e-06,0.0210777,-0.0005239346982557347,0.02834138656276375,5.7834967244208e-06,0.016025147168414744,8.879469422184982e-06,-0.014551685764874311
34,0.02543,42.1616,125.894,0.131335,72.7184,0.0189443,0.0329842,-0.000555496,0.0167098,-0.0154284,0.0293726,6.12034e-06,9.39065e-06,0.0222219,-0.0005553417406617411,0.02980822954580753,6.120358729377884e-06,0.01685018957853468,9.39069409233717e-06,-0.015309991967667913
35,0.027303,42.5665,127.394,-0.161471,73.8168,0.0191345,0.0333184,-0.00060068,0.0179203,-0.0165877,0.0315155,6.62177e-06,1.01516e-05,0.0239401,-0.0006004996278858865,0.03201737174093755,6.621791923899778e-06,0.01808183203422109,1.0151651527623429e-05,-0.01645088164949826
36,0.029175,43.4182,129.565,0.17441,74.8117,0.0193895,0.0337527,-0.000646316,0.0191323,-0.0177403,0.0336484,7.12318e-06,1.09126e-05,0.0256534,-0.000646107182803779,0.034220910721896924,7.123205369996555e-06,0.019316495269429357,1.0912659542672287e-05,-0.01758386729825001
37,0.031048,43.7552,130.913,-0.155717,75.8351,0.0195932,0.0341132,-0.000691609,0.0203385,-0.0188963,0.0357834,7.62196e-06,1.16696e-05,0.027367,-0.0006913698936213963,0.03643133115046293,7.621989047246203e-06,0.020546736635432827,1.1669668090075191e-05,-0.018718884181497697
38,0.03292,44.2913,132.551,-0.169976,76.8075,0.0198164,0.0344997,-0.000736635,0.0215437,-0.0200479,0.0379125,8.11959e-06,1.24248e-05,0.0290769,-0.0007363637510463539,0.03864034787189796,8.119622963986828e-06,0.02177744103593038,1.2424877188221828e-05,-0.019848277085225186
39,0.034793,45.1004,134.581,0.185233,77.7056,0.0200955,0.0349744,-0.000782303,0.0227493,-0.0211948,0.0400337,8.61846e-06,1.3182e-05,0.0307829,-0.000781997080787189,0.04084585010650432,8.618497139067927e-06,0.023010038779467612,1.3182086882945754e-05,-0.020971768706814276
40,0.036666,45.3673,135.742,-0.173789,78.6446,0.0203133,0.0353602,-0.00082753,0.0239488,-0.0223454,0.0421574,9.11542e-06,1.39363e-05,0.0324892,-0.0008271876914796028,0.04305864326112663,9.115461545583514e-06,0.02423787556888035,1.3936397110780874e-05,-0.022097590780096987
41,0.038538,46.1244,137.656,0.170285,79.4974,0.0206039,0.0358538,-0.000873231,0.02515,-0.0234885,0.0442712,9.61426e-06,1.46934e-05,0.0341902,-0.0008728498447638788,0.04526579253549734,9.614306217153867e-06,0.025468929327879364,1.4693507948582152e-05,-0.023214792365858106
42,0.040411,46.4007,138.783,-0.144397,80.3829,0.0208361,0.0362651,-0.000918385,0.0263455,-0.024635,0.0463868,1.01118e-05,1.54486e-05,0.0358912,-0.0009179634135653147,0.04747949767781656,1.0111851124428028e-05,0.026695610535482972,1.5448719330235505e-05,-0.02433403487804031
43,0.042283,46.8525,140.185,-0.169943,81.2279,0.0210895,0.0367034,-0.000963361,0.0275399,-0.0257773,0.0484969,1.06098e-05,1.62043e-05,0.0375885,-0.0009628971167661149,0.04969211776971627,1.0609856284204966e-05,0.02792262840190518,1.6204431290356425e-05,-0.025447901803785422
44,0.044156,47.3136,141.576,-0.184413,82.0444,0.0213484,0.0371526,-0.00100815,0.0287322,-0.0269176,0.0506029,1.11082e-05,1.69608e-05,0.0392832,-0.00100764198752068,0.051905098820861806,1.110826169625767e-05,0.029148951478974894,1.696094383518698e-05,-0.026558550204826226
45,0.046028,47.7806,142.958,-0.176094,82.8386,0.0216152,0.0376144,-0.00105289,0.0299225,-0.0280559,0.052705,1.16074e-05,1.77184e-05,0.0409752,-0.0010523359058077775,0.05411863425040431,1.1607467366170354e-05,0.0303746768216393,1.7718556971857424e-05,-0.02766598818922117
46,0.046731,48.1311,143.771,0.0803885,83.1004,0.0217538,0.0378477,-0.00107009,0.0303702,-0.0284803,0.0534894,1.17955e-05,1.80038e-05,0.0416076,-0.0010695176578666699,0.05494580928274573,1.179556956709682e-05,0.03083607884158779,1.8003962069412793e-05,-0.028078559190074737
47,0.047784,48.2229,144.209,-0.175477,83.5703,0.0218855,0.0380801,-0.00109483,0.0310371,-0.0291218,0.0546712,1.20765e-05,1.84298e-05,0.0425583,-0.0010942308922958777,0.056193281226137204,1.2076572921237982e-05,0.031523772708599074,1.842996982981404e-05,-0.028701846853461555
48,0.049364,48.613,145.373,-0.131895,84.2042,0.022135,0.0385124,-0.00113307,0.0320388,-0.0300787,0.0564382,1.25e-05,1.90727e-05,0.0439813,-0.0011324283185670803,0.058061224596009486,1.2500078125254888e-05,0.03255756776153085,1.9072881885184856e-05,-0.029630837509741492
49,0.051734,49.4033,147.381,0.197314,85.1103,0.0225251,0.0391777,-0.00118958,0.0335391,-0.0315102,0.059082,1.31389e-05,2.00425e-05,0.0461124,-0.0011888727301909707,0.06086222787632356,1.3138986315830437e-05,0.03410787655378478,2.0042700852318518e-05,-0.031018927203609437
50,0.054104,49.7883,148.723,-0.0278415,86.0337,0.0228642,0.0397765,-0.00124561,0.0350334,-0.0329433,0.0617243,1.37784e-05,2.10137e-05,0.0482415,-0.0012448345498669022,0.06366905074202589,1.377849492256722e-05,0.03565429907555151,2.1013920789236806e-05,-0.03240657941934488
51,0.056474,50.0973,149.972,-0.254188,86.9602,0.0231917,0.0403448,-0.00130142,0.0365233,-0.0343729,0.0643624,1.4419e-05,2.19859e-05,0.0503664,-0.0013005735202401558,0.06647882066223554,1.441910395438839e-05,0.03719847046057123,2.1986141691687777e-05,-0.03378886268191006
52,0.058844,50.5493,151.392,-0.320421,87.8344,0.023493,0.0409584,-0.00135645,0.0380105,-0.0357985,0.0669931,1.50581e-05,2.29628e-05,0.0524863,-0.001355530437525898,0.0692881000612553,1.5058213373775331e-05,0.03874213961370332,2.2963063647019055e-05,-0.03516531191314154
53,0.061214,51.134,152.993,-0.198966,88.6683,0.0237848,0.0416517,-0.00141155,0.0394956,-0.0372196,0.0696161,1.56973e-05,2.39466e-05,0.0546011,-0.0014105542318793018,0.07209652438602454,1.569742320328693e-05,0.040285921616832754,2.394688672202605e-05,-0.03653546469573388
54,0.062991,51.7522,154.469,0.147571,89.2526,0.0242667,0.042175,-0.00145434,0.0406098,-0.038281,0.0715758,1.6191e-05,2.46848e-05,0.0561827,-0.0014532829600760744,0.07419957194296312,1.6191131074982934e-05,0.041445654157718614,2.4685104672128588e-05,-0.03755754344036255
55,0.064769,51.9101,155.191,-0.140833,89.8894,0.0245657,0.0426672,-0.0014967,0.0417188,-0.0393456,0.0735379,1.66812e-05,2.54262e-05,0.0577644,-0.0014955805031416913,0.07630932802242296,1.6681339132018635e-05,0.04260125805210091,2.542652324866168e-05,-0.03858161446988562
56,0.065435,52.1816,155.84,0.0811548,90.0915,0.0247002,0.0429367,-0.00151299,0.0421361,-0.0397417,0.0742698,1.68652e-05,2.57066e-05,0.0583554,-0.0015118460076523066,0.0770973671673496,1.6865342218341794e-05,0.04303642634863625,2.5706930417479512e-05,-0.0389623568813815
57,0.066435,52.2493,156.153,-0.134676,90.4589,0.0248398,0.0432128,-0.00153631,0.0427582,-0.0403402,0.0753718,1.71408e-05,2.61253e-05,0.0592435,-0.0015351304799054999,0.07828498272195161,1.714094690430379e-05,0.043685501183261755,2.6125641268581745e-05,-0.039537365822198356
58,0.067935,52.4931,156.968,-0.174741,90.9603,0.0250925,0.0436341,-0.00157055,0.0436916,-0.0412358,0.0770204,1.75565e-05,2.67554e-05,0.0605732,-0.001569317331755582,0.08006410947569531,1.7556654116290815e-05,0.044660132019516574,2.6755757928986768e-05,-0.04039717107910312
59,0.070184,52.9048,158.229,-0.182987,91.693,0.025475,0.0442984,-0.00162311,0.0450892,-0.0425746,0.0794898,1.81839e-05,2.77078e-05,0.0625653,-0.0016217934693516511,0.08273451558105593,1.8184065328163967e-05,0.046121169755378055,2.7708183864660896e-05,-0.04168102774104909
60,0.072434,53.6186,159.931,0.212249,92.3716,0.025936,0.0450829,-0.00167632,0.0464865,-0.0439075,0.0819497,1.88178e-05,2.86703e-05,0.0645519,-0.0016749157603900278,0.08540121277544199,1.881797705594046e-05,0.04758393658992821,2.86707109968809e-05,-0.04295752019179222
61,0.074684,53.7901,160.762,-0.133689,93.1025,0.0263083,0.0457419,-0.00172895,0.047877,-0.0452436,0.084411,1.94533e-05,2.96352e-05,0.0665377,-0.0017274562269590232,0.08807600115844805,1.9453489216614273e-05,0.049041615269991734,2.963563912694589e-05,-0.044235370790873585
62,0.076933,54.1106,161.84,-0.2139,93.8128,0.0267015,0.0464208,-0.0017813,0.0492653,-0.0465747,0.0868659,2.00926e-05,3.06054e-05,0.0685185,-0.0017797144267552856,0.09075040028178294,2.0092801857662934e-05,0.05049901116175004,3.0605868350130905e-05,-0.04550674273949251
63,0.079183,54.5346,163.057,-0.173444,94.4869,0.0271145,0.0471374,-0.0018334,0.0506514,-0.0479023,0.0893143,2.07361e-05,3.15824e-05,0.0704949,-0.0018317203488675826,0.09342426557197792,2.073631499444062e-05,0.05195611745534645,3.1582898729176634e-05,-0.04677308720238038
64,0.081433,54.8952,164.164,-0.207663,95.1562,0.0275247,0.0478502,-0.0018854,0.0520342,-0.0492279,0.0917584,2.13835e-05,3.25653e-05,0.0724677,-0.0018836237499093578,0.09609997233493983,2.138372862869886e-05,0.05341176857980101,3.2565830255126826e-05,-0.048035847655444774
65,0.083682,55.5658,165.75,0.185043,95.7685,0.0280233,0.0486966,-0.00193813,0.053417,-0.0505473,0.0941928,2.20386e-05,3.35598e-05,0.074435,-0.0019362530388455923,0.09877156865524239,2.2038842851790363e-05,0.054869433970973436,3.356036313628685e-05,-0.04929104092495995
66,0.085932,55.7399,166.526,-0.112524,96.4318,0.0284335,0.0494201,-0.00199029,0.0547933,-0.0518697,0.0966282,2.2696e-05,3.4558e-05,0.0764011,-0.0019883106862118582,0.10145077808262726,2.2696257556242827e-05,0.0563222502991767,3.455859713463738e-05,-0.05054742754651531
67,0.088181,56.3166,167.962,0.202003,97.0396,0.0289398,0.0502848,-0.00204316,0.05617,-0.0531842,0.0990534,2.33612e-05,3.5568e-05,0.078361,-0.002041074169410906,0.10412525827346197,2.336147287484991e-05,0.05777749062599913,3.556863254883247e-05,-0.05179466302789271
68,0.090431,56.5099,168.738,-0.0633719,97.6777,0.0293688,0.0510394,-0.00209512,0.0575409,-0.054501,0.101478,2.40293e-05,3.65824e-05,0.0803193,-0.002092926768054837,0.10680556840158206,2.402958870595384e-05,0.059228592218221854,3.658306914422482e-05,-0.053042438100210365
69,0.092681,56.7193,169.583,-0.222145,98.3145,0.0297984,0.0517906,-0.00214697,0.0589088,-0.0558141,0.103899,2.47015e-05,3.76031e-05,0.0822735,-0.002144666908427184,0.10948839092896256,2.4701805084514916e-05,0.06067850244953665,3.76038070053486e-05,-0.05428507204487554
70,0.093524,57.0898,170.381,0.118376,98.4984,0.0300348,0.0521846,-0.00216676,0.0594236,-0.0563027,0.104801,2.49561e-05,3.7989e-05,0.0830033,-0.0021644142700683044,0.11048960093541105,2.495641140609628e-05,0.06122468031671846,3.798972159119174e-05,-0.05474703549181392
71,0.09479,57.272,170.936,0.103874,98.8405,0.0303168,0.0526666,-0.00219608,0.0601923,-0.0570394,0.106157,2.53385e-05,3.85689e-05,0.0840992,-0.0021936703805452984,0.11199644624450822,2.5338821022513613e-05,0.0620407573474997,3.856964378967653e-05,-0.055443146906644314
72,0.096688,57.5836,171.805,0.0983231,99.3311,0.030743,0.0534155,-0.00224037,0.0613439,-0.0581421,0.108189,2.59166e-05,3.94468e-05,0.0857412,-0.0022378622442480456,0.11425832030904903,2.5916935838088406e-05,0.06326450798403438,3.944757803520105e-05,-0.056484135693900206
73,0.099535,57.7501,172.678,-0.224382,100.111,0.0312629,0.0543258,-0.00230466,0.0630633,-0.0597957,0.111235,2.6788e-05,4.07701e-05,0.0882016,-0.0023020063101513166,0.11765752551405306,2.6788358801654866e-05,0.06509425756399656,4.077093111187757e-05,-0.0580430442662867
74,0.1006,58.216,173.648,0.192786,100.332,0.0315683,0.0548341,-0.00232927,0.0637107,-0.0604106,0.11237,2.71184e-05,4.12711e-05,0.0891198,-0.0023265593556495157,0.1189267869751327,2.7118767707223768e-05,0.06578402283927143,4.1271951663590656e-05,-0.058622075556952646
75,0.1022,58.4456,174.335,0.193433,100.743,0.0319336,0.0554588,-0.00236565,0.0646771,-0.0613375,0.114075,2.76154e-05,4.20251e-05,0.0904981,-0.002362854055215524,0.12083618444571353,2.7615781308609755e-05,0.06681449436258458,4.202598306690675e-05,-0.059494234490618636
76,0.1046,58.7986,175.335,0.142259,101.331,0.032471,0.0564145,-0.00242073,0.0661238,-0.0627245,0.116629,2.83679e-05,4.31685e-05,0.0925631,-0.002417802395923041,0.12370245873501662,2.8368302372738796e-05,0.06835897181997264,4.316943177307131e-05,-0.06079781174757071
77,0.1055,58.793,175.514,-0.0059452,101.585,0.0326752,0.0567579,-0.00244191,0.0666648,-0.0632444,0.117587,2.86509e-05,4.35973e-05,0.0933365,-0.0024389309631159817,0.12477948150201912,2.8651310441052402e-05,0.06893711039611117,4.359825037614229e-05,-0.06128597605593544
78,0.1069,59.1062,176.257,0.136451,101.898,0.0330085,0.0573277,-0.00247239,0.0674774,-0.0640218,0.119018,2.90782e-05,4.42453e-05,0.0944941,-0.0024693361611226594,0.12639019312935518,2.907862277501394e-05,0.06980608170724634,4.4246278837700714e-05,-0.062015448755373126
79,0.1089,59.2356,176.887,-0.0507568,102.405,0.0334689,0.058134,-0.00251935,0.0686925,-0.065188,0.121166,2.97236e-05,4.52252e-05,0.0962299,-0.0025161791012157098,0.12881227965385156,2.9724041750611718e-05,0.07110679316433632,4.5226222674665806e-05,-0.06310868874689302
80,0.1119,59.4552,177.82,-0.307764,103.164,0.0338891,0.0592607,-0.00258645,0.0705081,-0.0669343,0.124383,3.06836e-05,4.67124e-05,0.0988294,-0.0025831080201076384,0.1324495161155066,3.0684070746467285e-05,0.07305326112692678,4.671349104112821e-05,-0.06474335432007106
81,0.1142,60.1449,179.321,0.191939,103.647,0.0345783,0.0602539,-0.00263828,0.0718717,-0.0682352,0.126783,3.14301e-05,4.78343e-05,0.100771,-0.0026348027979372635,0.1351706590195203,3.1430593930847905e-05,0.07451747462768377,4.783544407827023e-05,-0.06595923864700137
82,0.1165,60.1947,179.801,-0.183694,104.206,0.0352558,0.0609832,-0.00268965,0.0732279,-0.0695402,0.129185,3.21816e-05,4.89592e-05,0.102712,-0.0026860361321779935,0.13790061630862516,3.218211783329039e-05,0.07597572384205553,4.896039852120282e-05,-0.06717736683904652
83,0.1188,60.4536,180.629,-0.226258,104.739,0.0356725,0.0619491,-0.0027407,0.0745825,-0.07084,0.13158,3.29277e-05,5.01009e-05,0.104648,-0.002736947710504367,0.14062915440480772,3.2928242122753915e-05,0.07743422817953727,5.010215507095239e-05,-0.06838906204631934
84,0.1196,60.7903,181.352,0.099327,104.892,0.0359325,0.062409,-0.00276028,0.0750921,-0.071324,0.132473,3.32114e-05,5.05316e-05,0.105371,-0.002756473929905856,0.14164819117188854,3.321195150474132e-05,0.0779834285865959,5.053287674283702e-05,-0.06883985264016523
85,0.1209,60.7735,181.481,-0.199855,105.221,0.0362003,0.0628583,-0.00278844,0.0758509,-0.072056,0.133819,3.36363e-05,5.11752e-05,0.106458,-0.0027845559122038344,0.14318588427250734,3.363686570678759e-05,0.07880171282998694,5.1176509472838916e-05,-0.0695212124599145
86,0.1228,61.2725,182.682,0.189871,105.601,0.0367595,0.0638258,-0.00283277,0.0769929,-0.073145,0.135828,3.4283e-05,5.21577e-05,0.108084,-0.002828761493016363,0.1454848532551185,3.428358766877082e-05,0.08003440812108042,5.215906023647854e-05,-0.07053395232260462
87,0.1257,61.6547,183.787,0.206384,106.233,0.0374818,0.0650619,-0.00289755,0.078698,-0.0747802,0.13884,3.52623e-05,5.36453e-05,0.110521,-0.0028933561536031993,0.14894025485560847,3.526292172217893e-05,0.08187754571076344,5.364673893493155e-05,-0.07205257324091985
88,0.1268,61.6505,183.944,-0.00516596,106.489,0.0377328,0.0655167,-0.00292195,0.0793357,-0.075394,0.139969,3.56302e-05,5.42034e-05,0.111433,-0.002917685258896685,0.1502381409221636,3.5630834763100694e-05,0.08256767904729001,5.420486903084942e-05,-0.07262197260492298
89,0.1284,62.0129,184.793,0.193901,106.809,0.0381796,0.0662774,-0.00295757,0.0802934,-0.0763106,0.141656,3.61871e-05,5.50482e-05,0.112798,-0.0029532006984140935,0.15218023035774442,3.618775476099678e-05,0.08360495073177843,5.504971517988899e-05,-0.07347161785293
90,0.1309,62.0879,185.36,-0.0895359,107.351,0.0387687,0.0673131,-0.00301232,0.0817241,-0.077686,0.144187,3.70289e-05,5.63268e-05,0.114845,-0.003007787516348115,0.15510009204703779,3.702958557827429e-05,0.08515637388070574,5.632838638391924e-05,-0.0747450890228567
91,0.1318,62.3213,185.873,0.0810661,107.535,0.0390398,0.0677739,-0.00303285,0.0822613,-0.0781987,0.145133,3.73466e-05,5.68083e-05,0.11561,-0.0030282555563652114,0.1561933337559125,3.7347297392908985e-05,0.0857394764920929,5.6809913622002384e-05,-0.07521934562964483
92,0.1331,62.3806,186.146,-0.0949866,107.848,0.0393587,0.0683346,-0.00306275,0.0830637,-0.0789711,0.146554,3.78235e-05,5.75317e-05,0.116759,-0.0030580645658772054,0.1578374523527868,3.7824215317616705e-05,0.08661102346591432,5.753335497993284e-05,-0.07593337041520931
93,0.1352,62.5147,186.709,-0.240996,108.289,0.0398639,0.069219,-0.0031083,0.0842661,-0.0801261,0.148681,3.85448e-05,5.86269e-05,0.118479,-0.0031034742368231116,0.16030279357487087,3.854554286042422e-05,0.08791835036795592,5.862861859018409e-05,-0.0770000512456186
94,0.1383,62.8387,187.76,-0.271624,108.921,0.0405351,0.0705139,-0.00317486,0.0860651,-0.0818542,0.151865,3.9633e-05,6.02891e-05,0.121053,-0.0031698254613846677,0.1640030854081267,3.963378539761919e-05,0.08987727700645642,6.029091742432158e-05,-0.07859371005956373
95,0.1414,63.2009,188.827,-0.270903,109.541,0.0411734,0.071851,-0.00324097,0.0878593,-0.0835775,0.15504,4.07271e-05,6.19707e-05,0.123621,-0.0032357237259322824,0.16770466835770814,4.072792935949643e-05,0.09183449010768707,6.197262022356043e-05,-0.08018020212550403
96,0.1444,63.5773,189.908,-0.244237,110.15,0.0418989,0.0731728,-0.00330697,0.0896487,-0.085296,0.158206,4.1836e-05,6.36674e-05,0.126182,-0.003301507997261477,0.17140747979529003,4.183687513759082e-05,0.093789967788388,6.366942681190757e-05,-0.08175955500050924
97,0.1475,63.9497,190.974,-0.215618,110.748,0.0426973,0.0744848,-0.0033729,0.0914335,-0.08701,0.161363,4.29603e-05,6.53796e-05,0.128736,-0.003367218162679819,0.17511145686044838,4.2961222807003097e-05,0.0957439072998254,6.538173729264685e-05,-0.08333207109197038
98,0.1506,64.6309,192.504,0.224266,111.296,0.043641,0.0759843,-0.00343962,0.0932164,-0.088716,0.164508,4.41074e-05,6.71147e-05,0.131282,-0.003433711283648777,0.17881300001788536,4.410837274559931e-05,0.09769925168594362,6.711695224193015e-05,-0.08489457338526774
99,0.1537,64.8741,193.325,0.0378629,111.879,0.0446523,0.0772581,-0.00350581,0.0949918,-0.0904228,0.167648,4.52693e-05,6.88634e-05,0.133824,-0.0034996718233107904,0.18252029023755356,4.527032467027681e-05,0.09964983796046134,6.88657711382934e-05,-0.08645514315831948
100,0.1568,65.3179,194.512,0.240917,112.453,0.0454637,0.0788479,-0.00357292,0.096764,-0.0921213,0.170779,4.64348e-05,7.06439e-05,0.136357,-0.00356654471638973,0.18622856353874084,4.6435878112038864e-05,0.10160036525502991,7.064639533904682e-05,-0.08800548209960457
101,0.1598,65.2933,194.965,-0.206774,113.063,0.0462037,0.0802155,-0.00363911,0.098528,-0.0938206,0.173906,4.76125e-05,7.24353e-05,0.138887,-0.003632496464097801,0.18994370585467624,4.761363349303771e-05,0.1035453032302962,7.243792349975742e-05,-0.08955391838237703
102,0.1629,65.63,195.914,-0.212227,113.625,0.0470066,0.081643,-0.00370404,0.100289,-0.0955123,0.177022,4.88021e-05,7.42457e-05,0.141408,-0.0036971885058525444,0.19365735330004852,4.880329084189228e-05,0.1054903586279079,7.424845628012378e-05,-0.09109281797342228
103,0.166,66.2946,197.39,0.242438,114.129,0.0480345,0.0832519,-0.00376995,0.102048,-0.0971959,0.180125,5.00136e-05,7.60827e-05,0.143921,-0.003762852660172067,0.19736702464585076,5.001485070099676e-05,0.10743662741030247,7.608559436200757e-05,-0.09262176667491373
104,0.1691,66.4681,198.068,-0.00512059,114.679,0.0488259,0.0847724,-0.00383519,0.1038,-0.0988808,0.183225,5.12319e-05,7.7938e-05,0.14643,-0.003827845051589729,0.20108462172054353,5.123321237610057e-05,0.10937855701512911,7.794103724489965e-05,-0.09414932101071338
105,0.1722,66.8998,199.205,0.211276,115.211,0.049817,0.0863874,-0.00390129,0.105549,-0.100557,0.186314,5.24702e-05,7.98174e-05,0.148931,-0.003893689854837068,0.20480050834921193,5.247157658505586e-05,0.11132055789607054,7.982058549349524e-05,-0.09566643606949143
106,0.1753,66.8913,199.643,-0.191765,115.779,0.0506264,0.087853,-0.00396652,0.107289,-0.102234,0.1894,5.37164e-05,8.17122e-05,0.151427,-0.0039586637503011834,0.20852426552005832,5.37178427515439e-05,0.11325593896003872,8.171553853264513e-05,-0.09718173252499895
107,0.1783,67.1876,200.5,-0.221824,116.306,0.0515022,0.0893579,-0.00403056,0.109027,-0.103904,0.192476,5.49763e-05,8.36262e-05,0.153916,-0.0040224481950749125,0.2122474094204878,5.497781122443257e-05,0.1151924601313874,8.362969676811716e-05,-0.09868818079726371
108,0.1814,67.4709,201.356,-0.24487,116.824,0.0523785,0.090893,-0.00409451,0.11076,-0.105569,0.195543,5.62486e-05,8.55608e-05,0.156399,-0.004086138922980154,0.21597107955444272,5.6250181982075986e-05,0.11712676425521229,8.556446042962129e-05,-0.10018761634974116
109,0.1845,67.772,202.234,-0.239169,117.332,0.053281,0.0924482,-0.00415828,0.112489,-0.10723,0.198603,5.75348e-05,8.75156e-05,0.158875,-0.004149646324945966,0.21969764980251671,5.7536455158269106e-05,0.11905994718565815,8.751942960194548e-05,-0.10168096415030015
110,0.1876,68.0781,203.114,-0.221813,117.832,0.0541919,0.094035,-0.00422191,0.114213,-0.108887,0.201654,5.88344e-05,8.94916e-05,0.161344,-0.004213010267005157,0.22342462994919732,5.883613077717342e-05,0.1209908705122602,8.949560449278415e-05,-0.10316824623919629
111,0.1907,68.3792,203.982,-0.206403,118.326,0.0551221,0.0956414,-0.00428542,0.115933,-0.110539,0.204697,6.01481e-05,9.14887e-05,0.163807,-0.004276250690502192,0.22715318121172734,6.014990893321581e-05,0.1229206339303297,9.149288521870247e-05,-0.10464858919645892
112,0.1937,69.003,205.354,0.248895,118.768,0.0562112,0.0974886,-0.00434981,0.117651,-0.112184,0.207728,6.1482e-05,9.35172e-05,0.166263,-0.004340363278593218,0.23087832510765893,6.148389005700139e-05,0.12485146969243277,9.352157286968144e-05,-0.10612023150956984
113,0.1968,69.1155,205.882,-0.0359441,119.264,0.0571404,0.0991335,-0.00441337,0.119362,-0.113831,0.210757,6.28266e-05,9.55624e-05,0.168714,-0.004403645393976308,0.23461230781633113,6.282857363215655e-05,0.12677773800968928,9.556696623169714e-05,-0.10759123978043994
114,0.1999,69.5644,207.002,0.249376,119.73,0.0582193,0.100994,-0.00447792,0.12107,-0.115468,0.213774,6.41908e-05,9.76376e-05,0.171158,-0.00446790906453387,0.23834275770303148,6.419286027359306e-05,0.1287039188764052,9.764236670561921e-05,-0.10905091784845411
115,0.203,69.7808,207.663,0.0937236,120.201,0.0592275,0.102717,-0.00454114,0.122773,-0.117105,0.216786,6.55685e-05,9.97321e-05,0.173597,-0.00453084461390918,0.24207826894507267,6.557064966106196e-05,0.13062773931840144,9.97370734112657e-05,-0.11050820837820408
116,0.2061,69.7669,208.06,-0.219555,120.719,0.0601481,0.104361,-0.00460453,0.124469,-0.118738,0.219793,6.69571e-05,0.000101845,0.17603,-0.00459394540366842,0.24581881939887817,6.695934167666451e-05,0.13254691096181093,0.00010185018637809407,-0.11195956312024957
117,0.2072,70.1332,208.81,0.154697,120.845,0.0606543,0.105189,-0.00462862,0.125107,-0.119346,0.220914,6.74839e-05,0.000102644,0.176939,-0.004617924446694843,0.24721616536150615,6.748617708951521e-05,0.1332697064382442,0.00010264926807557195,-0.1124993276008428
118,0.209,70.0259,208.754,-0.254733,121.159,0.0611261,0.106031,-0.00466304,0.126057,-0.120265,0.222602,6.8272e-05,0.00010384,0.178304,-0.00465218490810948,0.24932324412279483,6.827433058598231e-05,0.13434682420929356,0.00010384539155938732,-0.11331456605932944
119,0.2116,70.2543,209.458,-0.220462,121.538,0.0620221,0.107554,-0.00471622,0.127483,-0.121635,0.225124,6.94696e-05,0.000105658,0.180346,-0.004705116097463269,0.25247801383692714,6.947201306850559e-05,0.1359655566625506,0.00010566358200314596,-0.11452849337374937
120,0.2125,70.543,210.07,0.0834246,121.644,0.0624447,0.108274,-0.00473656,0.128019,-0.122145,0.226066,6.99221e-05,0.000106345,0.181109,-0.004725360189518746,0.2536584040024432,6.992454460696962e-05,0.1365745974092607,0.00010635065483000083,-0.11497996870613325
121,0.214,70.5218,210.135,-0.16269,121.893,0.0628693,0.109071,-0.0047659,0.128818,-0.122916,0.227483,7.05997e-05,0.000107374,0.182256,-0.004754561119071021,0.25543609715906523,7.060219221743935e-05,0.13748308340441429,0.00010737976479435751,-0.11566205617175451
122,0.2162,70.6422,210.59,-0.242653,122.219,0.0636252,0.110371,-0.00481073,0.130016,-0.124068,0.229604,7.16266e-05,0.000108935,0.183973,-0.004799176972024255,0.25810170299683044,7.162916524605656e-05,0.1388466047245258,0.00010894093363256196,-0.11668022690410129
123,0.2195,70.9212,211.439,-0.214518,122.689,0.0647308,0.112267,-0.0048767,0.131809,-0.125791,0.232777,7.31844e-05,0.000111303,0.186542,-0.0048648282047897284,0.2620999996435225,7.318707804349067e-05,0.14089038839131618,0.00011130919440871523,-0.11820087645735566
124,0.2228,71.1952,212.241,-0.215287,123.158,0.0658214,0.114174,-0.00494227,0.133597,-0.12751,0.235943,7.47575e-05,0.000113697,0.189105,-0.0049300770787966686,0.26610214028806145,7.476029441155774e-05,0.14293212517450082,0.00011370346374883766,-0.11971538705592266
125,0.2261,71.4679,213.037,-0.213516,123.622,0.066938,0.116096,-0.00500766,0.13538,-0.129224,0.2391,7.63484e-05,0.000116117,0.19166,-0.004995142573716915,0.2701055407875992,7.635131461336542e-05,0.14497179097539203,0.00011612374183989083,-0.12122290257264667
126,0.2294,71.7429,213.832,-0.204597,124.08,0.0680633,0.11805,-0.00507287,0.137158,-0.130934,0.242248,7.79563e-05,0.000118564,0.19421,-0.005060024724964141,0.27411013295097075,7.795933867127403e-05,0.14700936168332723,0.0001185710289888231,-0.12272432732522431
127,0.2327,72.344,215.14,0.249572,124.486,0.0693771,0.120278,-0.00513896,0.138935,-0.132635,0.245383,7.95888e-05,0.000121049,0.19675,-0.005125778135084635,0.27811073588630486,7.95919672724743e-05,0.1490494093645769,0.00012105632672576583,-0.12421530480859488
128,0.2359,72.4659,215.647,-0.00287402,124.942,0.0705192,0.122292,-0.00520417,0.140703,-0.134338,0.248515,8.12356e-05,0.000123556,0.199287,-0.005190651767864707,0.2821200540258828,8.123889970068632e-05,0.15108272564227399,0.00012356363335697118,-0.12570549688579635
129,0.2392,72.852,216.643,0.231201,125.38,0.0718128,0.124514,-0.0052704,0.142469,-0.136032,0.251636,8.29056e-05,0.000126098,0.201815,-0.005256535809224028,0.28612780155134243,8.290903676422268e-05,0.15311733376594416,0.00012610595068696107,-0.12718529802862966
130,0.2425,73.1303,217.365,0.174761,125.805,0.0730575,0.126655,-0.00533531,0.14423,-0.137724,0.25475,8.45936e-05,0.000128668,0.204337,-0.005321102511949616,0.29013904579123695,8.459717813957823e-05,0.1551497624189011,0.00012867627808210713,-0.12866085183382026
131,0.2458,73.3568,218.123,0.219685,126.254,0.0743627,0.128873,-0.00540143,0.145985,-0.139411,0.257856,8.63031e-05,0.000131269,0.206853,-0.005386868506403797,0.2941524472534165,8.630682421961744e-05,0.15717883023815937,0.00013127761615217004,-0.13012956177161883
132,0.2471,73.2888,218.133,-0.00749222,126.439,0.0747969,0.129684,-0.0054262,0.146642,-0.140044,0.25902,8.69455e-05,0.000132246,0.207795,-0.005411504768549569,0.2956597177632734,8.69492798696303e-05,0.15793934653187192,0.00013225474488764988,-0.13068001552202535
133,0.2489,73.5801,218.792,0.188134,126.65,0.075589,0.131017,-0.00546245,0.147628,-0.140989,0.260759,8.79185e-05,0.000133723,0.209204,-0.005447557948033865,0.2979148302644725,8.79223649445926e-05,0.15908163778459583,0.00013373194131882649,-0.1315011348673596
134,0.2517,73.6033,219.12,-0.0610274,127.031,0.0766332,0.132861,-0.00551763,0.149101,-0.142407,0.263369,8.93891e-05,0.000135961,0.211317,-0.0055024358376913884,0.30130681258284486,8.939309532474127e-05,0.1607902231012075,0.000135970243115624,-0.13273179351492703
135,0.2527,73.7594,219.476,0.0628112,127.162,0.0770956,0.133644,-0.00553846,0.149653,-0.142936,0.264344,8.99441e-05,0.000136803,0.212107,-0.005523151006203597,0.3025762054535779,8.994814509177829e-05,0.1614311561856161,0.00013681235795703905,-0.1331904570689515
136,0.2543,73.815,219.677,-0.049832,127.379,0.0776801,0.13467,-0.00556878,0.15048,-0.143732,0.265808,9.07785e-05,0.00013807,0.213292,-0.005553303087157291,0.3044845736029975,9.078262049277974e-05,0.16239205702951498,0.00013807953210109858,-0.1338801629257762
137,0.2566,73.9078,220.063,-0.153342,127.689,0.0785929,0.136267,-0.00561496,0.151718,-0.144923,0.268,9.20408e-05,0.00013999,0.215067,-0.005599225575262268,0.3073471400149361,9.20450358843361e-05,0.163831989530427,0.00013999979905721105,-0.1349110976082648
138,0.2601,74.458,221.298,0.253614,128.089,0.0800859,0.138831,-0.00568364,0.153573,-0.146701,0.271276,9.39614e-05,0.000142916,0.217722,-0.005667518675237848,0.3116370322524542,9.396581451071029e-05,0.16599290149720902,0.00014292621297795627,-0.13644785909091428
139,0.2637,74.6379,221.878,0.0742526,128.524,0.0814502,0.141193,-0.00575128,0.15542,-0.14848,0.274547,9.59012e-05,0.000145871,0.220372,-0.005734773049706154,0.31593442153348317,9.590579866713966e-05,0.16814848045064124,0.00014588163969175838,-0.1379827526569567
140,0.2672,74.946,222.751,0.223556,128.965,0.0829211,0.143726,-0.00582004,0.157264,-0.15025,0.277808,9.78668e-05,0.000148866,0.223014,-0.005803136376353102,0.3202326881968751,9.787158911156446e-05,0.17030453351857866,0.00014887708109290188,-0.13950717367416543
141,0.2707,74.8303,222.932,-0.250245,129.441,0.0841949,0.14597,-0.00588747,0.159098,-0.15202,0.281066,9.98481e-05,0.000151884,0.22565,-0.005870172810708452,0.3245410207578405,9.98530849873891e-05,0.172452841429243,0.00015189553495864594,-0.14102889885269487
142,0.2742,75.4479,224.213,0.226796,129.818,0.0857806,0.148623,-0.00595483,0.160933,-0.153778,0.284305,0.00010186,0.000154948,0.228276,-0.005937135140551386,0.32883816459169335,0.00010186518790589183,0.17460626755748265,0.00015496000506143304,-0.14253764347341757
143,0.2777,75.5984,224.741,0.0333131,130.239,0.0871546,0.151106,-0.00602163,0.16276,-0.155537,0.287541,0.00010389,0.000158043,0.230897,-0.006003536322099823,0.33314524999795925,0.0001038953967529288,0.17675423477888663,0.00015805548945291292,-0.14404459400700131
144,0.2812,75.9268,225.622,0.211471,130.657,0.0887104,0.153742,-0.00608937,0.164583,-0.157288,0.290766,0.000105948,0.000161179,0.23351,-0.006070867362021337,0.33745158365985306,0.0001059536126875038,0.17890141430838113,0.00016119199003283846,-0.14554206050837026
145,0.2847,75.836,225.822,-0.220127,131.112,0.0900547,0.156108,-0.00615595,0.166398,-0.159039,0.293988,0.000108022,0.000164339,0.236117,-0.006137040960728757,0.34176780235673543,0.00010802783458641052,0.18104306333391884,0.00016435250439328364,-0.14703690724017304
146,0.2883,76.0736,226.487,-0.243924,131.524,0.0914599,0.158572,-0.00622137,0.168209,-0.160782,0.297197,0.000110118,0.000167534,0.238717,-0.006202057348799861,0.3460804511786768,0.00011012406320953794,0.18318387023716332,0.00016754803460439227,-0.14852232699147527
147,0.2918,76.6595,227.736,0.233795,131.878,0.0931419,0.16139,-0.00628793,0.170018,-0.162516,0.300393,0.000112246,0.000170777,0.241307,-0.006268202338533091,0.35038940634320914,0.00011225229981803864,0.18532618699970982,0.0001707915832220852,-0.149997509923244
148,0.2953,76.7788,228.193,0.0104198,132.281,0.0946011,0.163969,-0.00635358,0.17182,-0.164251,0.303585,0.000114393,0.000174049,0.243892,-0.006333438689642867,0.35470673612085846,0.00011439954312875145,0.18746407044315383,0.0001740641474059501,-0.15147098563372385
149,0.2988,76.7658,228.514,-0.259573,132.726,0.0959912,0.166452,-0.00641912,0.173615,-0.165982,0.306772,0.000116557,0.000177352,0.246472,-0.0063985614619745945,0.3590310736605655,0.00011656379303115472,0.1895974826141973,0.00017736772779564092,-0.1529385188411626
150,0.3001,77.1485,229.275,0.162382,132.82,0.0967601,0.167682,-0.00644417,0.17429,-0.166626,0.307958,0.000117379,0.000178598,0.247434,-0.006423450866268943,0.3606438406957362,0.00011738588918430715,0.19040073198112473,0.0001786139495723038,-0.1534838508192845
151,0.3021,77.0064,229.121,-0.271313,133.098,0.0974875,0.168945,-0.00647984,0.175295,-0.167599,0.309747,0.000118609,0.000180466,0.248881,-0.006458891109695997,0.3630802112103617,0.00011861603432561374,0.19159768608545713,0.00018048228496825303,-0.1543071104516759
152,0.3051,77.2194,229.755,-0.210677,133.418,0.098848,0.171239,-0.00653509,0.176805,-0.16905,0.312418,0.000120477,0.000183308,0.251045,-0.006513782739566931,0.3667258650578036,0.00012048425764521475,0.19339835775641512,0.00018332480193805623,-0.15553332100351647
153,0.3095,77.4264,230.502,-0.287116,133.91,0.100937,0.174171,-0.00661538,0.179059,-0.171222,0.316418,0.000123331,0.00018761,0.254284,-0.006593546545789919,0.3722037169179546,0.0001233386055803365,0.19609131147350456,0.00018762759985668787,-0.15736551215041839
154,0.3128,77.6731,231.141,-0.26431,134.272,0.102306,0.176765,-0.00667613,0.180746,-0.172845,0.319407,0.000125476,0.000190877,0.256705,-0.006653894154760143,0.376311369656652,0.00012548387244248893,0.19811082049286322,0.00019089521817372557,-0.15873199872038823
155,0.3162,77.9311,231.83,-0.197673,134.623,0.103623,0.179509,-0.00673712,0.182429,-0.174463,0.322388,0.000127632,0.000194186,0.259119,-0.006714476486278653,0.3804202751304395,0.00012764014531030377,0.200128938773928,0.0001942048553218445,-0.1600920697522803
156,0.3187,78.1165,232.32,-0.166798,134.887,0.104786,0.181571,-0.00678325,0.183689,-0.175674,0.324619,0.00012927,0.000196682,0.260926,-0.0067602956906502865,0.38350343074551274,0.00012927835572651425,0.2016420542993791,0.0001967013431727338,-0.16110858263303285
157,0.3224,78.2884,232.92,-0.234193,135.29,0.106412,0.184468,-0.00685116,0.185572,-0.177488,0.327958,0.00013175,0.000200469,0.26363,-0.006827744308726125,0.38813066957694176,0.00013175867941250807,0.20390687794989515,0.00020048909525272052,-0.16262895227196383
158,0.3238,78.6415,233.627,0.141442,135.391,0.107256,0.185828,-0.00687724,0.18628,-0.178164,0.329204,0.000132691,0.000201897,0.264641,-0.0068536459033963215,0.38986135838645275,0.0001326998038402305,0.20475954582829492,0.0002019173825709153,-0.16319482381409767
159,0.326,78.5386,233.544,-0.235364,135.662,0.108091,0.187313,-0.00691445,0.187334,-0.179185,0.331079,0.0001341,0.00020404,0.266158,-0.006890600191693408,0.3924697930767598,0.00013410899180699154,0.20603003181809765,0.00020406081757662342,-0.16404876588737305
160,0.3291,78.7188,234.123,-0.220487,135.988,0.109603,0.189888,-0.00697201,0.188916,-0.180706,0.333881,0.000136239,0.000207299,0.268427,-0.006947761923616014,0.39637696482825135,0.00013624828095393227,0.20793948130474238,0.00020732048792249103,-0.1653192812425922
161,0.3303,79.0012,234.709,0.0914982,136.071,0.110309,0.191078,-0.00699406,0.189511,-0.181273,0.334927,0.000137047,0.000208528,0.269276,-0.0069696584840550635,0.3978383392990672,0.00013705639136918357,0.20865841915892025,0.00020854974347472854,-0.16579241106514742
162,0.3321,78.9592,234.711,-0.162079,136.289,0.111034,0.192451,-0.00702575,0.190396,-0.182129,0.336501,0.000138259,0.000210373,0.270549,-0.007001127116954664,0.4000402693094398,0.00013826855821608142,0.209728555325283,0.00021039512995146836,-0.16650618722149657
163,0.3348,79.0373,235.059,-0.262678,136.573,0.112307,0.194647,-0.0070742,0.191725,-0.183408,0.338856,0.000140094,0.000213169,0.272456,-0.007049236746880627,0.40334124952225436,0.00014010381362261626,0.21133735338482706,0.00021319172212574955,-0.16757154436691624
164,0.3388,79.2619,235.765,-0.254351,136.977,0.114333,0.197724,-0.00714534,0.193712,-0.185322,0.342379,0.00014289,0.000217408,0.27531,-0.007119872751625955,0.40829393978568307,0.00014290020926233105,0.21374667357290944,0.00021743163483201045,-0.16916328864579067
165,0.3428,79.5622,236.552,-0.168914,137.371,0.115542,0.201448,-0.00721621,0.195693,-0.187228,0.345891,0.000145661,0.000221732,0.278154,-0.007190235672904444,0.4132485633285661,0.00014567160907863475,0.2161534888967347,0.0002217565843569691,-0.17074535522922873
166,0.3468,79.7591,237.172,-0.219763,137.775,0.118062,0.204266,-0.00728678,0.197668,-0.189131,0.349394,0.000148538,0.000226054,0.280991,-0.007260295785872839,0.4182078541725285,0.00014854903231498184,0.21855776547891548,0.00022607955213072017,-0.17232192623513143
167,0.3478,80.0277,237.702,0.080978,137.838,0.118638,0.205365,-0.00730505,0.198163,-0.189603,0.350264,0.000149252,0.000227146,0.281697,-0.007278432974585192,0.41944223188210383,0.00014926313863394824,0.21916110088602148,0.00022717179960607403,-0.17271249810373634
168,0.3488,80.0012,237.682,-0.0679078,137.96,0.118992,0.20627,-0.00732299,0.198655,-0.190078,0.351138,0.000149965,0.000228236,0.282405,-0.0072962422397480076,0.42068336668967365,0.0001499762453127662,0.2197610757293662,0.00022826204781756232,-0.173105366353541
169,0.3503,80.1981,238.159,0.112017,138.082,0.119951,0.207705,-0.00735037,0.199395,-0.190787,0.352444,0.000151052,0.000229882,0.283464,-0.007323422096541576,0.42253999127853303,0.00015106340892789838,0.2206640329783831,0.0002299084248917893,-0.17369142686579464
170,0.3525,80.2161,238.282,-0.100897,138.327,0.120942,0.209542,-0.00738922,0.2005,-0.191854,0.354405,0.000152679,0.000232362,0.285052,-0.007361986832468248,0.4253323291939235,0.0001526906560316288,0.2220136122400438,0.000232388998140598,-0.1745726279089691
171,0.3559,80.6372,239.27,0.267843,138.619,0.122888,0.212818,-0.0074505,0.202158,-0.193444,0.357335,0.000155157,0.000236145,0.287426,-0.00742281382615706,0.4295146770660083,0.0001551690374699266,0.2240413913735151,0.00023617288442534523,-0.17588401460189662
172,0.361,80.5248,239.537,-0.220654,139.155,0.125096,0.216778,-0.00753833,0.204629,-0.195831,0.361729,0.000158907,0.000241881,0.290984,-0.007509988052106453,0.4358097847802602,0.00015891962638603374,0.2270697376325188,0.00024191025556774548,-0.17784883351474579
173,0.3629,80.7707,239.956,-0.115823,139.334,0.126087,0.21845,-0.00757069,0.205556,-0.196722,0.363369,0.000160322,0.000244035,0.292312,-0.007542104509246084,0.43816644476027733,0.00016033485225874777,0.22820775867056065,0.0002440647789629935,-0.17858104395589192
174,0.3658,81.1238,240.793,0.18589,139.561,0.127815,0.221348,-0.00762223,0.206945,-0.198054,0.365822,0.000162473,0.000247314,0.294301,-0.007593254471033761,0.4416985974634231,0.00016248619945269382,0.22991492459961926,0.00024734458462849496,-0.1796744456381607
175,0.37,81.3474,241.318,0.0135563,139.962,0.129862,0.225033,-0.00769511,0.209018,-0.200053,0.369499,0.000165722,0.000252284,0.29728,-0.007665578439130516,0.44700948128245743,0.00016573573264921926,0.23246718273988565,0.00025231582628459925,-0.18131263850204427
176,0.3716,81.3724,241.612,0.0849447,140.128,0.130855,0.226638,-0.00772464,0.209795,-0.200799,0.370874,0.000166953,0.000254155,0.298394,-0.007694881641935325,0.44900048782253,0.00016696693742779267,0.233425181875341,0.0002541873001182804,-0.18192315152405114
177,0.374,81.5233,241.904,0.0106815,140.363,0.132046,0.228724,-0.00776487,0.210957,-0.20192,0.372935,0.000168802,0.000256973,0.300063,-0.007734801273858061,0.45198995741814785,0.0001688162478592492,0.23485925497178695,0.000257006020389694,-0.18283970184875442
178,0.3777,81.8096,242.703,0.215687,140.68,0.134163,0.232287,-0.00782899,0.212698,-0.203593,0.376016,0.000171616,0.000261271,0.30256,-0.007798423278657096,0.4564704371116526,0.00017163072686821046,0.23701101750046005,0.00026130513424038604,-0.18420566807820704
179,0.3804,81.8657,242.949,0.0490836,140.937,0.1356,0.234907,-0.00787651,0.214,-0.204847,0.378324,0.000173739,0.000264514,0.304429,-0.007845571577330457,0.4598358530766038,0.00017375409349407178,0.23862265479345224,0.00026454898691286033,-0.18522803301364865
180,0.3844,81.8406,243.212,-0.246121,141.35,0.137589,0.238446,-0.00794602,0.215946,-0.206725,0.381781,0.000176952,0.000269428,0.307228,-0.007914533834839088,0.4648912388202693,0.00017696765692853944,0.24103536128170044,0.00026946429898355717,-0.1867567388635587
181,0.3859,82.2174,243.955,0.172644,141.434,0.138673,0.240159,-0.0079727,0.216678,-0.207423,0.383069,0.000178171,0.000271281,0.308273,-0.007941002321985247,0.4667792343439805,0.00017818687339543615,0.2419441317355664,0.0002713178000182115,-0.18732418459823197
182,0.3882,82.0637,243.767,-0.269482,141.7,0.139701,0.241997,-0.00801055,0.217767,-0.208479,0.385008,0.000179997,0.000274061,0.309842,-0.007978551044433235,0.46962607840274373,0.0001800132004319277,0.24329734558623417,0.00027409855814686246,-0.18818191729672407
183,0.3917,82.2396,244.324,-0.240762,142.003,0.14167,0.245191,-0.00806921,0.219401,-0.210052,0.387906,0.000182773,0.000278288,0.312189,-0.008036741315891716,0.473891232000478,0.00018278970400253947,0.24533055412791938,0.0002783267256976085,-0.18945790331471246
184,0.3929,82.5341,244.928,0.0967265,142.074,0.142533,0.246704,-0.00809173,0.220016,-0.210639,0.388987,0.000183818,0.000279884,0.313066,-0.008059080076941783,0.47548536989856727,0.00018383489556383914,0.24609666797456886,0.0002799231711811956,-0.18993355190894645
185,0.3949,82.4757,244.888,-0.173058,142.283,0.143326,0.248498,-0.008124,0.220931,-0.211524,0.390615,0.000185384,0.000282279,0.314384,-0.008091089493952985,0.4778894164436793,0.0001854011846755821,0.2472373682165412,0.0002823188444658342,-0.1906501435769229
186,0.3978,82.8231,245.709,0.149953,142.501,0.145278,0.25159,-0.00817463,0.222306,-0.212843,0.393045,0.000187774,0.000285921,0.316354,-0.008141308570785322,0.48148505465674285,0.0001877916306409766,0.24895349916748755,0.00028596187930518546,-0.19171697230932705
187,0.4021,83.0666,246.272,0.0360025,142.868,0.14761,0.255657,-0.00824661,0.224359,-0.214822,0.396687,0.000191384,0.000291445,0.319304,-0.008212699989986416,0.4868904604949862,0.00019140231508618655,0.2515202345536274,0.0002914874742201423,-0.1933149826683339
188,0.4037,83.0674,246.511,0.0684489,143.027,0.148653,0.257406,-0.00827562,0.225129,-0.215562,0.39805,0.000192749,0.000293523,0.320408,-0.008241471322229521,0.4889184739698591,0.0001927675772821491,0.25248427624265224,0.000293566082090857,-0.19391170876527286
189,0.4062,83.2359,246.836,0.0381179,143.243,0.149978,0.25974,-0.00831541,0.22628,-0.216671,0.40009,0.000194803,0.000296656,0.322061,-0.008280932608998093,0.49195896790612936,0.00019482197533648993,0.25392671560921776,0.00029670000674264507,-0.194805165167107
190,0.4098,83.1658,247.016,-0.257211,143.594,0.151945,0.263205,-0.0083772,0.228001,-0.218333,0.403148,0.000197911,0.00030141,0.324537,-0.008342209037017434,0.49652836147191026,0.00019793058567407762,0.25608658151829755,0.00030145542855808394,-0.19614228752613072
191,0.4112,83.5016,247.691,0.138091,143.664,0.152975,0.264872,-0.00840086,0.228648,-0.21895,0.404288,0.000199089,0.000303202,0.325461,-0.008365671382790985,0.49823537661775164,0.00019910881953011383,0.2568995324978227,0.00030324797037240003,-0.1966381147562969
192,0.4133,83.3878,247.548,-0.221517,143.89,0.153975,0.2667,-0.00843452,0.229612,-0.219884,0.406004,0.000200853,0.000305891,0.32685,-0.008399049232539868,0.5008085556802362,0.0002008731723144308,0.25811176785071366,0.0003059377894225612,-0.19738810445740262
193,0.4164,83.8096,248.507,0.207719,144.102,0.156055,0.270274,-0.00848776,0.231062,-0.221273,0.408565,0.000203536,0.000309992,0.328926,-0.00845184066183835,0.5046570522878049,0.00020355671485705606,0.2599373531435767,0.0003100400524851388,-0.1985021584906712
194,0.421,83.9507,248.903,-0.0676675,144.494,0.158551,0.274622,-0.00856269,0.233224,-0.223361,0.412405,0.00020759,0.000316202,0.332036,-0.008526134581961053,0.5104460431174729,0.00020761154829518347,0.26266428445162204,0.0003162519971220412,-0.20017394003643063
195,0.4227,84.0607,249.341,0.129297,144.639,0.15979,0.27665,-0.00859319,0.234036,-0.224139,0.413839,0.000209127,0.000318543,0.333198,-0.0085563740737018,0.5126135764932986,0.00020914886857537063,0.26368998422834866,0.0003185937402088168,-0.20079596271288613
196,0.4253,84.1141,249.448,-0.0861076,144.886,0.161138,0.279081,-0.00863437,0.235247,-0.22531,0.415991,0.000211433,0.000322063,0.334941,-0.008597200881587663,0.5158722259591422,0.00021145535353217504,0.26522123978735546,0.00032211486785604926,-0.20173128290369857
197,0.4292,84.14,249.814,-0.23564,145.23,0.16337,0.283017,-0.00869915,0.23706,-0.227059,0.419211,0.000214929,0.000327417,0.337549,-0.008661421874774144,0.5207612015531999,0.00021495209889232925,0.2675171665237899,0.0003274706067963873,-0.20312623464900215
198,0.4322,84.2857,250.215,-0.2407,145.473,0.165169,0.286074,-0.00874754,0.238418,-0.228366,0.42162,0.000217575,0.000331458,0.339499,-0.008709391587933046,0.5244291315355698,0.00021759867115700438,0.2692396241199291,0.00033151293827260453,-0.20416706832734022
199,0.4366,84.8372,251.392,0.239365,145.781,0.168076,0.290983,-0.00882015,0.240452,-0.230319,0.425218,0.000221599,0.00033762,0.342416,-0.008781366585925876,0.5299239067236341,0.00022162355487220786,0.27182388481756115,0.0003376770000467211,-0.20571981329389588
200,0.441,85.0442,251.934,0.141889,146.12,0.170757,0.295636,-0.00889162,0.242477,-0.232272,0.42881,0.000225664,0.000343847,0.345327,-0.008852206450163269,0.535429275118823,0.00022568946403578316,0.27440193758177145,0.0003439061221557349,-0.20726952870885207
201,0.4454,84.8904,252.015,-0.256423,146.542,0.17316,0.30001,-0.00896311,0.244493,-0.234219,0.432397,0.000229761,0.000350131,0.34823,-0.008923061073195515,0.5409467496032494,0.00022978739708023888,0.2769737233769849,0.0003501923030131415,-0.20881147336623052
202,0.447,85.2859,252.785,0.193337,146.616,0.174515,0.302128,-0.00899046,0.245252,-0.234944,0.433732,0.000231317,0.0003525,0.349313,-0.008950166656804592,0.5430052872821391,0.00023134375584032973,0.27794331434625397,0.0003525621354256714,-0.20938487716404697
203,0.4495,85.3506,253.03,0.129891,146.828,0.176133,0.304809,-0.00903055,0.246383,-0.236035,0.43574,0.000233658,0.00035607,0.350939,-0.008989897048222284,0.5461067547302099,0.0002336853001567718,0.27938948589063073,0.00035613340044715613,-0.2102469679070499
204,0.4532,85.2885,253.118,-0.216668,147.159,0.178254,0.308688,-0.00909046,0.248075,-0.237669,0.438748,0.000237191,0.000361481,0.353374,-0.009049266685054902,0.5507644455034382,0.00023721913200946965,0.28155604529313183,0.00036154634212981485,-0.21153637063257558
205,0.4546,85.5892,253.717,0.125288,147.226,0.179386,0.310504,-0.00911349,0.248712,-0.238277,0.439869,0.00023853,0.00036352,0.354284,-0.009072088017654578,0.5525038271881335,0.00023855845054243652,0.2823726565570581,0.0003635860814021896,-0.21201561081545228
206,0.4567,85.5018,253.615,-0.183334,147.432,0.180525,0.312608,-0.00914643,0.24966,-0.239195,0.441557,0.000240535,0.000366581,0.35565,-0.009104728645481175,0.5551266667021961,0.00024056393086269168,0.2835889222543262,0.0003666481990258763,-0.21273864855962232
207,0.4598,85.8591,254.445,0.165533,147.635,0.182829,0.316514,-0.0091983,0.251085,-0.240562,0.444076,0.000243582,0.000371244,0.357692,-0.009156125050229003,0.559048968841128,0.0002436116685042844,0.2854193403316778,0.0003713129195821452,-0.21381409958878927
208,0.4645,86.0884,254.963,0.036223,147.985,0.185691,0.321564,-0.00927181,0.253212,-0.242614,0.447851,0.00024819,0.000378313,0.360751,-0.009228959306420648,0.5649455014012725,0.0002482208016862941,0.2881563370326776,0.00037838456938787957,-0.21542569898995023
209,0.4663,86.083,255.196,0.0745188,148.138,0.187014,0.323716,-0.00930154,0.254008,-0.243381,0.449264,0.000249934,0.000380971,0.361894,-0.009258414491607025,0.5671583323916747,0.00024996523610454346,0.2891821176834921,0.0003810435786679722,-0.21602723675960045
210,0.4689,86.2462,255.498,0.0389602,148.346,0.188661,0.326601,-0.00934215,0.255201,-0.244531,0.451379,0.000252557,0.000384979,0.363608,-0.009298647690453854,0.5704763798630197,0.0002525888952042976,0.29072102972840197,0.0003850531139257818,-0.21692828723400082
211,0.4729,86.471,256.167,0.183422,148.638,0.191493,0.331363,-0.00940663,0.256986,-0.246249,0.454544,0.000256542,0.000391085,0.366172,-0.00936252605419019,0.5754548118180163,0.000256574909712981,0.2930270242542967,0.0003911614837088795,-0.21827244947056101
212,0.4743,86.4102,256.133,-0.00968532,148.77,0.19241,0.333085,-0.00943056,0.257654,-0.246894,0.45573,0.00025804,0.000393372,0.367132,-0.009386231725302285,0.5773244096772157,0.00025807329518445776,0.29389105486059197,0.0003934493809114592,-0.2187765011665057
213,0.4766,86.6254,256.623,0.152642,148.914,0.194064,0.335847,-0.00946609,0.258656,-0.247857,0.457503,0.000260305,0.000396831,0.36857,-0.009421427607230526,0.580123486503932,0.0002603388822863817,0.29518818345045883,0.0003969097478375705,-0.21952845727090642
214,0.4799,86.6713,256.876,-0.00106225,149.176,0.196305,0.339814,-0.00951968,0.260154,-0.249302,0.460162,0.000263727,0.000402072,0.370723,-0.009474511290535004,0.5843306257673921,0.0002637617790226532,0.29712982927890486,0.00040215284178102273,-0.22065542422043427
215,0.4849,86.7266,257.252,-0.19999,149.585,0.198956,0.345523,-0.00959737,0.262392,-0.251463,0.464142,0.000268878,0.000410045,0.373946,-0.009551462226555008,0.5906488265372449,0.0002689141509293336,0.30003605669228506,0.00041012907994275594,-0.22233776942000427
216,0.4899,86.9518,257.892,-0.190759,149.954,0.20221,0.351102,-0.00967454,0.264624,-0.253615,0.468107,0.000274113,0.000418098,0.377157,-0.009627892191126919,0.5969682691503329,0.00027415057240132157,0.30294097785685814,0.00041818541515104,-0.224009499113899
217,0.495,87.1362,258.465,-0.233415,150.325,0.206025,0.356326,-0.0097513,0.266848,-0.255761,0.472058,0.000279447,0.000426218,0.380357,-0.009703910236512403,0.6032903718714604,0.0002794860489501172,0.3058419432694268,0.00042630884379768474,-0.2256729891655671
218,0.5,87.3469,259.076,-0.238341,150.69,0.208928,0.362255,-0.00982772,0.269064,-0.257899,0.475997,0.000284785,0.000434466,0.383547,-0.009779585772093147,0.6096181870966322,0.0002848255550977896,0.30873889765567664,0.00043456039402234303,-0.22732673183387453
219,0.505,87.5711,259.706,-0.222705,151.048,0.21271,0.367732,-0.00990389,0.271273,-0.26003,0.479922,0.000290236,0.000442777,0.386725,-0.009855007988553321,0.6159483533054928,0.0002902781225428974,0.31163309734725964,0.00044287504020523727,-0.228971545397038
220,0.51,88.1411,260.877,0.25961,151.356,0.216673,0.374015,-0.00998111,0.273479,-0.26215,0.483829,0.000295739,0.000451231,0.389892,-0.009931464032830517,0.6222742130420191,0.00029578273508934494,0.314529753797373,0.00045133282002196573,-0.23060439428941415
221,0.515,87.961,260.898,-0.240237,151.758,0.219419,0.380049,-0.0100575,0.275671,-0.264271,0.487732,0.000301283,0.000459765,0.393052,-0.010007092479627722,0.6286183217701735,0.0003013283902812969,0.31741436339480256,0.0004598707081273634,-0.23223455297471562
222,0.52,88.1704,261.465,-0.259785,152.115,0.222325,0.38627,-0.0101324,0.277858,-0.266381,0.491619,0.000306858,0.000468414,0.396199,-0.010081240171535333,0.634961080352261,0.0003069050857322786,0.32029870148160344,0.00046852372296890543,-0.23385283018508785
223,0.525,88.7486,262.645,0.243241,152.411,0.225957,0.393087,-0.0102087,0.280042,-0.26848,0.495486,0.00031256,0.000477164,0.399334,-0.01015676809148347,0.6412957149721763,0.00031260885196648935,0.323185384956572,0.00047727786085083324,-0.23545928652878612
224,0.5301,88.5938,262.695,-0.218596,152.8,0.23039,0.398332,-0.0102842,0.282213,-0.270579,0.499351,0.000318327,0.000485984,0.402463,-0.010231498434386532,0.6476515977418642,0.0003183776714159592,0.326061140930912,0.0004861021093565121,-0.23706237445700762
225,0.5351,88.8104,263.267,-0.220372,153.146,0.233976,0.404447,-0.0103585,0.284378,-0.272668,0.5032,0.000324146,0.000494913,0.405579,-0.010305035502117033,0.6540056292306988,0.0003241985409914161,0.328935173318484,0.0004950354896451348,-0.23865448761558483
226,0.5401,89.325,264.343,0.206052,153.441,0.237903,0.411279,-0.0104339,0.28654,-0.274747,0.50703,0.000330035,0.000503979,0.408684,-0.010379655689223721,0.6603526175146066,0.0003300894675424271,0.3318114392863458,0.0005041060187536139,-0.24023568071607937
227,0.5451,89.1617,264.37,-0.262147,153.822,0.241171,0.417507,-0.0105084,0.288689,-0.276826,0.510858,0.000335977,0.000513125,0.411782,-0.010453379658622919,0.6667206279302087,0.0003360334465936088,0.3346765795599467,0.0005132566711532061,-0.24181358993089985
228,0.5501,89.7588,265.542,0.259821,154.105,0.24559,0.424329,-0.0105832,0.290837,-0.278891,0.514663,0.000342019,0.000522399,0.414867,-0.01052739497761701,0.6730745806484744,0.00034207749516679264,0.3375465460934195,0.0005225354741211774,-0.24337762944111363
229,0.5551,89.9651,266.062,0.177354,154.415,0.24907,0.431337,-0.0106572,0.292976,-0.280955,0.51846,0.000348106,0.00053179,0.417943,-0.010600613241279477,0.679439320643263,0.00034816659592462607,0.3404106201907555,0.0005319314253704466,-0.24493768748021771
230,0.5601,90.109,266.598,0.207429,154.769,0.253242,0.438114,-0.0107323,0.295108,-0.283009,0.522246,0.000354289,0.000541284,0.42101,-0.01067491434518375,0.6858097294858141,0.00035435176776021926,0.34327142416640966,0.0005414305206195014,-0.246486993787856
231,0.5652,89.9576,266.603,-0.25831,155.143,0.256707,0.444505,-0.0108053,0.297229,-0.285062,0.526025,0.00036051,0.00055087,0.424068,-0.010747132440444007,0.692192457021328,0.0003605749915398526,0.34612352644231503,0.000551021756743264,-0.24803236911904358
232,0.5702,90.5024,267.717,0.224228,155.416,0.261159,0.451715,-0.0108791,0.299349,-0.287101,0.529782,0.000366835,0.00056059,0.427113,-0.010820136608182929,0.6985619817423678,0.00036690229218683257,0.34898033546596774,0.0005607471599400338,-0.24956406901968842
233,0.5752,90.377,267.783,-0.186029,155.776,0.26488,0.458346,-0.0109521,0.301458,-0.28914,0.533535,0.000373212,0.000570402,0.430152,-0.010892344102604978,0.7049486619689231,0.0003732816522632465,0.3518283371556161,0.0005705647101561517,-0.25109264896610994
234,0.5802,90.5261,268.232,-0.2589,156.104,0.268688,0.465098,-0.0110238,0.303561,-0.29117,0.537275,0.00037965,0.00058032,0.43318,-0.01096326057914676,0.7113371089138891,0.00037972207618230946,0.3546742235493441,0.000580488418228553,-0.2526113888461826
235,0.5852,90.7444,268.819,-0.214291,156.414,0.272641,0.472057,-0.0110956,0.305657,-0.293192,0.541001,0.000386162,0.000590352,0.436198,-0.011034270867737228,0.7177254450611332,0.00038623657014347224,0.3575165984902444,0.0005905262920380405,-0.2541210818039923
236,0.5902,91.2636,269.891,0.246843,156.678,0.27722,0.479644,-0.0111685,0.307751,-0.295205,0.544711,0.000392772,0.000600522,0.439205,-0.011106363841570155,0.7241100425674993,0.0003928491450218008,0.3603622165698148,0.0006007023494356556,-0.2556210258661201
237,0.5953,91.4708,270.392,0.180131,156.967,0.281574,0.486923,-0.0112403,0.309836,-0.297217,0.548412,0.000399454,0.000610804,0.442204,-0.011177363855715328,0.7305027963288697,0.00039953379237323006,0.3632015307477987,0.0006109905787490266,-0.2571172106954084
238,0.6003,91.2901,270.393,-0.217964,157.345,0.285356,0.493903,-0.0113121,0.31191,-0.299223,0.552109,0.000406186,0.000621186,0.445195,-0.011248358772242506,0.7369123058449101,0.0004062685047037107,0.36603174463986776,0.0006213789759792476,-0.2586059398761601
239,0.6021,91.6356,271.071,0.178485,157.408,0.287425,0.49712,-0.0113397,0.31269,-0.29997,0.553485,0.000408741,0.000625093,0.446312,-0.011275647940948152,0.7393039422462413,0.0004088245459850093,0.3670976650556068,0.000625288411344016,-0.2591595544382902
240,0.605,91.4791,270.851,-0.240565,157.635,0.289477,0.500835,-0.0113785,0.313852,-0.301097,0.555557,0.000412569,0.000630966,0.447988,-0.011314009701585026,0.7429115161704962,0.00041265411829516374,0.3686871558577074,0.0006311651009196506,-0.25999401131566546
241,0.6092,91.6242,271.318,-0.211336,157.888,0.293258,0.507117,-0.0114389,0.315595,-0.302778,0.558654,0.000418383,0.000639896,0.450496,-0.011373724531993035,0.7483176802601088,0.00041847053437460424,0.37107485784815575,0.0006401007771217326,-0.26123691642821734
242,0.6108,91.8818,271.847,0.0904071,157.944,0.294914,0.509927,-0.0114621,0.31625,-0.303405,0.559809,0.000420576,0.000643258,0.451433,-0.011396660395526892,0.7503381537796532,0.0004206644544859639,0.37197320605696693,0.0006434649347957233,-0.2616999756973658
243,0.6132,91.8323,271.805,-0.141963,158.119,0.296666,0.513425,-0.0114952,0.317226,-0.304349,0.561547,0.000423865,0.000648314,0.45284,-0.011429382624511875,0.7533828865973198,0.0004239548434625817,0.37331290557309527,0.0006485242009441894,-0.2623966020609315
244,0.6167,91.8716,272.042,-0.247626,158.344,0.299835,0.518799,-0.011546,0.318689,-0.305761,0.564148,0.00042885,0.000655977,0.454945,-0.011479600736323703,0.7579493716247054,0.0004289419693077612,0.3753235327691189,0.0006561921999650444,-0.2634373631086042
245,0.6221,92.0535,272.605,-0.229196,158.658,0.305399,0.52607,-0.0116205,0.320876,-0.307873,0.568038,0.000436479,0.000667581,0.458095,-0.011553242762869287,0.764801112676571,0.00043657427081944533,0.37833465679923584,0.0006678038817902188,-0.26499134181856865
246,0.6274,92.3034,273.244,-0.141818,158.964,0.308609,0.535122,-0.0116948,0.323058,-0.309977,0.571914,0.000444043,0.00067942,0.461235,-0.011626681628644442,0.7716547555688282,0.0004441416016869315,0.3813454666193157,0.0006796508580484417,-0.2665361743017194
247,0.6328,92.4433,273.704,-0.202331,159.283,0.314077,0.542609,-0.0117687,0.32523,-0.312075,0.575779,0.000451814,0.000691309,0.464365,-0.01169971971808137,0.7785154509523817,0.0004519160833189595,0.3843490096397444,0.0006915480091400639,-0.26807336832765793
248,0.6382,92.6055,274.198,-0.230406,159.596,0.319156,0.550472,-0.0118421,0.327396,-0.314166,0.579632,0.000459664,0.000703339,0.467484,-0.011772258296455673,0.7853812895289582,0.00045976966168548294,0.3873507593159504,0.0007035864008733128,-0.26960222793471533
249,0.6435,92.8616,274.842,-0.127899,159.893,0.322983,0.559543,-0.0119157,0.329556,-0.316249,0.58347,0.000467514,0.000715571,0.470593,-0.011844989181715615,0.792246749307997,0.00046762330170269095,0.3903506756993995,0.0007158270820060153,-0.2711220630361363
250,0.6489,93.3079,275.791,0.237735,160.16,0.328435,0.568461,-0.0119901,0.331711,-0.318324,0.587292,0.000475535,0.000727933,0.47369,-0.011918505179691508,0.7991098233639069,0.00047564808469258146,0.3933501121375058,0.0007281980075248828,-0.27263291670255996
251,0.6542,93.1139,275.736,-0.250945,160.512,0.333319,0.576446,-0.0120634,0.333854,-0.320398,0.591111,0.000483625,0.000740406,0.476781,-0.011990928898900077,0.8059937602901819,0.00048374196542533276,0.396339263159176,0.0007406801681835162,-0.27413991273823757
252,0.6596,93.6325,276.769,0.196688,160.768,0.338842,0.585582,-0.0121369,0.335995,-0.322458,0.594908,0.000491826,0.000753059,0.479859,-0.01206354489695538,0.812864153785732,0.0004919469662376663,0.39933202813329816,0.0007533426201185023,-0.2756336454450752
253,0.6649,93.4899,276.788,-0.222191,161.108,0.343466,0.594095,-0.0122097,0.338125,-0.324519,0.598702,0.000500097,0.000765833,0.482929,-0.012135464052997924,0.8197552244802147,0.0005002220693528514,0.4023157819229253,0.0007661263249665318,-0.2771250271050978
254,0.6703,93.6666,277.267,-0.23936,161.409,0.348526,0.602708,-0.0122813,0.340249,-0.32657,0.60248,0.000508466,0.000778743,0.485989,-0.012206192621658674,0.826643263030213,0.00050859529074887,0.4052974660713371,0.0007790462990555636,-0.2786061242901433
255,0.6756,94.193,278.342,0.249989,161.651,0.354566,0.612115,-0.0123546,0.34237,-0.32861,0.60624,0.000516957,0.00079184,0.489036,-0.012278595254150648,0.8335243700735884,0.0005170906452984791,0.4082812651972607,0.0007921535880579533,-0.2800762677404264
256,0.681,94.3828,278.802,0.172932,161.922,0.359253,0.621822,-0.0124266,0.344482,-0.330648,0.609992,0.000525511,0.0008051,0.492076,-0.012349708635179923,0.8404166753893407,0.0005256491050964485,0.41125869829195794,0.0008054241799981821,-0.2815419782404597
257,0.6863,94.1978,278.782,-0.216407,162.282,0.364433,0.630453,-0.0124986,0.346583,-0.332682,0.613739,0.000534176,0.000818467,0.495108,-0.012420816896230091,0.8473256525572423,0.0005343186974069436,0.41422686978938517,0.000818802035513988,-0.2830018366773831
258,0.6884,94.5348,279.444,0.175452,162.338,0.367065,0.634449,-0.0125263,0.347374,-0.333439,0.615134,0.000537458,0.000823497,0.49624,-0.012448172460725715,0.8499044701496266,0.0005376024564294202,0.41534596578750627,0.0008238361667489702,-0.283544398901307
259,0.6914,94.3814,279.223,-0.231182,162.553,0.369625,0.639247,-0.0125652,0.348551,-0.334581,0.617234,0.000542375,0.000831067,0.497939,-0.012486587479640043,0.8537933514331246,0.0005425221119157442,0.4170128087338849,0.0008314124318649085,-0.28436212418775253
260,0.6959,94.5202,279.67,-0.197702,162.791,0.374422,0.647212,-0.0126258,0.350316,-0.336284,0.620372,0.000549845,0.000842577,0.50048,-0.012546428979222979,0.8596196917168089,0.0005499961924715357,0.419516044797281,0.0008429320677174612,-0.2855798183294018
261,0.7027,94.6728,280.226,-0.24844,163.152,0.381746,0.657869,-0.0127136,0.352953,-0.338832,0.625067,0.000561236,0.000860063,0.504282,-0.012633123596809237,0.8683711341047422,0.0005613935223915956,0.42326424844190513,0.0008604329602375227,-0.2873978438042458
262,0.7077,95.154,281.194,0.189363,163.373,0.38759,0.667556,-0.0127817,0.354928,-0.340732,0.628569,0.000569833,0.000873375,0.50712,-0.012700360991632964,0.8749256400575944,0.0005699953856668216,0.4260779729709434,0.0008737565030023653,-0.2887505024683621
263,0.7128,95.3395,281.638,0.145517,163.619,0.391162,0.678283,-0.0128489,0.356895,-0.342631,0.632063,0.000578469,0.000886862,0.509951,-0.012766705298180692,0.881488088164583,0.0005786363454585164,0.42888582896482697,0.0008872553783856318,-0.2900998836212584
264,0.7179,95.4754,282.108,0.2012,163.9,0.397816,0.687359,-0.0129173,0.358857,-0.344522,0.635549,0.000587309,0.000900441,0.512774,-0.012834229746175874,0.8880584010416268,0.0005874814996993383,0.43169205496876484,0.0009008465187032577,-0.2914410362818398
265,0.7198,95.3994,282.047,0.00465373,164.017,0.399767,0.690965,-0.0129428,0.35959,-0.345232,0.636854,0.000590623,0.000905537,0.513831,-0.012859402152367805,0.8905239256598954,0.0005907974521075499,0.4327418699552452,0.0009059471224135418,-0.2919439345960523
266,0.7227,95.6,282.493,0.158766,164.14,0.403168,0.696615,-0.0129805,0.360691,-0.346292,0.638806,0.000595631,0.000913246,0.515412,-0.012896616651408954,0.8942178324428947,0.0005958084233685934,0.43432018745841483,0.0009136631361013059,-0.29269407637999667
267,0.727,95.6545,282.745,0.045066,164.364,0.40785,0.704998,-0.0130376,0.362336,-0.34788,0.64173,0.000603202,0.000924944,0.517781,-0.012952978645447866,0.8997646308522425,0.0006033839629113746,0.436681585884489,0.0009253718926169885,-0.2938163868363546
268,0.7334,95.6297,282.959,-0.219686,164.735,0.415198,0.71578,-0.0131198,0.364793,-0.350257,0.646109,0.000614743,0.000942681,0.521326,-0.013034110576035207,0.9081019413893969,0.0006149319932033936,0.4402158526096931,0.0009431254633853747,-0.2954929918503659
269,0.7398,95.811,283.499,-0.230887,165.059,0.420493,0.728423,-0.0132015,0.367243,-0.352623,0.650469,0.000626279,0.000960738,0.524856,-0.01311474239534649,0.9164394283677806,0.0006264751536397828,0.44374870742857686,0.0009611996565841441,-0.2971578850862834
270,0.7463,96.0176,284.077,-0.205031,165.377,0.426683,0.740798,-0.013283,0.369683,-0.35498,0.654812,0.000637984,0.000979009,0.528373,-0.013195170266360967,0.9247806246020824,0.0006381875550780514,0.4472757555234923,0.0009794883857392467,-0.2988125331823278
271,0.7527,96.5169,285.111,0.213013,165.653,0.436793,0.75204,-0.0133655,0.372118,-0.357326,0.659135,0.000650027,0.000997455,0.531876,-0.01327657830668616,0.9331194626541117,0.0006502383133344392,0.45080416608465557,0.0009979526236771896,-0.30045559091917984
272,0.7591,96.7172,285.674,0.23372,165.966,0.443155,0.765564,-0.0134481,0.374542,-0.359666,0.663445,0.000662118,0.00101622,0.535367,-0.013358078295322207,0.9414691882714155,0.0006623372485097256,0.4543251811294211,0.0010167365264974748,-0.3020906111167382
273,0.7656,96.8853,286.187,0.214818,166.281,0.451994,0.777598,-0.0135303,0.376957,-0.361997,0.667739,0.000674421,0.0010352,0.538846,-0.013439176928086827,0.9498237814402544,0.0006746484729771574,0.45784162083373614,0.001035736004461274,-0.3037155433079922
274,0.772,97.0649,286.716,0.213067,166.591,0.458779,0.791276,-0.0136122,0.379363,-0.36432,0.672018,0.000686847,0.00105446,0.542312,-0.013519972950854164,0.9581849533707423,0.0006870829334142403,0.4613534107626487,0.0010550161384037526,-0.3053311348647727
275,0.7784,97.2369,287.231,0.203026,166.899,0.46692,0.804267,-0.0136939,0.38176,-0.366635,0.676281,0.000699459,0.00107396,0.545765,-0.013600565076830828,0.9665505143511326,0.000699703678490593,0.46486047642726036,0.0010745369015454642,-0.3069374332797692
276,0.7849,97.4095,287.745,0.195992,167.205,0.474247,0.818054,-0.0137752,0.384149,-0.368941,0.680529,0.000712216,0.00109374,0.549206,-0.013680756091081214,0.9749221897854641,0.0007124696860381086,0.46836421165075803,0.0010943383517210137,-0.3085337942470253
277,0.7913,97.5804,288.255,0.188744,167.508,0.482224,0.831649,-0.0138563,0.386529,-0.371239,0.684762,0.000725146,0.00111377,0.552635,-0.013760743338235515,0.9832997540202311,0.0007254089819235254,0.47186308047680714,0.0011143904721395703,-0.3101209592368135
278,0.7977,97.4395,288.27,-0.237677,167.852,0.489339,0.84473,-0.0139356,0.388897,-0.373532,0.688985,0.000738223,0.00113401,0.556053,-0.013838949010392954,0.991692938617257,0.000738495553663121,0.4753525821908129,0.0011346532324609804,-0.3117010396228024
279,0.8042,97.9258,289.278,0.18585,168.106,0.496619,0.859879,-0.014016,0.391263,-0.37581,0.693184,0.000751425,0.00115461,0.559456,-0.013918233171626437,1.0000736402357973,0.0007517073904925731,0.4788473991384061,0.0011552768187399476,-0.31326720012046383
280,0.8106,97.7859,289.293,-0.234333,168.445,0.504806,0.872755,-0.0140948,0.393614,-0.378087,0.697376,0.000764811,0.0011754,0.562849,-0.013995933353425194,1.0084755470285098,0.0007651035425080277,0.48232825952187697,0.0011760910533080704,-0.314829111794508
281,0.817,97.968,289.813,-0.220701,168.736,0.513337,0.886282,-0.0141733,0.39596,-0.380352,0.70155,0.000778403,0.00119643,0.566229,-0.014073331634734676,1.0168764444378073,0.0007787060342376861,0.48580988396736724,0.0011971460078950003,-0.31637926764207547
282,0.8235,98.4541,290.82,0.211234,168.981,0.522267,0.901232,-0.014253,0.3983,-0.382606,0.705703,0.000792158,0.0012178,0.569596,-0.014151906858939078,1.0252699493606823,0.000792471840013409,0.4892907501209314,0.001218541819518748,-0.31791841350378613
283,0.8299,98.317,290.832,-0.201377,169.312,0.529724,0.915465,-0.0143313,0.400627,-0.384859,0.709851,0.000806056,0.0012394,0.572954,-0.014229095742647857,1.0336882165264107,0.0008063809504410546,0.4927603650277639,0.0012401683735878688,-0.31945341349137
284,0.8363,98.4926,291.337,-0.190555,169.597,0.538121,0.929949,-0.0144092,0.402948,-0.3871,0.713981,0.000820138,0.00126128,0.576298,-0.01430588430513613,1.042104716970802,0.0008204744051294455,0.4962290857281879,0.0012620757481378586,-0.3209768107875136
285,0.8428,98.9305,292.266,0.18363,169.842,0.547353,0.945459,-0.0144882,0.405264,-0.389331,0.718092,0.000834428,0.00128348,0.579629,-0.014383751064498518,1.0505170892458344,0.0008347762318949847,0.4996983681690734,0.0012843040129522088,-0.3224900229068772
286,0.8492,98.806,292.292,-0.207806,170.164,0.555525,0.960048,-0.0145657,0.407566,-0.39156,0.722196,0.000848861,0.00130593,0.582952,-0.014460133363938699,1.0589497032683295,0.0008492213844635277,0.5031546504672286,0.0013067830979041073,-0.3239985108114788
287,0.8556,99.2797,293.276,0.218277,170.398,0.565246,0.975985,-0.0146444,0.409866,-0.393775,0.726277,0.000863526,0.00132871,0.58626,-0.014537692299458782,1.0673694458064267,0.0008638989459182067,0.5066158850572542,0.0013295931262282679,-0.3254941970260343
288,0.8621,99.4491,293.762,0.222312,170.674,0.574623,0.991814,-0.0147229,0.412157,-0.395985,0.730348,0.000878377,0.0013518,0.589558,-0.014615048054360202,1.075802861390451,0.0008787628860533747,0.5100714989441768,0.001352714093464158,-0.3269832088864608
289,0.8685,99.5854,294.209,0.199569,170.952,0.583777,1.00805,-0.0148013,0.414439,-0.398188,0.734405,0.000893417,0.00137519,0.592845,-0.01469229920630799,1.0842414998026633,0.0008938162158478313,0.5135214169641007,0.0013761360073649698,-0.3284642329303231
290,0.8749,99.746,294.687,0.204079,171.224,0.593206,1.02446,-0.0148794,0.416713,-0.400383,0.738448,0.000908652,0.0013989,0.59612,-0.014769248732821816,1.0926851455146291,0.0009090649492948799,0.516967080901358,0.0013998789170208692,-0.3299366373839797
291,0.8814,99.8926,295.141,0.191167,171.496,0.602873,1.04098,-0.0149573,0.41898,-0.40257,0.742477,0.000924089,0.00142291,0.599385,-0.014845995219031183,1.1011335819125239,0.0009245161017898962,0.5204099462871863,0.0014239228167594042,-0.3314004646794201
292,0.8878,100.047,295.607,0.190949,171.765,0.612631,1.05778,-0.0150349,0.421239,-0.40475,0.746492,0.000939728,0.00144725,0.602638,-0.014922440203698373,1.1095865913048928,0.0009401696827000539,0.5238484346662329,0.0014482977716827605,-0.3328564240940486
293,0.8942,100.194,296.061,0.18267,172.032,0.622533,1.07478,-0.0151124,0.42349,-0.406923,0.750494,0.000955571,0.00147191,0.60588,-0.014998780756347974,1.1180460729755302,0.0009560277034272868,0.5272824810618586,0.0014729937912065783,-0.33430455312247265
294,0.9007,100.344,296.518,0.179961,172.297,0.632561,1.09204,-0.0151896,0.425734,-0.409088,0.754482,0.00097162,0.00149689,0.609111,-0.015074819915324222,1.1265097059815368,0.0009720921756248835,0.5307135511702501,0.001498010899053881,-0.3357442247580783
295,0.9071,100.49,296.968,0.173866,172.56,0.642733,1.10953,-0.0152667,0.42797,-0.411246,0.758456,0.00098788,0.00152221,0.612331,-0.01515075471938443,1.1349772694579476,0.0009883681141666933,0.5341400560755274,0.001523369149723841,-0.33717614312543265
296,0.9135,100.637,297.418,0.170136,172.821,0.653042,1.12726,-0.0153436,0.430199,-0.413397,0.762417,0.00100435,0.00154785,0.61554,-0.015226486714414067,1.143450684942989,0.0010048545283547483,0.5375634682359542,0.0015490485381173258,-0.3386003449633683
297,0.92,100.781,297.864,0.165116,173.08,0.663496,1.14524,-0.0154203,0.43242,-0.415541,0.766364,0.00102104,0.00157384,0.618739,-0.015302015946299985,1.1519276029892023,0.0010215614387956151,0.540982191786074,0.0015750791361548444,-0.3400168667697757
298,0.9264,100.924,298.308,0.161082,173.337,0.674095,1.16348,-0.0154968,0.434634,-0.417677,0.770299,0.00103794,0.00160017,0.621927,-0.015377342460804133,1.160412120447051,0.0010384788461357264,0.5443977059376748,0.0016014509551720568,-0.3414250862285573
299,0.9328,100.787,298.292,-0.23119,173.633,0.683725,1.18113,-0.0155716,0.436838,-0.419809,0.774224,0.00105501,0.00162681,0.625106,-0.015450989481155197,1.1689084010629744,0.0010555667188141271,0.547805312284352,0.0016281339732415745,-0.34282767225673294
300,0.9393,100.952,298.768,-0.20401,173.883,0.694531,1.19916,-0.0156464,0.439036,-0.421931,0.778133,0.00107233,0.00165376,0.628272,-0.015524630992915123,1.1774032563804688,0.0010729051513800325,0.5512111299832207,0.0016551282151979763,-0.34422071339682936
301,0.9457,101.386,299.69,0.204047,174.09,0.706348,1.21852,-0.0157227,0.441231,-0.424043,0.782024,0.0010899,0.00168113,0.631427,-0.015599743597987992,1.1858920366631613,0.0010904941568425919,0.5546197780361928,0.0016825438912391188,-0.34560425771305736
302,0.9521,101.497,300.071,0.15514,174.343,0.717416,1.23782,-0.0157985,0.443415,-0.426151,0.785906,0.00110769,0.00170885,0.634573,-0.015674358309490044,1.1943941614965938,0.0011083037151491393,0.5580187779883101,0.0017103109162048824,-0.3469822710015066
303,0.9585,101.364,300.063,-0.220254,174.631,0.727587,1.25663,-0.0158729,0.44559,-0.428255,0.78978,0.00112565,0.0017369,0.63771,-0.015747589413000918,1.2029117323604437,0.0011262837817445082,0.5614111567049498,0.0017384092845038612,-0.3483547759218243
304,0.9634,101.741,300.857,0.17589,174.771,0.737207,1.27233,-0.0159308,0.447222,-0.429823,0.792669,0.00113932,0.00175815,0.640052,-0.015804575977796942,1.2092851463188166,0.001139969271583885,0.5639614601942946,0.00175969645187668,-0.3493757549764165
305,0.9706,101.636,300.943,-0.165633,175.08,0.749507,1.29373,-0.0160142,0.449655,-0.432176,0.797,0.00116004,0.0017905,0.643561,-0.015886654453440396,1.218874310633741,0.0011607131066524445,0.5677712111096211,0.0017921039022443797,-0.3509048741107842
306,0.9731,101.942,301.503,0.157398,175.132,0.754768,1.30219,-0.0160438,0.450497,-0.432983,0.798487,0.00116726,0.00180169,0.644767,-0.015915783777352477,1.2221762311030968,0.0011679415130956272,0.5690918303720622,0.0018033140186075602,-0.3514284825729457
307,0.9769,101.817,301.347,-0.174238,175.318,0.760769,1.31343,-0.0160859,0.451751,-0.434199,0.800723,0.00117813,0.00181858,0.646578,-0.015957212850767344,1.2271505764013693,0.0011788242677674976,0.5710607057542061,0.001820234619475558,-0.3522166662253553
308,0.9825,101.909,301.705,-0.181572,175.531,0.771271,1.33121,-0.0161513,0.453632,-0.436013,0.804064,0.00119464,0.0018443,0.649285,-0.016021567144638538,1.2346039303718994,0.001195353866607629,0.5740186520180501,0.001846001767273897,-0.35339068004035856
309,0.9846,102.13,302.17,0.0850442,175.574,0.77587,1.33861,-0.0161767,0.454338,-0.43669,0.805311,0.00120088,0.00185397,0.650297,-0.01604655987942405,1.2373922196100953,0.0012016013451079388,0.5751303015524867,0.001855689664951976,-0.3538282864035034
310,0.9878,102.083,302.131,-0.117393,175.718,0.78135,1.34859,-0.0162126,0.455392,-0.43771,0.807186,0.00121026,0.00186854,0.651816,-0.016081883173867384,1.2415912653971004,0.0012109926601737708,0.5767913641165192,0.0018702868086903912,-0.3544870455271043
311,0.9925,102.313,302.715,0.113775,175.868,0.791126,1.36492,-0.0162693,0.456973,-0.43923,0.809987,0.0012245,0.00189071,0.654087,-0.016137669749527128,1.247878764062592,0.0012252500062213123,0.5792862429452263,0.0018924985191648425,-0.35546747989901417
312,0.9996,102.536,303.273,0.193254,176.121,0.805012,1.38832,-0.0163515,0.459335,-0.441507,0.81418,0.00124615,0.00192453,0.657486,-0.016218539909264584,1.2573239076256724,0.001246926767534129,0.5830209259753918,0.0019263830964497686,-0.3569334108515235
313,1.0,102.387,303.053,-0.01198,176.157,0.805367,1.38953,-0.0163561,0.459458,-0.441629,0.814403,0.00124728,0.0019263,0.657666,-0.016223065293572536,1.257827346988475,0.0012480581772005284,0.5832156495245395,0.0019281565077171603,-0.3570118601898927
