,Time,S11,S22,S33,S12,S13,S23,LE11,LE22,LE33,LE12,LE13,LE23,SDV_EPBAR,E11,E12,E13,E22,E23,E33
0,1e-05,0.0611554,0.851785,-5.55112e-17,0.228235,-3.59108e-18,9.62227e-19,-2.12914e-06,9.12912e-06,-3e-06,6.49996e-06,-2.04542e-22,5.48067e-23,0.0,-2.1291377333421124e-06,6.499981124896692e-06,0.0,9.129161670617947e-06,0.0,-2.9999955000192813e-06
1,2e-05,0.12231,1.70356,1.11022e-16,0.456468,7.18216e-18,-1.92445e-18,-4.25827e-06,1.82581e-05,-5.99996e-06,1.29999e-05,-1.42871e-38,1.69186e-38,0.0,-4.258260933531766e-06,1.2999984499106887e-05,0.0,1.8258266680115653e-05,0.0,-5.9999420002343484e-06
2,3.5e-05,0.214041,2.98121,-2.22045e-16,0.798812,3.06531e-17,-5.15796e-19,-7.45192e-06,3.19515e-05,-1.04998e-05,2.27496e-05,8.18175e-22,-2.19239e-22,0.0,-7.451892234500157e-06,2.2749858774151477e-05,0.0,3.19520104545834e-05,0.0,-1.0499744877323636e-05
3,5.75e-05,0.351635,4.89764,-1.88738e-15,1.31232,7.18212e-18,-1.92459e-18,-1.22423e-05,5.24912e-05,-1.72495e-05,3.73739e-05,-1.38034e-34,-5.1476e-34,0.0,-1.2242225063352485e-05,3.737459841279822e-05,0.0,5.249257768724647e-05,0.0,-1.7249351228265652e-05
4,9.125e-05,0.55802,7.77222,-1.25455e-14,2.08256,1.10309e-17,1.24391e-17,-1.94277e-05,8.32998e-05,-2.73738e-05,5.93098e-05,-4.90916e-21,1.31535e-21,0.0,-1.9427511283476306e-05,5.931155886096384e-05,0.0,8.330326952465938e-05,0.0,-2.737342534098186e-05
5,0.00014188,0.867585,12.0839,-6.87228e-14,3.23787,3.20619e-17,-2.39864e-17,-3.02053e-05,0.000129511,-4.25596e-05,9.22122e-05,-6.54562e-21,1.75397e-21,0.0,-3.0204843824543914e-05,9.221645167567516e-05,0.0,0.0001295193869115252,0.0,-4.255869435310089e-05
6,0.00021781,1.3319,18.551,-3.50719e-13,4.97073,4.74564e-17,3.34666e-17,-4.63708e-05,0.000198823,-6.53367e-05,0.000141563,-1.87605e-20,8.53436e-21,0.0,-4.636972489102664e-05,0.00014157302051431842,0.0,0.0001988427666026471,0.0,-6.533456560431361e-05
7,0.00033172,2.02831,28.2507,-1.77358e-12,7.56976,1.27466e-18,-1.38886e-16,-7.06166e-05,0.000302781,-9.94992e-05,0.000215581,-1.87606e-20,8.53659e-21,0.0,-7.061410670661239e-05,0.00021560423925381933,0.0,0.00030282684279359096,0.0,-9.949425011879232e-05
8,0.00050258,3.07278,42.7983,-8.98648e-12,11.4678,8.54125e-17,-2.84538e-16,-0.00010698,0.000458697,-0.000150736,0.000326594,1.21718e-24,4.54256e-24,0.0,-0.00010697427784389646,0.00032664733762688414,0.0,0.00045880221755600914,0.0,-0.00015072463989995732
9,0.00075887,4.63914,64.6149,-4.5448e-11,17.3135,-2.28528e-16,-7.72063e-17,-0.000161514,0.00069252,-0.000227574,0.000493077,1.30947e-20,-3.50482e-21,0.0,-0.00016150095731615188,0.0004931985824463414,0.0,0.0006927598473382979,0.0,-0.0002275481070015406
10,0.0011433,6.98794,97.3295,-2.29857e-10,26.0793,-3.51615e-16,-5.36571e-16,-0.000243289,0.00104314,-0.000342794,0.000742721,-7.01103e-21,-2.61655e-20,0.0,-0.00024325940763114673,0.0007429968855396929,0.0,0.0010436842597596474,0.0,-0.00034273525284966855
11,0.00172,8.37426,114.118,-0.0466338,30.9344,-6.18151,-0.552012,-0.000412109,0.00157425,-0.000625656,0.00110914,0.000357619,-1.94889e-05,0.00036398,-0.00041202409474982993,0.0011097553232419788,0.0003576829532980774,0.0015754897820214886,-1.9488710092607775e-05,-0.0006254603180968488
12,0.0022966,8.50352,114.979,0.0683161,31.2533,-11.0237,-1.03161,-0.000610529,0.00211045,-0.000958606,0.00146319,0.00096981,-4.37035e-05,0.000912377,-0.0006103426650929666,0.0014642609847757004,0.0009702804177778024,0.002112678567085302,-4.370254501595561e-05,-0.0009581466840478114
13,0.0027291,8.57968,115.372,0.0667439,31.4408,-14.3687,-1.33443,-0.000760593,0.00251199,-0.00120804,0.00173049,0.00141312,-6.27097e-05,0.00132774,-0.0007603038224642811,0.001731988161880027,0.0014141189245451269,0.002515147690355324,-6.27077337879145e-05,-0.0012073106134181666
14,0.0031616,8.6054,115.513,-0.0647585,31.5803,-17.6042,-1.59382,-0.000911734,0.00291287,-0.00145763,0.00199982,0.00183548,-8.26639e-05,0.00174761,-0.0009113184968423393,0.0020018209736563097,0.0018371655245061902,0.002917116528012187,-8.26604834339717e-05,-0.0014565681733710312
15,0.0035941,8.66822,115.581,-0.0623056,31.7088,-20.7582,-1.82555,-0.00106415,0.00331284,-0.00170459,0.00227219,0.00223437,-0.000103857,0.00217164,-0.0010635839931786295,0.0022747733799708403,0.0022368680648356953,0.0033183335191409036,-0.00010385160704851071,-0.0017031380115980488
16,0.0040266,8.771,115.601,0.0710634,31.8233,-23.8051,-2.0298,-0.00121787,0.00371182,-0.00194875,0.0025478,0.00260997,-0.000126155,0.00260016,-0.0012171286972988415,0.002551048400592615,0.00261337893679614,0.0037187173351047598,-0.00012614704279256816,-0.0019468524195555004
17,0.004459,8.75962,115.401,-0.096774,31.8849,-26.5332,-2.18001,-0.00137215,0.00411015,-0.00219446,0.0028253,0.00297111,-0.000148404,0.00303364,-0.0013712090326207793,0.002829294921442793,0.002975528121807791,0.004118608250767597,-0.00014839298867108663,-0.002192053932981941
18,0.0048915,8.8611,115.294,0.0618658,31.9559,-29.2377,-2.32222,-0.00152758,0.00450738,-0.0024356,0.00310644,0.00330708,-0.000171902,0.00347162,-0.0015264138435464591,0.0031112699847943848,0.0033125544221837,0.004517553516791173,-0.000171887225697831,-0.002432636332910798
19,0.005324,8.84757,115.025,-0.073581,31.9887,-31.6346,-2.41676,-0.00168337,0.00490392,-0.00267821,0.00338954,0.0036292,-0.000195081,0.0039145,-0.0016819539274243178,0.0033952909866030723,0.0036357935203084057,0.004915963895067765,-0.00019506197293905903,-0.002674626795170054
20,0.0057565,8.87431,114.795,-0.0877041,32.0196,-33.9191,-2.49537,-0.00183977,0.00529956,-0.00291843,0.00367539,0.00393161,-0.0002188,0.00436191,-0.0018380786605577404,0.0036821525282642042,0.003939348917407326,0.005313627507651741,-0.00021877606502573865,-0.002914175522971685
21,0.0064052,8.97111,114.581,0.0785654,32.0618,-37.0736,-2.59138,-0.00207528,0.00589114,-0.00327476,0.00411007,0.00434386,-0.000254682,0.00504344,-0.0020731280953197873,0.004118527921282089,0.004353308235500286,0.005908526891351906,-0.000254649571292509,-0.0032694038217990773
22,0.007054,8.94844,114.38,-0.0972069,32.1163,-39.5931,-2.61135,-0.00231115,0.00648139,-0.00363089,0.00454813,0.00473369,-0.000290104,0.00573129,-0.002308481349118763,0.004558488441140263,0.004744911610062186,0.006502439660612591,-0.00029006192390346186,-0.003624306289557122
23,0.0077027,8.97873,114.319,-0.112918,32.1774,-41.908,-2.62333,-0.00254742,0.00707018,-0.00398361,0.00499009,0.00509255,-0.000325898,0.00642695,-0.0025441780791007895,0.005002561234669356,0.005105539072558063,0.007095232730250478,-0.00032584490101528196,-0.003975685951282615
24,0.0086758,9.08153,114.545,0.0863065,32.2422,-44.9961,-2.68894,-0.0028995,0.00795025,-0.00451294,0.00566088,0.00557331,-0.000375797,0.00749266,-0.0028953005096629125,0.005676933058371025,0.0055888697852499725,0.007981937155470131,-0.0003757263971517766,-0.004502771987905052
25,0.0091623,9.04678,114.642,-0.0947472,32.3302,-46.1879,-2.64846,-0.00307693,0.00838984,-0.00477562,0.00599693,0.00580712,-0.000401905,0.00802413,-0.003072201102293337,0.006014947583435015,0.005824014007358436,0.008425133340392854,-0.00040182424700418995,-0.0047642348577225935
26,0.0096489,9.14766,114.8,0.136007,32.3893,-47.6084,-2.6382,-0.00325525,0.00882865,-0.00503397,0.00633518,0.00601761,-0.000429055,0.00856155,-0.003249957418168581,0.006355289696569955,0.0060357521876699405,0.008867737475612092,-0.0004289629690660268,-0.005021320807139573
27,0.010379,9.1878,114.997,0.109411,32.4898,-49.4235,-2.56539,-0.00352162,0.00948549,-0.00542353,0.00684563,0.00631069,-0.000467313,0.00937529,-0.0035154263689592957,0.006869114884072269,0.00633064435730879,0.009530619840289134,-0.00046720382628673285,-0.005408849213722089
28,0.010652,9.17553,115.1,0.0132436,32.5394,-49.9831,-2.53255,-0.00362116,0.00973162,-0.00557014,0.00703713,0.00642046,-0.000481311,0.0096805,-0.0036146115068923512,0.007061948782829175,0.00644111533522862,0.009779126192930088,-0.00048119518844180753,-0.005554655533745456
29,0.011063,9.1166,115.097,-0.12411,32.5657,-50.9844,-2.49193,-0.00377012,0.0101003,-0.00579117,0.00732551,0.00657241,-0.000501333,0.0101442,-0.0037630220204727394,0.007352407186803411,0.006594055682052291,0.010151480196694207,-0.0005012073536093675,-0.005774433498576315
30,0.011679,9.23149,115.466,0.0818963,32.6594,-52.3531,-2.44132,-0.00399428,0.0106526,-0.0061163,0.00775982,0.00678216,-0.000532666,0.0108415,-0.003986313474015568,0.007790005430536873,0.006805210929363925,0.010709540953499186,-0.0005325241586520146,-0.006097633513155398
31,0.012602,9.18387,116.038,-0.142191,32.8543,-53.9126,-2.33708,-0.00432864,0.0114797,-0.00660774,0.00841315,0.00708229,-0.000576712,0.011893,-0.004319284940970447,0.008448640004220076,0.007107428727365583,0.011545844620527435,-0.0005765457335986657,-0.0065859568914931055
32,0.013988,9.24593,117.365,-0.139334,33.1419,-55.9759,-2.34425,-0.00481561,0.0127163,-0.00736349,0.00939814,0.00750778,-0.000624986,0.0135014,-0.004804033540190655,0.009442441191904516,0.00753603404438663,0.012797495948501325,-0.0006247907369308914,-0.007336445927807134
33,0.014507,9.32644,118.074,-0.0622344,33.2453,-56.5723,-2.35974,-0.00500385,0.0131811,-0.00763618,0.00976336,0.00766101,-0.000651789,0.0140953,-0.004991351597988247,0.009811177091040513,0.007690430619674782,0.013268353643469455,-0.0006515766316920191,-0.007607098448571992
34,0.015287,9.30954,118.661,-0.164177,33.4278,-57.6628,-2.27123,-0.00528577,0.0138764,-0.00804751,0.0103157,0.00787193,-0.000687501,0.0149949,-0.005271824898771649,0.01036909026129118,0.007902995101563226,0.013973124114819102,-0.0006872647253369779,-0.008015215479623694
35,0.016456,9.31273,119.843,-0.137376,33.6631,-59.1286,-2.30829,-0.00569876,0.0149171,-0.00867856,0.0111456,0.00817885,-0.000729556,0.0163643,-0.0056825528686967886,0.01120794360334787,0.008212388165850681,0.0150289152307026,-0.000729289938727562,-0.008641010003311078
36,0.018209,9.38031,121.845,-0.122436,34.0634,-60.981,-2.41512,-0.00630908,0.0164761,-0.00964192,0.0123856,0.0086319,-0.000781265,0.0184378,-0.00628921954379591,0.012462619191514923,0.008669262273901968,0.016612579455054677,-0.0007809598919618077,-0.009595585726054567
37,0.02084,9.36166,124.94,-0.18672,34.695,-63.3007,-2.62089,-0.00722273,0.0188091,-0.0110925,0.0142436,0.00929967,-0.000854328,0.0215709,-0.00719670877146561,0.01434552341432127,0.009343046288508683,0.01898710541042692,-0.0008539631657376034,-0.011031205069224947
38,0.021086,9.61036,125.498,0.00622896,34.7752,-63.4354,-2.5903,-0.00731133,0.0190284,-0.0112187,0.0144152,0.00935678,-0.000866432,0.0218553,-0.0072846672464503825,0.014519600041486447,0.009400691515926152,0.01921059378724821,-0.0008660567561769028,-0.011156005056100482
39,0.021456,9.63551,125.691,-0.0315354,34.8806,-63.8878,-2.49963,-0.00744608,0.0193564,-0.0114112,0.0146761,0.00943363,-0.000882912,0.0222885,-0.007418426625298458,0.014784322736711264,0.009478266939866531,0.019544949693381497,-0.0008825223478847732,-0.011346339204877598
40,0.022011,9.78591,126.171,0.122003,35.051,-64.5339,-2.38949,-0.00764711,0.0198477,-0.0116981,0.0150683,0.00954337,-0.000907119,0.0229391,-0.007617945243708069,0.015182399205781572,0.009589053163609362,0.020045975194002086,-0.0009067076919377914,-0.011629943255213382
41,0.022843,9.81078,126.838,-0.000759772,35.3081,-65.2947,-2.24549,-0.00794708,0.0205839,-0.0121318,0.0156572,0.00970676,-0.000941487,0.0239163,-0.007915585444875917,0.015780416189491886,0.009754023395881939,0.020797209536371097,-0.0009410439401703607,-0.012058506408186287
42,0.024092,9.81466,128.12,0.00502014,35.5576,-66.3613,-2.32805,-0.00838241,0.0216875,-0.0128082,0.0165342,0.00996291,-0.000978116,0.0254032,-0.008347375560649462,0.016671646361797965,0.010012705018209278,0.021924383196839425,-0.0009776378004695552,-0.0127265240854042
43,0.02456,9.90908,128.601,-0.0455815,35.7399,-66.681,-2.2169,-0.00854986,0.0221007,-0.0130516,0.0168651,0.0100526,-0.000996069,0.0259524,-0.008513413890664734,0.01700811867585328,0.010103297120264365,0.02234672960273487,-0.0009955730879415148,-0.012966797207016656
44,0.025262,10.0512,129.258,0.112872,35.928,-67.3652,-2.16495,-0.00879724,0.0227196,-0.0134219,0.0173625,0.010179,-0.00101905,0.026786,-0.008758657506902856,0.017514104342285952,0.01023098224655028,0.02297965583250483,-0.0010185309448781377,-0.013332227938335328
45,0.026315,10.0439,130.369,0.197479,36.1993,-68.1265,-2.12856,-0.00917679,0.0236484,-0.013966,0.018105,0.0103643,-0.00106327,0.0280265,-0.009134811769255347,0.018269889115134497,0.010418195392323026,0.02393024072012717,-0.0010627049287457169,-0.013868927850662294
46,0.02671,10.1047,130.667,-0.0117756,36.338,-68.3796,-2.00096,-0.00931628,0.0239959,-0.0141734,0.0183847,0.0104348,-0.00107569,0.0284921,-0.009273017914949944,0.018554739037524692,0.010489432386172615,0.02428611830892735,-0.0010751116529046367,-0.0140734302273966
47,0.027303,10.1855,131.247,0.197464,36.4936,-68.9134,-1.96755,-0.00952811,0.0245171,-0.0144789,0.018804,0.0105318,-0.00109843,0.0291925,-0.009482861385209151,0.018981908589441154,0.010587454615115233,0.02482011538133877,-0.0010978269465917734,-0.014374584790760259
48,0.028192,10.1388,132.024,0.0811306,36.6407,-69.5912,-1.99452,-0.00983674,0.0252986,-0.0149558,0.0194294,0.0106859,-0.00112187,0.0302543,-0.009788517519947249,0.019619379191352593,0.010743198141601962,0.02562132533352024,-0.0011212409391150313,-0.01484451748691562
49,0.029525,10.3076,133.414,0.125899,37.0185,-70.4427,-1.87291,-0.0103091,0.0264692,-0.0156472,0.0203698,0.0109031,-0.00116824,0.0318295,-0.010256143363244874,0.020578680248204417,0.010962755407294189,0.02682262063791896,-0.0011675578733062464,-0.015525418572895244
50,0.031524,10.522,135.519,0.0563489,37.5725,-71.5476,-1.72501,-0.0110119,0.0282223,-0.0166878,0.0217774,0.0112352,-0.00123241,0.0341896,-0.01095149097191861,0.022016258328614313,0.011298551894285414,0.028624322194218843,-0.0012316508946709215,-0.016549329988823525
51,0.032274,10.4512,136.315,0.0906766,37.7719,-71.9244,-1.81432,-0.0112717,0.0288787,-0.0170854,0.0223044,0.0113666,-0.00125276,0.0350799,-0.011208412399025591,0.022555002843464234,0.011431445254906913,0.029299732844831894,-0.0012519756237704405,-0.016940272250748123
52,0.033399,10.595,137.234,0.122275,38.0143,-72.7693,-1.83584,-0.0116524,0.0298619,-0.0176954,0.0230931,0.0115584,-0.0012718,0.036428,-0.011584773711503904,0.023361810096824698,0.011625456411181956,0.030312238008139092,-0.0012709916051218961,-0.01753975582359646
53,0.035086,10.724,139.011,0.252653,38.358,-73.6825,-1.83069,-0.0122488,0.0313375,-0.0185659,0.0242712,0.0118245,-0.00133124,0.0384174,-0.012174088801234606,0.024568143096228567,0.011894685764509694,0.031833688997016774,-0.0013303542931042411,-0.018394615334567654
54,0.035719,10.627,139.395,-0.0466484,38.5598,-73.9747,-1.73859,-0.0124709,0.0318894,-0.0188956,0.0247155,0.0119267,-0.00134994,0.0391637,-0.012393460573974724,0.025023459863335873,0.011998106686113896,0.03240331518386186,-0.0013490292408676607,-0.018718197284476212
55,0.036668,10.5939,140.098,-0.0659513,38.6823,-74.6513,-1.83606,-0.0127942,0.0327173,-0.0194067,0.0253762,0.01208,-0.00136912,0.0402999,-0.012712702159988098,0.025700916636468785,0.012153257887904667,0.033258395800283,-0.0013681831827999646,-0.019219602268885416
56,0.038092,10.8199,141.491,0.175032,39.0235,-75.4596,-1.77316,-0.0132942,0.0339576,-0.0201389,0.0263705,0.0122906,-0.00141524,0.0419802,-0.013206222418561842,0.026721278246591318,0.012366439811284602,0.0345407412707468,-0.0014142390201358213,-0.019937466833815365
57,0.040227,10.9203,143.267,-0.0647697,39.555,-76.484,-1.61726,-0.0140376,0.0358141,-0.0212452,0.027861,0.0126138,-0.00147612,0.0444992,-0.013939532307758462,0.028252747355646646,0.012693689525336671,0.0364631500807473,-0.001475031070735433,-0.021021110486248218
58,0.04343,10.804,145.934,-0.286288,40.3639,-77.8239,-1.61939,-0.0151539,0.0385921,-0.0228977,0.0300905,0.0131161,-0.00157269,0.0482631,-0.015039657458749134,0.030547794308807052,0.013202493340965793,0.039346447757876435,-0.0015714539711302322,-0.022637537160790866
59,0.044231,11.1181,147.068,0.100177,40.5155,-78.1211,-1.71104,-0.0154245,0.0392856,-0.0233177,0.0306433,0.0132503,-0.00159013,0.049207,-0.01530615166914795,0.0311176386199572,0.01333847423968626,0.0400674845099922,-0.0015888664131360475,-0.02304794320388137
60,0.045032,11.2012,147.6,0.228082,40.6514,-78.6756,-1.74922,-0.0156962,0.0399778,-0.0237405,0.0311993,0.0133731,-0.00160572,0.0501584,-0.015573656645542777,0.0316910994343631,0.01346291984512682,0.04078766844967574,-0.0016044315213783467,-0.02346091122590299
61,0.045332,11.1603,147.781,0.051809,40.6612,-78.7997,-1.73304,-0.0158003,0.0402379,-0.0238969,0.0314057,0.0134194,-0.00161415,0.0505115,-0.015676130094050444,0.0319040624543141,0.013509844264607551,0.04105841253098097,-0.0016128479605452828,-0.0236136299964681
62,0.045782,11.183,147.924,-0.0491612,40.7114,-79.1471,-1.69095,-0.015955,0.0406271,-0.0241321,0.0317178,0.0134836,-0.00162475,0.051045,-0.01582839321886853,0.03222616997446992,0.013574913685315382,0.04146367132338358,-0.0016234308082677673,-0.02384324906643187
63,0.046458,11.2348,148.337,0.0476182,40.7858,-79.6397,-1.71841,-0.0161856,0.0412107,-0.0244859,0.0321849,0.013579,-0.00163995,0.0518475,-0.01605531702607177,0.03270843544279667,0.013671613344581335,0.042071646911988836,-0.0016386060167875582,-0.024188552237179306
64,0.047471,11.2564,148.922,-0.0571751,40.9817,-80.2058,-1.63822,-0.0165369,0.0420853,-0.025007,0.032887,0.0137154,-0.00166807,0.0530427,-0.01640091608517147,0.03343375462882614,0.013809887582730163,0.042983441444005566,-0.0016666795444707505,-0.024696915117156548
65,0.048992,11.4775,150.242,0.205097,41.2774,-80.9444,-1.61927,-0.0170633,0.043396,-0.0257835,0.0339377,0.0139175,-0.00171203,0.0548318,-0.01691854639069501,0.03452015411483855,0.014014799266638844,0.044351376120861596,-0.0017105653126217035,-0.025453944008063445
66,0.051272,11.4261,151.774,-0.118941,41.7662,-81.8676,-1.52277,-0.0178489,0.0453578,-0.0269547,0.0355127,0.0142289,-0.00177231,0.0575122,-0.017690551897182827,0.036150807159755605,0.014330612644721352,0.04640219564166137,-0.0017707403860497406,-0.02659466421269463
67,0.054692,11.9631,154.896,0.324715,42.4976,-83.0967,-1.5393,-0.0190231,0.0482935,-0.0286993,0.0378648,0.0147128,-0.0018661,0.0615126,-0.01884330273868029,0.038590805908889525,0.014821566004765474,0.0494786321051901,-0.0018643599179523074,-0.028291386680151298
68,0.058113,11.6271,157.121,-0.132865,43.2514,-84.1697,-1.5845,-0.0201996,0.0512196,-0.0304437,0.040211,0.0152234,-0.00196128,0.0654959,-0.0199969548240998,0.04103040843634065,0.015339866207148667,0.05255400876612004,-0.001959357947147411,-0.029984957623198305
69,0.058968,11.8678,158.07,0.112044,43.3948,-84.417,-1.67135,-0.0204838,0.0519499,-0.0308894,0.0407931,0.0153606,-0.00197659,0.0664959,-0.020275432116041214,0.04163656864290366,0.015479180393526804,0.05332296971063455,-0.001974637832409476,-0.030417196995886076
70,0.059289,11.9136,158.191,0.0155489,43.4407,-84.5849,-1.62625,-0.0205924,0.0522235,-0.0310543,0.0410122,0.0154075,-0.00198359,0.06687,-0.020381824426906392,0.04186481621870208,0.015526807483933869,0.05361119830302097,-0.001981623985493064,-0.030577068018373454
71,0.05977,11.9264,158.294,-0.0318079,43.4685,-84.9425,-1.61544,-0.0207552,0.0526337,-0.0313025,0.0413409,0.0154733,-0.00199422,0.0674345,-0.02054129328477239,0.042207333473420094,0.015593631346347392,0.05404347827112477,-0.0019922328644438325,-0.03081764893276473
72,0.060491,11.962,158.598,0.0518512,43.5125,-85.4408,-1.66167,-0.0209976,0.0532488,-0.0316767,0.0418329,0.0155712,-0.00200886,0.0682841,-0.02077868530220528,0.04272022564261668,0.015693062829947868,0.05469201985312511,-0.002006843591203844,-0.031180249121807613
73,0.061573,11.9672,159.046,-0.0665647,43.6696,-86.0023,-1.59758,-0.0213673,0.0541704,-0.0322272,0.0425724,0.0157096,-0.00203674,0.0695491,-0.021140636511445487,0.04349160243089378,0.015833644477869058,0.05566447205576752,-0.002034667252540867,-0.031713437621066376
74,0.063197,12.2034,160.233,0.263577,43.9216,-86.7316,-1.60559,-0.0219216,0.0555513,-0.0330463,0.0436796,0.015912,-0.00208104,0.0714429,-0.021683067907877218,0.0446475961731474,0.01603927001611405,0.05712324610396147,-0.002078876137547536,-0.03250623640924155
75,0.065632,12.1266,161.527,-0.084299,44.355,-87.6098,-1.52793,-0.0227491,0.0576178,-0.0342822,0.0453399,0.0162216,-0.00214144,0.0742811,-0.022492290307239093,0.046383465209997254,0.016353884473915947,0.05931005002897627,-0.0021391487531775555,-0.03370122335737202
76,0.069285,11.8892,163.596,-0.42299,45.0479,-88.7477,-1.56439,-0.0239903,0.0607089,-0.036127,0.0478237,0.0167004,-0.00223739,0.0785202,-0.02370482022477649,0.04898570284197712,0.016840631231677117,0.0625895493435129,-0.0022348889086473145,-0.03548220805513702
77,0.072937,12.0967,166.128,-0.40224,45.7248,-89.7229,-1.59444,-0.0252244,0.0637907,-0.0379637,0.0502938,0.017206,-0.0023332,0.0827327,-0.024908922961722313,0.05158000520062367,0.017354875844911133,0.06586928897169853,-0.0023304802045668316,-0.03725211199475986
78,0.07659,12.3651,168.553,-0.30095,46.3523,-90.744,-1.63333,-0.0264546,0.0668625,-0.0397943,0.0527536,0.017723,-0.00242961,0.086928,-0.026107742459631322,0.054169865660942174,0.01788098430304097,0.06914846015407172,-0.0024266608865060046,-0.03901290613195263
79,0.080242,12.494,170.696,-0.336662,46.9526,-91.7856,-1.67368,-0.027682,0.069924,-0.0416198,0.0552051,0.0182457,-0.00252677,0.0911086,-0.027302364526997747,0.05675733337930766,0.01841316976809071,0.0724266737297663,-0.0025235804037078147,-0.0407655878248665
80,0.083895,13.3152,173.436,0.340212,47.4905,-92.8485,-1.70817,-0.0289022,0.0729763,-0.0434339,0.0576434,0.0187684,-0.0026245,0.0952711,-0.028488526357297372,0.05933716871337458,0.0189456334791962,0.07570504240308984,-0.0026210590108253218,-0.04250415752554959
81,0.087548,13.3063,175.222,0.188062,48.0404,-93.9078,-1.74703,-0.0301236,0.0760174,-0.0452474,0.0600782,0.0192889,-0.00272277,0.099426,-0.029674406107014994,0.061919585410076694,0.01947613273187576,0.07898134826940861,-0.002719066623673383,-0.04423900268956393
82,0.0912,12.9576,176.581,-0.334821,48.604,-94.93,-1.78582,-0.0313425,0.0790475,-0.0470573,0.0625087,0.019808,-0.00282173,0.10357,-0.030856415451471886,0.06450372005993787,0.020005480172618384,0.08225572799649417,-0.002817752661774642,-0.04596727005126788
83,0.094853,13.0968,178.377,-0.335689,49.1078,-95.9644,-1.82305,-0.0325551,0.0820677,-0.0488574,0.0649292,0.0203207,-0.0029212,0.107699,-0.03203088673624377,0.067083472199845,0.02052857106519479,0.08552929767541007,-0.0029169374468802634,-0.047683079590752575
84,0.098506,13.8783,180.777,0.325416,49.5622,-96.9949,-1.85404,-0.0337609,0.0850786,-0.0506466,0.0673382,0.0208258,-0.00302074,0.111814,-0.03319736048466104,0.06965717506481539,0.02104417025005212,0.0888026432229545,-0.0030161821554357537,-0.04938544163752312
85,0.1022,13.9417,182.376,0.29441,50.0501,-98.0125,-1.88603,-0.0349674,0.0880783,-0.0524335,0.069745,0.0213221,-0.00312084,0.115922,-0.03436310449275459,0.07223472653495522,0.021551040241131414,0.0920736280456691,-0.003115975240874702,-0.05108257803376648
86,0.1058,14.1372,184.077,0.317282,50.5073,-98.9742,-1.9116,-0.0361686,0.0910682,-0.0542147,0.0721429,0.0218148,-0.00322079,0.120017,-0.03552233116071557,0.0748089232854543,0.022054482451462354,0.09534370515186152,-0.0032156088198782573,-0.05277128533657249
87,0.1095,13.6642,185.028,-0.307972,50.9904,-99.93,-1.93793,-0.0373694,0.0940469,-0.0559943,0.0745387,0.0223005,-0.00332101,0.124105,-0.03667978087357093,0.07738703759382437,0.022551014886729837,0.09861126957747768,-0.003315501545854249,-0.054455474521168834
88,0.1131,14.3913,187.198,0.321207,51.3923,-100.888,-1.96533,-0.0385604,0.0970171,-0.057759,0.0769205,0.0227769,-0.00342138,0.128176,-0.037826412299996504,0.07995621646050455,0.023038274246185653,0.10187921559449786,-0.0034155337487640214,-0.056122605519601354
89,0.1168,14.4602,188.637,0.311123,51.8309,-101.834,-1.98871,-0.0397516,0.0999763,-0.0595213,0.0793003,0.0232436,-0.00352176,0.132241,-0.03897187110695288,0.08252935682975893,0.023515837639525916,0.10514472583526846,-0.0035155658767898057,-0.057784535811895466
90,0.1204,14.0446,189.557,-0.286262,52.2698,-102.711,-2.01066,-0.0409406,0.102925,-0.0612826,0.0816751,0.023708,-0.00362205,0.136296,-0.04011385450853733,0.08510320252109449,0.023991268781092367,0.10840827533788078,-0.0036154982894934795,-0.05944259930671936
91,0.1218,14.6413,190.718,0.310481,52.3873,-103.039,-2.03026,-0.0413817,0.10403,-0.0619355,0.082559,0.0238808,-0.00366014,0.137809,-0.04053716691889786,0.08606274925100732,0.024168229761325932,0.10963374342855525,-0.003653449852371482,-0.060056488807597175
92,0.1238,14.5331,190.999,0.0525184,52.5536,-103.788,-1.98156,-0.0420467,0.105682,-0.0629231,0.0838907,0.02412,-0.00371427,0.14009,-0.041174997600689656,0.0875100224671701,0.024413240103953626,0.11146837335978099,-0.0037073806314812385,-0.060984318781396096
93,0.1269,14.7564,192.153,0.304812,52.8213,-104.735,-1.9836,-0.043041,0.108154,-0.0643949,0.0858841,0.024462,-0.00379601,0.143507,-0.04212788349484853,0.08968002707097611,0.02476364934863473,0.11421932195031337,-0.003788814261950657,-0.0623653455141433
94,0.1281,14.5513,192.358,-0.00626613,52.96,-104.969,-1.97407,-0.0434139,0.109079,-0.0649486,0.086631,0.0245943,-0.00382636,0.144786,-0.04248500741719974,0.09049421310311878,0.02489923454820664,0.11525045164708048,-0.00381904881262618,-0.06288437011711034
95,0.1298,14.4992,192.648,-0.141587,53.0908,-105.58,-1.93113,-0.043971,0.110465,-0.0657768,0.0877509,0.0247759,-0.00387024,0.146708,-0.04301829045978356,0.09171614166356101,0.025085373150074197,0.11679726046395578,-0.0038627602737277833,-0.06366016797954022
96,0.1324,14.4224,193.33,-0.247335,53.32,-106.331,-1.90926,-0.0448054,0.11254,-0.0670149,0.089428,0.0250405,-0.00393663,0.149586,-0.04381646295435038,0.09354859497896628,0.02535664662770798,0.11911702069832675,-0.003928891629818576,-0.06481873296791252
97,0.1363,14.469,194.756,-0.260335,53.7115,-107.216,-1.91519,-0.0460525,0.115643,-0.0688646,0.0919356,0.0254376,-0.00403659,0.153889,-0.04500817619615616,0.09629421845973596,0.025763896606215475,0.12259503416073847,-0.004028453921605002,-0.0665469389335156
98,0.1402,14.5825,196.373,-0.265494,54.149,-107.915,-1.94067,-0.0472948,0.118736,-0.0707078,0.094433,0.0258486,-0.00413706,0.158171,-0.046193825920056386,0.0990355252859556,0.02618557221612261,0.12607259587820985,-0.004128514156229501,-0.06826589493915547
99,0.1441,15.2886,198.534,0.343676,54.533,-108.643,-1.97078,-0.0485302,0.121819,-0.0725415,0.0969176,0.0262637,-0.00423703,0.162435,-0.047371430511385704,0.10176958406680514,0.026611630269380848,0.12954963479271697,-0.004228066452464874,-0.06997285026731614
100,0.148,15.3298,199.939,0.255196,54.9262,-109.376,-1.99931,-0.0497653,0.124891,-0.0743738,0.0993955,0.026682,-0.00433732,0.166687,-0.04854729575250227,0.10450304414090561,0.027041151742475567,0.13302494661666575,-0.004327927412068777,-0.07167537876595909
101,0.1519,14.9155,200.81,-0.273914,55.3707,-110.099,-2.034,-0.0509989,0.127952,-0.0762024,0.10187,0.0271016,-0.00443842,0.170926,-0.04972028416046059,0.1072395212335937,0.027472188634962702,0.136498449462219,-0.0044285847702921766,-0.07337136205824091
102,0.1534,15.4954,201.936,0.283543,55.4806,-110.36,-2.04937,-0.0514566,0.129098,-0.0768811,0.102791,0.0272595,-0.00447666,0.172507,-0.05015512766487307,0.10825975857983039,0.027634439302901326,0.13780162326126622,-0.004466654693309091,-0.07400005154490175
103,0.1556,15.1158,201.913,-0.00275426,55.7107,-111.073,-2.03602,-0.0521496,0.130812,-0.0779048,0.104184,0.0274714,-0.00453218,0.174893,-0.05081314213305388,0.10980464018375558,0.02785221811343952,0.13975348751335193,-0.004521925170317798,-0.07494751265142596
104,0.1589,15.7175,203.472,0.394843,55.8664,-111.805,-2.01179,-0.053178,0.13338,-0.0794336,0.106253,0.0277927,-0.00461347,0.178456,-0.05178878413657895,0.11210320302759125,0.02818252009129063,0.14268413581115702,-0.00460284429401836,-0.07636065241481338
105,0.1601,15.336,203.49,-0.0349701,56.01,-112.007,-2.02431,-0.0535665,0.13434,-0.0800089,0.10703,0.027916,-0.00464516,0.179791,-0.0521570926453816,0.1129676430077855,0.02830930281201205,0.14378163929892174,-0.004634387930071204,-0.07689186931228709
106,0.162,15.3078,203.789,-0.138956,56.1294,-112.544,-1.98816,-0.0541448,0.135778,-0.0808685,0.108195,0.0280864,-0.00469005,0.181795,-0.05270507173527905,0.11426500587902755,0.028484541647135986,0.14542758044428794,-0.004679068889525295,-0.07768503211121547
107,0.1647,15.269,204.45,-0.217446,56.3357,-113.21,-1.96837,-0.0550102,0.137932,-0.0821544,0.109938,0.0283358,-0.00475691,0.184797,-0.0535245061457893,0.11620886336394487,0.028741077680536353,0.14789749059081925,-0.004745613822357497,-0.07887027471337227
108,0.1689,15.2788,205.734,-0.274134,56.7069,-113.986,-1.97395,-0.0563048,0.141152,-0.0840752,0.112545,0.0287133,-0.00485913,0.189281,-0.054749020520955205,0.11912261629741927,0.02912950074760201,0.1515996778331694,-0.00484734352621885,-0.0806378825356886
109,0.1731,16.0109,207.892,0.362194,57.0793,-114.603,-2.00776,-0.0575909,0.144363,-0.0859852,0.115137,0.029105,-0.00496125,0.193741,-0.0559639263929822,0.12202714476158771,0.029532689732452377,0.1553034075544779,-0.004948963326702582,-0.0823921882847315
110,0.1772,15.9862,209.179,0.171964,57.459,-115.234,-2.02646,-0.0588766,0.147562,-0.0878942,0.11772,0.0295052,-0.00506395,0.198185,-0.05717689364972911,0.12492908712161199,0.029944791170881002,0.15900514092092632,-0.005051149820802681,-0.0841422306503875
111,0.1814,15.5713,210.008,-0.321495,57.9065,-115.869,-2.07683,-0.0601608,0.150748,-0.0897971,0.1203,0.0299089,-0.00516887,0.202613,-0.058386889977970924,0.12783515137728196,0.030360663821323186,0.1627036198483518,-0.005155534378053828,-0.08588335927746105
112,0.183,16.205,211.18,0.298006,58.0052,-116.095,-2.09998,-0.0606369,0.151941,-0.0905035,0.121259,0.0300614,-0.0052082,0.204265,-0.058835085278295174,0.12891726407755932,0.030517805804327613,0.16409155300434386,-0.005194660841459808,-0.08652886325362075
113,0.1853,15.7758,211.06,-0.0776987,58.234,-116.757,-2.06678,-0.0613582,0.153725,-0.0915699,0.122711,0.0302667,-0.00526514,0.206756,-0.05951370275846746,0.1305576425715853,0.030729392828523938,0.16617014588846923,-0.00525130344484126,-0.08750246965464792
114,0.1888,15.8188,212.017,-0.206759,58.413,-117.415,-2.06579,-0.0624318,0.156397,-0.0931647,0.124871,0.0305795,-0.00535008,0.210478,-0.06052286703087284,0.13300228634433697,0.031051855413119833,0.1692903192134505,-0.005335793810769984,-0.08895656091547821
115,0.1901,16.2075,212.835,0.154346,58.4938,-117.604,-2.07568,-0.0628316,0.157397,-0.0937583,0.125677,0.0306991,-0.00538235,0.211867,-0.06089839491560778,0.13391585430556163,0.031175176589486542,0.17046019437275417,-0.005367891106811129,-0.08949719582460292
116,0.1921,16.0816,212.981,0.103589,58.6604,-118.158,-2.04944,-0.0634351,0.158893,-0.0946512,0.126893,0.0308605,-0.0054292,0.213961,-0.061464971752519415,0.13529553466004662,0.03134162169474686,0.172212513231232,-0.0054144885295596135,-0.09030982092798356
117,0.1951,15.961,213.591,-0.146251,58.8214,-118.712,-2.03933,-0.0643366,0.161134,-0.0959904,0.128708,0.0311066,-0.00549894,0.217092,-0.062310679820297254,0.13735796714675996,0.03159546610211894,0.17484238714648548,-0.0054838485045191065,-0.09152726263487743
118,0.1995,16.6437,215.474,0.42078,59.1429,-119.429,-2.02333,-0.0656797,0.164486,-0.0979857,0.131418,0.0314782,-0.00560344,0.221766,-0.0635692449676103,0.14044438744832166,0.0319788782108803,0.17878706641715558,-0.005587770012356996,-0.09333813107405464
119,0.204,16.6452,216.801,0.20504,59.4852,-119.972,-2.05485,-0.0670208,0.167826,-0.0999813,0.134117,0.0318696,-0.00570821,0.226421,-0.06482425052111118,0.14352660443080278,0.03238287380059157,0.18273079758381394,-0.005691949124174811,-0.0951456613461159
120,0.2084,16.8643,218.256,0.405443,59.9263,-120.57,-2.09888,-0.0683574,0.171153,-0.101964,0.13681,0.0322635,-0.00581566,0.231054,-0.06607337145438219,0.14661027187111642,0.03278960951592169,0.18667229599430124,-0.0057987817845539524,-0.09693793868209288
121,0.2101,16.5345,218.413,0.00934583,60.0901,-120.744,-2.13418,-0.0688595,0.172398,-0.102708,0.137818,0.0324149,-0.00585662,0.232787,-0.06654217831076459,0.14776663773564636,0.03294598570018081,0.18815062307046548,-0.005839503432466975,-0.09760956697900613
122,0.2126,16.3949,218.636,-0.230999,60.2376,-121.313,-2.09777,-0.0696089,0.174261,-0.103822,0.139328,0.032624,-0.00591505,0.23539,-0.0672414495526783,0.14950107452884875,0.033161997289015366,0.19036621086045602,-0.00589759053325023,-0.0986142701977959
123,0.2163,16.9189,220.03,0.338081,60.4497,-122.011,-2.11156,-0.0707276,0.177049,-0.105482,0.141584,0.0329297,-0.00600366,0.239282,-0.06828434309179832,0.15209727636753811,0.03347788319228684,0.1936895824836795,-0.005985674045155487,-0.10010932926692484
124,0.2177,16.6396,220.121,-0.0411681,60.5762,-122.162,-2.1155,-0.0711481,0.178091,-0.106107,0.14243,0.0330493,-0.0060369,0.240738,-0.06867604716397535,0.15307236306686178,0.0336014945389278,0.19493405528635743,-0.006018714532214253,-0.10067158521284736
125,0.2199,16.5992,220.376,-0.139445,60.6858,-122.646,-2.08227,-0.0717758,0.179653,-0.10704,0.143697,0.0332141,-0.00608486,0.242925,-0.06926045577334006,0.1545342316490541,0.033771846101811054,0.19680200076634335,-0.006066384731524765,-0.1015102673178031
126,0.223,16.5179,220.964,-0.23137,60.874,-123.226,-2.07959,-0.0727157,0.181991,-0.108437,0.145594,0.0334571,-0.00615716,0.246199,-0.07013484688648441,0.15672646175933713,0.034023083184482994,0.19960339740070765,-0.0061382435341816866,-0.10276458113216669
127,0.2278,17.149,222.811,0.352286,61.1807,-123.9,-2.09846,-0.0741176,0.185488,-0.11052,0.148425,0.0338271,-0.00626628,0.251087,-0.07143751152850697,0.16000579407727344,0.03440574251287165,0.2038057540194118,-0.00624668781221982,-0.10463157735804174
128,0.2325,16.6374,223.584,-0.280532,61.61,-124.397,-2.14441,-0.075521,0.18897,-0.112601,0.15125,0.0342167,-0.00637882,0.255952,-0.07273974213587864,0.16328744359301517,0.03480882550562292,0.20800471179794022,-0.0063585185171416425,-0.10649290166590242
129,0.2373,16.6901,224.871,-0.342947,61.9805,-124.932,-2.19356,-0.076916,0.19244,-0.114671,0.154061,0.0346146,-0.00649101,0.260793,-0.07403236837917082,0.16656204489283333,0.035220657865906224,0.21220376929927554,-0.00646998890190098,-0.10834054838535101
130,0.242,16.8226,226.205,-0.296569,62.3352,-125.484,-2.25735,-0.0783066,0.195896,-0.116732,0.156859,0.0350188,-0.00660542,0.265612,-0.07531912407910724,0.16983065614914827,0.03563917863316446,0.216400393114911,-0.00658365216823964,-0.11017636605518333
131,0.2468,17.6102,228.116,0.389211,62.6614,-126.073,-2.27418,-0.0796885,0.199341,-0.11878,0.159643,0.0354251,-0.00671956,0.270406,-0.07659605808078607,0.17309200238336153,0.0360600443245187,0.22059811890029835,-0.0066970342393432025,-0.11199686003535791
132,0.2515,17.7198,229.294,0.372664,62.9897,-126.663,-2.30254,-0.0810691,0.202772,-0.120825,0.162418,0.0358337,-0.0068344,0.275185,-0.07787002993787162,0.17635185364168882,0.03648346495757404,0.2247931835644026,-0.00681109860223017,-0.11381097089600922
133,0.2563,17.1631,229.755,-0.291026,63.3871,-127.23,-2.34816,-0.0824482,0.206188,-0.122866,0.165189,0.0362445,-0.00695089,0.279948,-0.07914086287531408,0.17961604507670503,0.03690933983368905,0.2289842313135506,-0.006926788438868625,-0.11561783816912219
134,0.2581,17.7698,230.822,0.308524,63.4716,-127.432,-2.37304,-0.0829597,0.207467,-0.123623,0.16622,0.0363991,-0.00699465,0.281725,-0.07961176188126573,0.18083285637761937,0.037069658409933925,0.23055710778548977,-0.006970244371783729,-0.11628706213239992
135,0.2607,17.3587,230.628,-0.0204281,63.6614,-128.059,-2.34874,-0.0837333,0.209379,-0.124766,0.167779,0.0366065,-0.00705777,0.284403,-0.08032349888690526,0.18267521054263325,0.03728476896328159,0.23291218371069733,-0.007032922431818633,-0.11729656897731489
136,0.2647,17.9453,231.959,0.378656,63.7813,-128.671,-2.31213,-0.0848821,0.212243,-0.126471,0.170095,0.0369212,-0.0071517,0.288401,-0.08137941661611214,0.18541746063009845,0.037611253849776594,0.23644830551418217,-0.007126187449154497,-0.11880029603561038
137,0.2662,17.5799,231.923,-0.0366488,63.9005,-128.825,-2.32914,-0.0853152,0.213314,-0.127112,0.170965,0.0370421,-0.00718776,0.289898,-0.08177718504780418,0.1864492225722132,0.03773670863395595,0.23777325103106506,-0.007161989833314175,-0.11936496405041852
138,0.2685,17.5373,232.095,-0.158032,63.9892,-129.296,-2.28268,-0.0859603,0.214917,-0.128071,0.172267,0.0372091,-0.00723879,0.292146,-0.08236933956575443,0.1879949855333245,0.03791002513582309,0.23975899269919987,-0.0072126530642896425,-0.12020908822765752
139,0.2719,17.4485,232.568,-0.258913,64.1463,-129.861,-2.26866,-0.086926,0.217317,-0.129504,0.174217,0.0374539,-0.0073155,0.295511,-0.0832550677518471,0.19031383589943585,0.03816413661195184,0.24273798764569632,-0.007288806860756947,-0.12146892571507895
140,0.2769,18.1231,234.327,0.388196,64.4081,-130.505,-2.28065,-0.0883662,0.220907,-0.131642,0.177128,0.0378237,-0.0074311,0.300535,-0.08457441351434103,0.19378388768570232,0.03854812070395375,0.24720743487890529,-0.007403557641960878,-0.12334521868000259
141,0.282,17.4935,234.873,-0.318579,64.7895,-130.974,-2.3371,-0.0898088,0.224481,-0.133778,0.180033,0.0382095,-0.00754965,0.305539,-0.08589405437959097,0.19725687194668517,0.038948869868464575,0.2516729293364355,-0.007521222975451991,-0.12521575484908076
142,0.2871,17.6188,236.105,-0.339364,65.1457,-131.451,-2.35973,-0.0912411,0.228042,-0.135901,0.182921,0.0386049,-0.00766863,0.310513,-0.08720239113646544,0.20071954748963505,0.03935975147755144,0.256138082123895,-0.0076393010757368485,-0.12707095181315786
143,0.2922,18.4036,237.983,0.368902,65.4436,-131.976,-2.3929,-0.092665,0.23159,-0.138011,0.185793,0.0390036,-0.00778827,0.315463,-0.08850119874620499,0.20417297077209584,0.039774226830636694,0.2606027757221383,-0.007758020007848088,-0.12891089028710956
144,0.2972,17.8452,238.422,-0.306755,65.7989,-132.493,-2.43236,-0.0940909,0.235123,-0.140122,0.188662,0.0394067,-0.00790901,0.320398,-0.08979997870168799,0.20763270363890385,0.04019344430907834,0.26506436208024065,-0.007877816072278332,-0.13074781983641193
145,0.3023,17.9095,239.474,-0.341459,66.12,-133.024,-2.46717,-0.0955079,0.238642,-0.142219,0.191516,0.0398111,-0.00803007,0.32531,-0.0910888187730231,0.21108421033234004,0.04061418360570879,0.2695239656407933,-0.007997915114122955,-0.13256873176478357
146,0.3074,18.6299,241.187,0.314304,66.3838,-133.576,-2.50751,-0.0969163,0.242149,-0.144305,0.194357,0.0402143,-0.00815046,0.330201,-0.09236802824989732,0.2145297927061347,0.041033843842356976,0.2739840022913793,-0.008117335056494701,-0.13437630743344342
147,0.3124,18.0786,241.546,-0.357038,66.709,-134.109,-2.54519,-0.0983264,0.24564,-0.146392,0.197193,0.0406188,-0.00827173,0.335078,-0.0936469781577095,0.21797908798709775,0.041455027210784534,0.2784392525580117,-0.008237613374049157,-0.13618098024871572
148,0.3175,18.8806,243.292,0.389419,66.9671,-134.665,-2.57529,-0.0997242,0.24912,-0.14846,0.200011,0.0410204,-0.00839307,0.33993,-0.0949129933874635,0.2214161936644048,0.041873359545222755,0.28289597134989175,-0.008357946521282744,-0.13796551213960528
149,0.3226,18.9371,244.23,0.355608,67.2462,-135.219,-2.59638,-0.101121,0.252585,-0.150526,0.202823,0.04142,-0.00851429,0.344767,-0.09617633639414025,0.224855649609635,0.042289775334030555,0.28734891616225267,-0.008478146085562632,-0.1397446369227957
150,0.3277,18.9881,245.158,0.317241,67.5447,-135.746,-2.62558,-0.102512,0.256037,-0.152583,0.205625,0.0418191,-0.0086361,0.349586,-0.09743268111988612,0.22829250792972489,0.042705836202790115,0.2918005236748533,-0.008598916006946511,-0.1415123634745794
151,0.3296,18.7782,245.298,0.052242,67.6678,-135.909,-2.64347,-0.103034,0.257328,-0.153354,0.206673,0.0419706,-0.00868241,0.351387,-0.09790369831415846,0.22958043323301625,0.04286381810380169,0.2934693151240195,-0.008644826728075317,-0.14217400234777944
152,0.3324,18.6157,245.297,-0.218399,67.7533,-136.447,-2.58699,-0.103813,0.25926,-0.154509,0.208244,0.0421787,-0.00874769,0.354095,-0.09860615768972147,0.23151362221597238,0.04308086064684247,0.2959707134135219,-0.008709540281513162,-0.14316421941463053
153,0.3367,19.0472,246.331,0.285251,67.8942,-137.088,-2.56808,-0.104976,0.262151,-0.156229,0.210593,0.0424799,-0.008847,0.358143,-0.09965386936589682,0.23440984800000808,0.04339508392171898,0.2997227857532867,-0.008807980448940378,-0.144636710252099
154,0.3383,18.8118,246.368,-0.0484426,67.9912,-137.216,-2.56249,-0.105413,0.263233,-0.156877,0.211473,0.0425972,-0.00888422,0.359657,-0.10004723466840526,0.23549660676997464,0.043517481343531283,0.30112984689027344,-0.008844871929353348,-0.14519080611740642
155,0.3407,18.7568,246.477,-0.150622,68.0551,-137.661,-2.50713,-0.106065,0.264853,-0.157844,0.212791,0.0427584,-0.00893767,0.361932,-0.10063381262620752,0.23712606487470755,0.0436857099203829,0.30323938550715934,-0.008897847755157118,-0.14601700707534682
156,0.3443,18.6513,246.855,-0.248138,68.1747,-138.179,-2.48202,-0.107041,0.267277,-0.159292,0.214764,0.0429948,-0.00901762,0.365337,-0.10151116580708652,0.23956932408333587,0.04393246638767345,0.30640226964450346,-0.00897708320474988,-0.14725267960628596
157,0.3497,19.2916,248.431,0.368002,68.3993,-138.76,-2.45974,-0.108496,0.270902,-0.16145,0.217709,0.0433515,-0.00913822,0.37042,-0.10281751646027226,0.24322523643137606,0.044304903518647354,0.31114657172422744,-0.009096593361908045,-0.14909092414445246
158,0.3552,18.6947,248.887,-0.291117,68.7243,-139.165,-2.51376,-0.109952,0.274512,-0.163608,0.220648,0.0437226,-0.00926052,0.375484,-0.10412286363296008,0.2468844499816214,0.044692516985573416,0.3158883646347299,-0.009217773438227161,-0.15092520602814752
159,0.3606,19.4685,250.677,0.380677,68.9899,-139.596,-2.53715,-0.111395,0.278108,-0.165749,0.223567,0.0441005,-0.00938166,0.380517,-0.10541468206957838,0.2505294229410513,0.045087380892578466,0.3206288174197467,-0.009337789527631535,-0.1527411305212063
160,0.366,18.8759,251.017,-0.312209,69.3068,-140.036,-2.58138,-0.112841,0.28169,-0.16789,0.226481,0.0444839,-0.00950454,0.385536,-0.10670731763855668,0.25417878021069895,0.04548814421583236,0.32536779228068147,-0.009459514621111498,-0.15455317127894774
161,0.3714,19.6096,252.693,0.353865,69.5588,-140.504,-2.61328,-0.114274,0.285258,-0.170014,0.229376,0.044869,-0.00962727,0.390526,-0.10798648930698318,0.25781488850664136,0.045890839234119074,0.3301051509856754,-0.0095810761951034,-0.15634699462836987
162,0.3768,19.0255,252.968,-0.339335,69.8651,-140.963,-2.65077,-0.115709,0.288812,-0.172138,0.232267,0.0452572,-0.00975104,0.395502,-0.10926561070572416,0.26145649275190985,0.04629693287558578,0.33484075487580767,-0.009703652759495585,-0.1581370119404405
163,0.3822,19.7489,254.575,0.325722,70.107,-141.447,-2.67841,-0.117131,0.292352,-0.174244,0.235139,0.0456444,-0.00987461,0.400451,-0.11053133486414057,0.2650846032719629,0.04670213749054608,0.3395744648713477,-0.009826016118748226,-0.15990810977267356
164,0.3877,19.1624,254.787,-0.379125,70.4131,-141.913,-2.69802,-0.118555,0.295878,-0.176351,0.238007,0.0460335,-0.00999961,0.405386,-0.1117970368496004,0.26871807382034407,0.0471094885372505,0.34430614147805927,-0.009949780131321528,-0.16167631992183384
165,0.3931,19.8959,256.357,0.300471,70.6486,-142.404,-2.71386,-0.119967,0.299391,-0.178439,0.240857,0.04642,-0.0101241,0.410294,-0.1130502944254973,0.2723390778104511,0.0475142745744328,0.3490369938298745,-0.010073023811730919,-0.16342491359875333
166,0.3985,19.3623,256.593,-0.34682,70.9343,-142.872,-2.73389,-0.12138,0.302889,-0.180529,0.243703,0.0468071,-0.0102489,0.415189,-0.11430266934822009,0.27596531251025525,0.047919845843375164,0.3537641882772167,-0.010196558989603699,-0.16517152967974458
167,0.4039,19.295,257.312,-0.487568,71.184,-143.351,-2.7639,-0.122784,0.306374,-0.182608,0.246537,0.0471915,-0.010373,0.420065,-0.11554531585847794,0.2795865270432374,0.048322743664117374,0.3584902869169493,-0.010319385975061102,-0.16690533515425587
168,0.4059,20.007,258.39,0.226174,71.2373,-143.515,-2.77641,-0.123306,0.307678,-0.18338,0.247592,0.0473363,-0.0104198,0.421883,-0.11600688072468901,0.28093720318565496,0.04847455178804294,0.3602629137526021,-0.010365701943995331,-0.1675482360438435
169,0.409,19.5886,258.102,-0.0723016,71.3713,-144.057,-2.74288,-0.124095,0.309628,-0.184545,0.249185,0.0475316,-0.0104877,0.424624,-0.11670407621600765,0.28297936229820597,0.048679338864814126,0.36291801431613435,-0.010432895831575029,-0.16851747765599012
170,0.4136,20.0973,259.141,0.256392,71.4192,-144.583,-2.68624,-0.125267,0.312548,-0.186285,0.251556,0.0478257,-0.0105859,0.428718,-0.11773869263503323,0.28602491544271746,0.04898780081548093,0.36690355096959526,-0.01053006655004396,-0.16996299927635394
171,0.4204,19.0516,259.005,-0.91033,71.7562,-145.18,-2.67045,-0.127028,0.316907,-0.188894,0.25511,0.0482701,-0.0107368,0.43484,-0.11929098760043144,0.29060357945876514,0.04945407459252271,0.37287488862363527,-0.010679366298052329,-0.17212574328488783
172,0.4273,19.4965,260.643,-0.535927,72.0663,-145.597,-2.7501,-0.128774,0.321248,-0.19148,0.258638,0.0487326,-0.0108901,0.440917,-0.12082736388927529,0.2951648702729759,0.049939559361720676,0.3788474926731238,-0.01083101752683513,-0.17426386033587005
173,0.4341,20.4386,262.684,0.327783,72.3601,-146.063,-2.79876,-0.130509,0.325568,-0.194051,0.262145,0.0492022,-0.0110434,0.446959,-0.12235140592415306,0.29971498743996716,0.050432726765440306,0.38481699869069685,-0.01098264550926642,-0.17638410121339199
174,0.441,19.7378,262.982,-0.497096,72.7247,-146.517,-2.86024,-0.132246,0.329866,-0.19662,0.265643,0.0496801,-0.0111988,0.452977,-0.12387455829126459,0.3042693514046728,0.050934848538002564,0.3907817512221201,-0.011136326864803703,-0.17849725494920876
175,0.4478,20.6193,264.846,0.295146,73.0204,-147.017,-2.88562,-0.133967,0.334146,-0.199164,0.269116,0.0501596,-0.0113549,0.458954,-0.1253810734483145,0.3088069538478002,0.05143889263279067,0.39674705375854846,-0.01129067643688253,-0.18058450182887653
176,0.4547,19.9617,265.109,-0.482646,73.3591,-147.499,-2.94218,-0.135688,0.338404,-0.201708,0.272582,0.0506426,-0.0115116,0.464911,-0.12688499812252907,0.3133511492913639,0.05194686028224438,0.40270708260998944,-0.011445595049694557,-0.1826664455010224
177,0.4615,20.052,266.114,-0.486618,73.6546,-148.004,-2.98515,-0.137397,0.342642,-0.204234,0.276029,0.0511252,-0.0116686,0.470835,-0.12837587734157974,0.31788608216952063,0.052454652357389,0.40866436980125864,-0.011600785908470579,-0.18472842468357764
178,0.4684,20.9379,267.897,0.320525,73.9226,-148.527,-3.00005,-0.139094,0.346862,-0.206741,0.279454,0.0516062,-0.0118261,0.476724,-0.12985376913187652,0.3224075806470945,0.052961004813175894,0.4146214941335926,-0.011756446526094644,-0.18676975065164225
179,0.4752,20.2588,268.052,-0.482098,74.2517,-149.02,-3.02986,-0.140792,0.351059,-0.209248,0.282872,0.0520883,-0.0119845,0.482594,-0.1313300237370355,0.3269353032276263,0.05346875969807696,0.4205711371368308,-0.011912971907827363,-0.18880596542506445
180,0.4821,21.1209,269.79,0.319986,74.4827,-149.549,-3.05912,-0.142473,0.355239,-0.211733,0.286268,0.0525653,-0.0121409,0.488431,-0.1327890313276865,0.3314492358367622,0.05397138416285774,0.4265215521935313,-0.012067496634872388,-0.19081928002154125
181,0.489,20.452,269.935,-0.461196,74.7851,-150.044,-3.09502,-0.144155,0.359398,-0.214217,0.289657,0.0530427,-0.0122984,0.494248,-0.13424645414080494,0.33596917200277066,0.05447467022648178,0.4324668099228217,-0.012223083751345287,-0.19282679056962926
182,0.4958,21.2623,271.587,0.289462,75.012,-150.568,-3.11283,-0.145822,0.363539,-0.216679,0.293022,0.053515,-0.0124549,0.500031,-0.13568846305339177,0.3404722804974605,0.05497281624115091,0.43841095383856943,-0.01237765874292962,-0.1948116067000195
183,0.5027,20.5496,271.657,-0.534747,75.306,-151.058,-3.13973,-0.147488,0.36766,-0.219141,0.296381,0.053987,-0.012612,0.505796,-0.13712720726723837,0.3449824975565161,0.05547088094444019,0.4443508761830339,-0.012532802025917111,-0.19679154222358886
184,0.5095,21.4023,273.318,0.256255,75.5329,-151.575,-3.1367,-0.149139,0.371763,-0.221579,0.299716,0.0544539,-0.0127685,0.511525,-0.1385506348852099,0.3494755021066045,0.05596379536066909,0.45028922201367605,-0.012687328550384125,-0.19874737930947428
185,0.5164,21.5519,274.243,0.325153,75.7858,-152.076,-3.14137,-0.150786,0.375847,-0.224011,0.303039,0.0549181,-0.0129246,0.517232,-0.13996827424308433,0.3539672681360668,0.05645408754248682,0.4562243144057352,-0.012841436029995767,-0.2006936580487545
186,0.5232,20.7581,274.192,-0.584431,76.0715,-152.55,-3.15624,-0.152431,0.379911,-0.226439,0.306354,0.0553813,-0.0130807,0.522918,-0.14138186343607595,0.35846311738290715,0.05694355042668908,0.46215445189697113,-0.012995519455307192,-0.20263201972368905
187,0.5257,21.6204,275.412,0.276992,76.1117,-152.715,-3.16406,-0.153022,0.38139,-0.227314,0.307552,0.05555,-0.0131372,0.524979,-0.14188915683482017,0.36009153142278283,0.05712187184463491,0.46431857830831635,-0.013051283633105148,-0.20332941155301043
188,0.5295,20.9681,274.836,-0.226873,76.2294,-153.3,-3.1123,-0.153919,0.383601,-0.228636,0.309363,0.0557768,-0.0132189,0.528087,-0.1426585371424839,0.3625568888935724,0.05736165427546891,0.4675597685003281,-0.013131914049434923,-0.20438191421339202
189,0.5351,20.9926,275.338,-0.405241,76.2714,-153.833,-3.02708,-0.155251,0.386909,-0.23061,0.312056,0.0561186,-0.0133389,0.532727,-0.1437997557506855,0.36623119983446006,0.057723122260259885,0.4724224947293647,-0.01325033111458307,-0.20595091520126907
190,0.5372,21.4614,276.099,0.0503188,76.3086,-153.966,-3.02288,-0.155747,0.388147,-0.231345,0.313061,0.0562486,-0.0133844,0.534458,-0.14422432576976418,0.36760495238532354,0.0578606352043014,0.4742464825933672,-0.013295227203123594,-0.20653432684855122
191,0.5404,21.2727,275.986,-0.0276352,76.3818,-154.452,-2.94774,-0.156495,0.389999,-0.23245,0.314575,0.0564243,-0.0134498,0.537065,-0.1448642066288125,0.36967707448385423,0.058046517647201146,0.4769793169025871,-0.013359755585163335,-0.2074106221750508
192,0.5451,21.0247,276.17,-0.388089,76.4288,-154.886,-2.88739,-0.157612,0.392771,-0.234108,0.316835,0.0566906,-0.013547,0.540964,-0.14581886003682054,0.3727760451900606,0.058328312954230466,0.48107918335867383,-0.013455652356261893,-0.20872364656547693
193,0.5522,21.002,276.942,-0.475497,76.5984,-155.407,-2.86901,-0.159278,0.396913,-0.236583,0.320211,0.0570891,-0.0136905,0.546789,-0.14724074106023077,0.3774183689519408,0.058750140830564845,0.48722653571412744,-0.013597211313050694,-0.21067963400729772
194,0.5594,21.0715,277.96,-0.487897,76.8691,-155.746,-2.89606,-0.160936,0.401036,-0.239043,0.323569,0.0575035,-0.0138374,0.552577,-0.1486534444568146,0.3820515145326364,0.05918897780966703,0.4933710288893072,-0.01374210324013625,-0.21261897573929944
195,0.5665,21.0445,278.822,-0.598222,77.1381,-156.108,-2.93044,-0.162588,0.405141,-0.241493,0.326912,0.0579247,-0.0139847,0.558336,-0.15005870789937592,0.386679444019848,0.05963520217537477,0.49951391661379185,-0.013887368329292493,-0.214545698050145
196,0.5736,21.9836,280.642,0.291402,77.3454,-156.511,-2.97234,-0.164228,0.409229,-0.243927,0.330234,0.0583478,-0.0141306,0.564065,-0.15145146924195585,0.3912936530907367,0.060083628687354285,0.5056564763425899,-0.014031231667167576,-0.21645516905218265
197,0.5807,21.1937,280.647,-0.602867,77.632,-156.89,-3.02627,-0.16587,0.413296,-0.246361,0.333549,0.0587764,-0.0142784,0.569774,-0.15284364264230488,0.3959134446245398,0.060538077912121846,0.5117924502772062,-0.01417694708249273,-0.21835999805340822
198,0.5878,21.3424,281.581,-0.539695,77.8795,-157.294,-3.06196,-0.1675,0.417346,-0.248777,0.336845,0.0592059,-0.0144261,0.575451,-0.15422338271115588,0.40052196600916457,0.06099367684945323,0.5179276250437164,-0.014322542394930138,-0.22024616089592763
199,0.595,22.1506,283.167,0.213008,78.0907,-157.723,-3.0873,-0.16912,0.421379,-0.251178,0.340123,0.0596343,-0.0145734,0.581099,-0.15559243160215108,0.40512040974539487,0.061448303914779734,0.5240617883814978,-0.014467721991695548,-0.22211610409848104
200,0.6021,22.2021,283.952,0.179185,78.3354,-158.137,-3.11547,-0.170737,0.425393,-0.253573,0.34339,0.0600634,-0.0147211,0.586725,-0.1569567353034388,0.40971844492481946,0.061903869116513466,0.5301916668356372,-0.014613274359850381,-0.22397690682842852
201,0.6092,21.5582,284.01,-0.571063,78.6034,-158.539,-3.14974,-0.17235,0.429388,-0.255962,0.346647,0.0604934,-0.0148695,0.592328,-0.15831546797690088,0.4143173832054503,0.062360585967319304,0.5363170097704413,-0.014759494900102976,-0.22582861325399994
202,0.6117,22.2853,285.058,0.142234,78.656,-158.663,-3.15487,-0.17291,0.430789,-0.256792,0.347781,0.0606452,-0.0149217,0.594284,-0.15878667936333124,0.4159221288368089,0.06252186454500341,0.5384708983477735,-0.014810923112181129,-0.22647090891542654
203,0.6155,21.816,284.647,-0.175217,78.7606,-159.183,-3.10337,-0.173757,0.432881,-0.258043,0.349493,0.0608494,-0.0149973,0.59723,-0.15949888538408208,0.41834826370024847,0.06273885366357868,0.5416927483471907,-0.014885400591109654,-0.2274379887737985
204,0.6211,22.3125,285.543,0.134791,78.7677,-159.671,-3.03059,-0.175014,0.436015,-0.259912,0.35204,0.0611559,-0.0151064,0.601632,-0.160554731546817,0.42196540119706816,0.06306463304536636,0.5465319925552818,-0.014992870731302399,-0.22888055867128365
205,0.6295,22.4721,286.519,0.233697,78.9844,-160.211,-3.0201,-0.176896,0.440693,-0.262706,0.355851,0.0616161,-0.0152722,0.608208,-0.16213308184854558,0.42739485058552407,0.06355396797682555,0.5537836175429505,-0.015156171375337757,-0.23103205934428672
206,0.638,21.7343,286.752,-0.630969,79.3369,-160.524,-3.06819,-0.178773,0.445346,-0.265489,0.359645,0.0620979,-0.0154429,0.61474,-0.1637042830203208,0.43282067292515447,0.06406651174047462,0.561030218859021,-0.01532426986926927,-0.2331691220211053
207,0.6464,21.8127,287.775,-0.641386,79.6166,-160.893,-3.13354,-0.180636,0.449977,-0.268254,0.363415,0.0625863,-0.015613,0.621235,-0.16526085154726367,0.4382326019383398,0.06458632875379045,0.568276114724718,-0.015491748966463548,-0.23528648080122982
208,0.6548,21.93,288.782,-0.617189,79.8953,-161.284,-3.19099,-0.182491,0.454584,-0.271003,0.367165,0.0630801,-0.015784,0.627693,-0.16680785737613013,0.4436360994211668,0.06511215129783055,0.5755178312708698,-0.01566008548420772,-0.23738579144099203
209,0.6633,22.8475,290.557,0.227107,80.141,-161.708,-3.23031,-0.184332,0.459168,-0.273733,0.370892,0.0635752,-0.0159549,0.634111,-0.16834035301562633,0.4490265700660503,0.06563961888776548,0.5827565835539603,-0.01582829480170289,-0.23946488897095441
210,0.6717,22.8968,291.398,0.165982,80.439,-162.119,-3.25557,-0.18617,0.463729,-0.276453,0.374604,0.0640739,-0.0161277,0.640497,-0.1698675395324406,0.454415352085922,0.06617118590092264,0.5899920242109014,-0.01599834497960273,-0.24153073365052724
211,0.6801,22.9586,292.234,0.126503,80.7172,-162.54,-3.28432,-0.187997,0.468266,-0.279159,0.378297,0.0645732,-0.0163006,0.64685,-0.17138280691946894,0.45979643804067627,0.06670365809466405,0.5972222072926752,-0.016168464158528906,-0.24358037706702795
212,0.6886,22.3048,292.342,-0.634056,80.9919,-162.954,-3.33963,-0.18982,0.47278,-0.281858,0.381977,0.0650735,-0.0164736,0.653176,-0.17289200001498606,0.46517838564254754,0.06723746345508541,0.6044483655053496,-0.016338652292531397,-0.2456192009987601
213,0.697,23.1906,293.999,0.192052,81.1999,-163.41,-3.36521,-0.191625,0.477273,-0.284533,0.385632,0.0655696,-0.0166453,0.659462,-0.1743835833959897,0.47054341125375077,0.0677670513141122,0.6116733708317403,-0.016507532447156636,-0.24763447300806518
214,0.7055,22.4167,293.945,-0.694797,81.4753,-163.825,-3.40463,-0.193431,0.481741,-0.287205,0.389276,0.0660675,-0.0168184,0.665724,-0.17587330102444831,0.4759118467934109,0.06829882490301076,0.6188904383753051,-0.016677760259647845,-0.24964211029829353
215,0.7139,23.3321,295.587,0.155748,81.6899,-164.281,-3.39958,-0.195218,0.48619,-0.289852,0.392894,0.0665606,-0.0169906,0.671945,-0.17734470034866145,0.48126136730230984,0.06882573295207361,0.6261089275581704,-0.01684707377101935,-0.2516256812180463
216,0.7223,22.6184,295.56,-0.671502,81.9597,-164.697,-3.41854,-0.197005,0.490615,-0.292496,0.396503,0.0670545,-0.0171634,0.678143,-0.17881347263024383,0.48661689781879325,0.06935375636622698,0.6333204031853441,-0.01701694791912267,-0.25360176937716694
217,0.7308,23.4231,297.076,0.0770909,82.1544,-165.152,-3.4192,-0.198775,0.495019,-0.295118,0.400087,0.0675427,-0.0173343,0.684304,-0.18026568719466185,0.49195449203593955,0.06987594232530614,0.6405294088196978,-0.017184925368641357,-0.2555562620781866
218,0.7392,22.7563,297.083,-0.694671,82.4044,-165.568,-3.43817,-0.200544,0.499401,-0.297737,0.403661,0.0680309,-0.0175058,0.690442,-0.18171451532770533,0.4972962774749592,0.07039838327780945,0.6477339823813502,-0.01735346370136548,-0.25750340932550053
219,0.7476,22.7819,297.807,-0.734407,82.5983,-166.005,-3.46667,-0.2023,0.503762,-0.30034,0.407216,0.0685146,-0.0176753,0.69655,-0.18315016377055093,0.5026286383970471,0.0709162602142408,0.6549354416471427,-0.017520008174225277,-0.25943361469887316
220,0.7561,22.9265,298.634,-0.656212,82.7933,-166.44,-3.48268,-0.204048,0.508101,-0.302929,0.410752,0.068995,-0.0178443,0.702628,-0.1845767700671267,0.5079513382498189,0.07143085198069343,0.6621318077542713,-0.017686033263328738,-0.26134846123199207
221,0.7645,23.7765,300.166,0.148775,82.9637,-166.89,-3.48279,-0.205783,0.512421,-0.305501,0.414268,0.0694701,-0.0180116,0.708674,-0.18599030277684692,0.5132626269289784,0.07194000971931303,0.6693277492061811,-0.01785036064359513,-0.2632458319250376
222,0.773,23.823,300.868,0.121537,83.1688,-167.313,-3.49112,-0.207515,0.51672,-0.308067,0.417771,0.069943,-0.0181786,0.714696,-0.18739894733411044,0.5185728813916215,0.07244705003014151,0.676519637086674,-0.01801436593854433,-0.26513391966775723
223,0.7814,23.7743,301.467,-0.0049042,83.3741,-167.729,-3.49957,-0.209238,0.520998,-0.310621,0.421258,0.0704131,-0.0183449,0.72069,-0.1887978534441589,0.5238773880615482,0.07295132590911924,0.6837071512251482,-0.01817765657149628,-0.2670083729411873
224,0.7898,23.8537,302.191,0.00467266,83.5688,-168.147,-3.50521,-0.210953,0.525256,-0.313162,0.424728,0.0708798,-0.0185104,0.726655,-0.19018787284317085,0.5291744276467092,0.07345218916026952,0.6908916612419591,-0.01834013472389573,-0.2688685403220109
225,0.7983,23.1482,302.109,-0.798435,83.7892,-168.542,-3.52008,-0.212663,0.529493,-0.315697,0.428185,0.0713455,-0.0186758,0.732597,-0.191571468269372,0.5344699316479371,0.07395221226610471,0.6980711682556093,-0.018502487838639725,-0.27071961134848543
226,0.8067,23.3178,302.914,-0.689658,83.9676,-168.959,-3.5225,-0.21436,0.533711,-0.318214,0.431623,0.0718065,-0.0188398,0.738507,-0.1929422080860287,0.5397545182721015,0.0744474183721966,0.705248759341224,-0.018663440232177142,-0.272552901922665
227,0.8151,24.0611,304.281,0.00448526,84.1397,-169.384,-3.49838,-0.216047,0.53791,-0.320715,0.43504,0.0722629,-0.0190028,0.744386,-0.19430256679578772,0.5450248587096833,0.07493790809518242,0.7124241530780446,-0.018823385055562025,-0.27436997391927576
228,0.8236,24.1717,305.0,0.0458881,84.3304,-169.789,-3.48916,-0.217728,0.542089,-0.323209,0.438445,0.0727166,-0.0191649,0.750241,-0.1956558064644015,0.5502946350563278,0.07542571807541143,0.7195953473877683,-0.018982420894641527,-0.27617744035679814
229,0.832,23.4787,304.901,-0.746194,84.5442,-170.169,-3.49533,-0.219406,0.546247,-0.325697,0.441839,0.0731694,-0.0193269,0.756074,-0.19700436426473378,0.5555652742629655,0.0759127811033038,0.7267603104775744,-0.019141332870239003,-0.2779760724590393
230,0.842,22.9557,305.063,-1.35852,84.761,-170.653,-3.48548,-0.221382,0.551152,-0.32863,0.44584,0.0736993,-0.0195166,0.762952,-0.19858951699427074,0.5618015582922911,0.07648305836762748,0.735250875889252,-0.0193273841118754,-0.2800906660710878
231,0.852,24.3382,307.301,-0.00337092,84.9327,-171.058,-3.53241,-0.223337,0.556031,-0.331534,0.449809,0.0742317,-0.0197057,0.769783,-0.20015474398063982,0.5680126664677174,0.07705633053941341,0.7437378520552944,-0.019512811770802108,-0.2821782501376656
232,0.862,24.4313,308.141,-0.00889404,85.1905,-171.448,-3.54885,-0.22529,0.560884,-0.33443,0.453762,0.0747671,-0.0198958,0.776579,-0.20171531736970172,0.5742232877438465,0.07763314089713824,0.752220779024735,-0.01969918466997911,-0.28425405470946463
233,0.872,24.4826,308.919,-0.0513145,85.436,-171.845,-3.57043,-0.227232,0.56571,-0.337312,0.457694,0.0753026,-0.0200856,0.783338,-0.20326408188627798,0.5804253189139317,0.07821036798284697,0.7606974342213342,-0.0198852281086479,-0.28631386491157196
234,0.882,23.7342,308.89,-0.901834,85.6797,-172.231,-3.62425,-0.229168,0.57051,-0.340184,0.46161,0.0758389,-0.0202752,0.790067,-0.20480507046548713,0.5866263982516524,0.07878876728710638,0.769169097632195,-0.020071040253850536,-0.2883606309286695
235,0.892,23.8674,309.731,-0.846139,85.8898,-172.645,-3.65322,-0.23109,0.575285,-0.343036,0.465501,0.0763722,-0.020464,0.796755,-0.20633196730215198,0.592811987827681,0.07936423877253307,0.7776370812947795,-0.02025603337755022,-0.29038733495556746
236,0.902,24.7175,311.276,-0.054219,86.0754,-173.079,-3.66427,-0.232997,0.580036,-0.345867,0.469368,0.076901,-0.0206512,0.803405,-0.20784405001140072,0.5989833163579819,0.079935157519609,0.7861027292909473,-0.02043942428217771,-0.29239340747484155
237,0.912,24.8241,312.038,-0.0412145,86.3094,-173.487,-3.66109,-0.234899,0.584761,-0.348687,0.473218,0.077429,-0.020839,0.81002,-0.20934929868300955,0.6051512678138093,0.08050551384359839,0.7945620340560882,-0.020623368485396254,-0.29438604712333605
238,0.922,24.1181,311.978,-0.857245,86.5548,-173.874,-3.67672,-0.236794,0.589461,-0.351499,0.477052,0.0779566,-0.0210269,0.816605,-0.21084616303509196,0.6113172303717569,0.08107573896486175,0.8030163276431417,-0.02080737606640415,-0.29636744640580037
239,0.932,24.9606,313.477,-0.0698099,86.7303,-174.307,-3.67068,-0.238671,0.594138,-0.354285,0.480858,0.0784775,-0.0212123,0.823149,-0.21232601551105046,0.6174615890480359,0.08163901801057949,0.8114687856729832,-0.020988901550949124,-0.29832503850811287
240,0.942,24.9569,314.113,-0.155248,86.9354,-174.714,-3.67754,-0.240542,0.598789,-0.357063,0.484649,0.0789965,-0.0213973,0.829664,-0.21379837571354288,0.6236050234544128,0.08220053436181596,0.819913550071808,-0.021170001851867792,-0.30027158654407693
241,0.952,25.1283,314.934,-0.0463999,87.1086,-175.128,-3.70245,-0.242403,0.603417,-0.359827,0.488421,0.0795109,-0.0215804,0.836147,-0.21526013634619245,0.6297408264523299,0.08275736152035851,0.8283556298862607,-0.021349209217593756,-0.30220296548357917
242,0.962,25.142,315.582,-0.105338,87.2957,-175.531,-3.71924,-0.244255,0.608021,-0.362578,0.492174,0.0800225,-0.021763,0.842599,-0.21671212961289787,0.63586873560289,0.0833114419081904,0.8367927866376992,-0.02152789453752446,-0.30411996708084776
243,0.972,25.2267,316.29,-0.0929131,87.4811,-175.934,-3.72837,-0.246098,0.612602,-0.365315,0.495907,0.0805305,-0.0219446,0.849017,-0.21815439969789752,0.6419868459410405,0.0838619039261943,0.845226436920524,-0.021705568938552466,-0.3060219866298324
244,0.982,25.2563,316.933,-0.137027,87.6667,-176.332,-3.73539,-0.247931,0.61716,-0.368038,0.499622,0.0810352,-0.0221253,0.855404,-0.21958621002819,0.6480981718329086,0.08440906709411689,0.8536561758006798,-0.021882330771332725,-0.3079091182644714
245,0.992,25.3144,317.598,-0.150736,87.8485,-176.729,-3.74011,-0.249754,0.621694,-0.370748,0.503317,0.0815363,-0.0223049,0.861759,-0.22100760836907307,0.654199159210602,0.08495260064859633,0.8620797346793749,-0.022057984930510588,-0.3097821454558224
246,1.0,25.2758,318.053,-0.248234,87.9955,-177.03,-3.75653,-0.251204,0.625299,-0.372902,0.506255,0.0819353,-0.0224477,0.866811,-0.22213632881685197,0.6590663427318919,0.08538558311051192,0.868804646493347,-0.022197625079718564,-0.311267274656147
