,Time,S11,S22,S33,S12,S13,S23,LE11,LE22,LE33,LE12,LE13,LE23,SDV_EPBAR,E11,E12,E13,E22,E23,E33
0,1e-05,0.652102,0.652102,0.0,0.0,0.0,-1.07332e-39,4.99999e-06,4.99999e-06,-4.2857e-06,0.0,0.0,0.0,0.0,5.000002500032963e-06,0.0,0.0,5.000002500032963e-06,0.0,-4.285690816452359e-06
1,2e-05,1.3042,1.3042,5.55112e-16,1.57453e-39,-7.43545e-18,-7.43545e-18,9.99995e-06,9.99995e-06,-8.57139e-06,0.0,0.0,0.0,0.0,9.999999999621423e-06,0.0,0.0,9.999999999621423e-06,0.0,-8.571353265707238e-06
2,3.5e-05,2.28234,2.28234,-3.33067e-16,4.72358e-39,7.43549e-18,7.43549e-18,1.74998e-05,1.74998e-05,-1.49999e-05,0.0,0.0,0.0,0.0,1.749995312239072e-05,0.0,0.0,1.749995312239072e-05,0.0,-1.4999787502079087e-05
3,5.75e-05,3.74954,3.74954,-2.33147e-15,4.72356e-39,7.43533e-18,7.43533e-18,2.87496e-05,2.87496e-05,-2.46425e-05,0.0,0.0,0.0,0.0,2.875001327362625e-05,0.0,0.0,2.875001327362625e-05,0.0,-2.464219637610121e-05
4,9.125e-05,5.95031,5.95031,-1.14353e-14,4.72354e-39,7.4351e-18,7.4351e-18,4.5624e-05,4.5624e-05,-3.91062e-05,0.0,0.0,0.0,0.0,4.56250407905312e-05,0.0,0.0,4.56250407905312e-05,0.0,-3.910543536256306e-05
5,0.00014188,9.25139,9.25139,-5.67324e-14,9.28955e-38,-5.20466e-17,-5.20466e-17,7.0935e-05,7.0935e-05,-6.08014e-05,0.0,0.0,0.0,0.0,7.093751594666742e-05,0.0,0.0,7.093751594666742e-05,0.0,-6.079955163229567e-05
6,0.00021781,14.2028,14.2028,-2.86771e-13,1.05492e-37,7.43702e-18,7.43702e-18,0.0001089,0.0001089,-9.33431e-05,0.0,0.0,0.0,0.0,0.00010890592982026881,0.0,0.0,0.00010890592982026881,0.0,-9.333874366834749e-05
7,0.00033172,21.6297,21.6297,-1.44762e-12,9.91942e-38,7.43623e-18,-5.20416e-17,0.000165846,0.000165846,-0.000142153,0.0,0.0,0.0,0.0,0.00016585975320815294,0.0,0.0,0.00016585975320815294,0.0,-0.00014214289674108205
8,0.00050258,32.7692,32.7692,-7.35578e-12,9.91951e-38,7.43505e-18,-5.20334e-17,0.000251258,0.000251258,-0.000215364,0.0,0.0,0.0,0.0,0.00025128956793518675,0.0,0.0,0.00025128956793518675,0.0,-0.00021534081083851575
9,0.00075887,49.4766,49.4766,-3.71986e-11,-5.93529e-37,-1.11507e-16,1.85859e-16,0.000379362,0.000379362,-0.000325167,0.0,0.0,0.0,0.0,0.0003794339668636848,0.0,0.0,0.0003794339668636848,0.0,-0.000325114138940763
10,0.0011433,74.5337,74.5337,-1.88246e-10,-5.93424e-37,-1.11467e-16,1.85793e-16,0.000571487,0.000571487,-0.000489846,0.0,0.0,0.0,0.0,0.0005716503298076603,0.0,0.0,0.0005716503298076603,0.0,-0.000489726045035388
11,0.00172,112.11,112.11,-9.52331e-10,-5.93266e-37,-1.11407e-16,1.85693e-16,0.000859606,0.000859606,-0.000736805,0.0,0.0,0.0,0.0,0.0008599755671241383,0.0,0.0,0.0008599755671241383,0.0,-0.0007365336258500221
12,0.0025849,130.705,130.335,-0.0466501,5.39213,-12.3987,-0.00410522,0.00129166,0.00129163,-0.00143979,3.39908e-12,0.000369354,1.84014e-08,0.000601645,0.0012924945520582654,3.3990588121923793e-12,0.00036942221958735644,0.0012924645132839085,1.840140018138925e-08,-0.0014387539996452148
13,0.0034499,129.141,128.602,-0.206471,8.98789,-21.7084,-0.0174172,0.00172373,0.00172347,-0.00231905,6.90478e-11,0.00102284,1.34936e-07,0.00155159,0.0017252164765284572,6.904787852590744e-11,0.001023363279227807,0.0017249560280061527,1.349360090330265e-07,-0.0023163630809832636
14,0.0040986,128.073,127.529,-0.121425,10.3884,-27.0988,-0.0213819,0.00204776,0.00204722,-0.00297588,4.1319e-10,0.00147248,5.60811e-07,0.00228021,0.002049858092394219,4.131899267179051e-10,0.0014735646309755879,0.0020493169856170557,5.608111572907859e-07,-0.002971456458177313
15,0.0047474,127.19,126.718,0.143556,11.1329,-31.825,-0.0211344,0.00237174,0.00237087,-0.00362981,1.18923e-09,0.00186223,1.2757e-06,0.00302402,0.0023745548001985473,1.1892300477711615e-09,0.0018639650271257135,0.0023736827347153877,1.2757008136521364e-06,-0.003623230203226857
16,0.0053961,126.103,125.73,-0.081241,11.5464,-35.7053,-0.0369382,0.00269564,0.00269442,-0.00428737,1.59667e-09,0.00221115,1.44098e-06,0.00378375,0.0026992765043394318,1.596669907399928e-09,0.0022135963949443394,0.0026980532119684764,1.4409810382698396e-06,-0.004278192349920218
17,0.0060448,125.494,125.232,-0.0696736,11.7901,-38.9625,-0.0436832,0.00301945,0.00301786,-0.00493944,2.33831e-09,0.002519,1.85107e-06,0.00455136,0.0030240131307104345,2.338309990079779e-09,0.002522175346172606,0.00302241832379746,1.8510717132436127e-06,-0.004927261026930085
18,0.0066936,125.446,125.3,0.286786,11.9481,-41.7375,-0.0385692,0.00334315,0.00334119,-0.00558485,3.79489e-09,0.00279028,2.7111e-06,0.0053245,0.0033487445587070397,3.79488995783106e-09,0.0027941764544627823,0.0033467779970948186,2.711103675112625e-06,-0.005569283717171913
19,0.0073423,124.969,124.92,-0.0882792,12.0675,-44.0552,-0.0577078,0.00366674,0.00366442,-0.0062371,4.05908e-09,0.00303752,2.66026e-06,0.00611113,0.0036734707151937496,4.059079961038492e-09,0.0030421379383849256,0.0036711421954427337,2.66026353856752e-06,-0.006217689667489257
20,0.007991,125.361,125.408,0.28449,12.1662,-46.1069,-0.0506361,0.00399022,0.00398755,-0.00687822,5.68097e-09,0.00325536,3.47283e-06,0.00689742,0.003998191527013084,5.68096991671041e-09,0.0032606644387556116,0.003995510855420603,3.4728360303049044e-06,-0.0068546191863464445
21,0.0086398,125.656,125.786,0.361522,12.2579,-47.882,-0.054027,0.00431358,0.00431057,-0.00752133,6.88149e-09,0.00345358,3.96209e-06,0.0076917,0.00432289687775711,6.8814900444635896e-09,0.0034595504786048004,0.004319873870387125,3.962097849141699e-06,-0.007493115578487752
22,0.0092885,126.026,126.228,0.361639,12.348,-49.4432,-0.0592896,0.00463682,0.00463349,-0.00816395,7.94262e-09,0.0036344,4.34157e-06,0.0084912,0.004647586684483285,7.942619895118241e-09,0.003641012440003921,0.004644241213589861,4.341579424638198e-06,-0.008130715463393723
23,0.010262,126.428,126.708,-0.0798622,12.4886,-51.4313,-0.0806635,0.00512147,0.00511767,-0.00913098,8.05986e-09,0.00387566,4.12205e-06,0.00970305,0.005134607145070191,8.059859890607868e-09,0.0038831800821732543,0.0051307876408202,4.122058495648062e-06,-0.009089419195273507
24,0.011235,127.638,127.978,-0.0718983,12.638,-52.9784,-0.0840441,0.00560588,0.00560162,-0.0100885,9.04864e-09,0.00410144,4.36613e-06,0.010911,0.005621622348111366,9.048640059461377e-09,0.004109862415777821,0.005617338409124928,4.366139531475355e-06,-0.010037781784074218
25,0.012208,129.383,129.786,0.472183,12.7892,-54.4173,-0.0681505,0.00609004,0.00608534,-0.0110386,1.19723e-08,0.00430692,5.49957e-06,0.0121197,0.006108621996149033,1.1972300040241635e-08,0.004316208109537589,0.0061038932967381054,5.49958512263693e-06,-0.010977898214571402
26,0.013181,130.419,130.849,0.210812,12.944,-55.7204,-0.100888,0.00657395,0.00656882,-0.011998,1.05334e-08,0.00449991,4.61496e-06,0.0133416,0.0065956058380916005,1.0533399930068299e-08,0.004510049798692739,0.0065904420158788835,4.61497064896399e-06,-0.01192631099266761
27,0.014154,131.611,132.075,0.0199201,13.1004,-56.868,-0.0920715,0.00705764,0.00705206,-0.0129553,1.21594e-08,0.00468391,5.11337e-06,0.0145647,0.0070826038352154175,1.215939993137738e-08,0.00469489665324474,0.0070769843299645085,5.113383073407363e-06,-0.012871741332720843
28,0.015154,132.934,133.427,-0.0275079,13.259,-58.0164,-0.0970111,0.00755444,0.00754843,-0.013937,1.27367e-08,0.00486056,5.15145e-06,0.0158251,0.007583046772533519,1.2736699916970906e-08,0.004872391683525601,0.0075769912166194775,5.151463268848744e-06,-0.013840329634897897
29,0.016154,134.382,134.904,0.0493646,13.4152,-59.0924,-0.0969687,0.00805099,0.00804454,-0.0149166,1.37159e-08,0.00502782,5.3546e-06,0.0170872,0.008083486370767279,1.3715899971344925e-08,0.005040480696650862,0.008076984253249542,5.3546143359284315e-06,-0.014805898635076642
30,0.017154,136.185,136.743,0.528351,13.5672,-60.1338,-0.0823765,0.00854728,0.00854041,-0.0158908,1.65946e-08,0.00518494,6.28198e-06,0.0183486,0.008583912292136953,1.6594600138475357e-08,0.005198405063191247,0.008576983344460665,6.281999731738708e-06,-0.015765207373469203
31,0.018154,137.16,137.727,0.113138,13.7196,-61.0893,-0.110819,0.00904333,0.00903604,-0.0168758,1.48623e-08,0.00533788,5.44286e-06,0.0196215,0.009084344451254278,1.4862300057316702e-08,0.005352151863979859,0.009076988253196472,5.442874812411347e-06,-0.01673420133633452
32,0.019154,139.001,139.603,0.639828,13.8671,-62.0237,-0.0840328,0.00953912,0.00953142,-0.0178484,1.88283e-08,0.00548223,6.72126e-06,0.0208867,0.009584762419251325,1.882830025223825e-08,0.005497284921827772,0.009576988646509799,6.721282587829336e-06,-0.017690060742336033
33,0.020154,139.761,140.364,0.0226646,14.0152,-62.8896,-0.118729,0.0100347,0.0100266,-0.0188352,1.61561e-08,0.00562434,5.59329e-06,0.0221658,0.010085216433068478,1.6156100235420467e-08,0.005640186294604721,0.010077034775951121,5.593305642426216e-06,-0.01865892607361963
34,0.021154,141.152,141.771,0.0946787,14.1595,-63.7341,-0.109441,0.01053,0.0105214,-0.0198128,1.75549e-08,0.00576048,5.92836e-06,0.0234393,0.010585635559334117,1.7554900200167367e-08,0.005777103469307487,0.01057694456023972,5.928377572850252e-06,-0.01961781632556714
35,0.022154,142.466,143.102,0.125582,14.3005,-64.5631,-0.109899,0.011025,0.0110161,-0.0207909,1.81767e-08,0.00589162,5.99072e-06,0.0247153,0.011085999278739767,1.817670014503392e-08,0.005909009727560699,0.011077000653390234,5.9907379443835396e-06,-0.02057625933645446
36,0.023154,143.747,144.398,0.145128,14.4385,-65.3665,-0.111366,0.0115198,0.0115105,-0.0217687,1.86997e-08,0.00601843,6.0216e-06,0.0259931,0.011586408422195493,1.8699700232716054e-08,0.006036577137324972,0.011577000712343022,6.021618129903317e-06,-0.021533471812630323
37,0.024154,145.012,145.677,0.168356,14.5737,-66.1456,-0.112573,0.0120144,0.0120046,-0.0227462,1.92209e-08,0.00614125,6.054e-06,0.0272722,0.01208686281196969,1.9220900204786062e-08,0.00616014613794591,0.012076944409314283,6.054018325540866e-06,-0.02248945553077053
38,0.025154,146.261,146.941,0.197172,14.7062,-66.9028,-0.113491,0.0125087,0.0124986,-0.0237233,1.9758e-08,0.00626035,6.09325e-06,0.0285527,0.012587261011483886,1.9758000124880937e-08,0.006279986947729466,0.012577033931794546,6.0932685639336626e-06,-0.023444114609125655
39,0.026154,147.916,148.62,0.708633,14.8341,-67.672,-0.100377,0.0130027,0.0129922,-0.0246942,2.24206e-08,0.00637346,6.79538e-06,0.0298301,0.01308760269264364,2.242060026524939e-08,0.006393813714404617,0.01307696532866176,6.795403088677432e-06,-0.024391792593530304
40,0.027154,148.537,149.242,0.0799273,14.9636,-68.3504,-0.127206,0.0134966,0.0134856,-0.0256788,1.98737e-08,0.00648797,5.8832e-06,0.0311192,0.013588090244840645,1.9873700241035408e-08,0.006509062468454507,0.01357694083716976,5.88321730599084e-06,-0.02535190369428386
41,0.028154,150.33,151.062,0.769691,15.0871,-69.0796,-0.0986789,0.0139901,0.0139788,-0.0266467,2.42567e-08,0.00659516,7.08447e-06,0.0323964,0.01408841941344452,2.4256700204006165e-08,0.006616955957308823,0.014076960279049366,7.0844950950110785e-06,-0.02629480919396976
42,0.029154,151.468,152.218,0.761093,15.2096,-69.7586,-0.102056,0.0144835,0.0144718,-0.027623,2.55424e-08,0.00670138,7.33307e-06,0.0336815,0.01458889409653441,2.554240041696687e-08,0.006723884489244325,0.014577023475916828,7.333096887052193e-06,-0.027244973673491324
43,0.030154,152.283,153.036,0.422717,15.3316,-70.4117,-0.120582,0.0149765,0.0149645,-0.0286031,2.4273e-08,0.0068061,6.83428e-06,0.0349709,0.015089209738996301,2.4273000276409107e-08,0.00682931413462784,0.015077028741565579,6.8343033536866216e-06,-0.028197903815096237
44,0.031154,153.247,154.004,0.256808,15.4517,-71.0513,-0.125954,0.0154694,0.0154569,-0.0295807,2.39764e-08,0.00690854,6.63108e-06,0.036259,0.015589670538908695,2.3976400198577608e-08,0.006932459012558345,0.015576975747369604,6.631101985732357e-06,-0.029147473319127593
45,0.032154,154.333,155.096,0.256195,15.5691,-71.6932,-0.127198,0.015962,0.0159491,-0.030556,2.40469e-08,0.0070079,6.53999e-06,0.0375464,0.016090073249684922,2.4046900248819725e-08,0.007032512792275236,0.016076965772283458,6.540011385780531e-06,-0.030093884196115694
46,0.033154,155.883,156.668,0.796421,15.682,-72.3552,-0.110838,0.0164543,0.0164411,-0.0315243,2.69939e-08,0.00710237,7.25313e-06,0.0388295,0.016590417542388325,2.6993900448246677e-08,0.007127651647571787,0.016576998637441553,7.253156304010133e-06,-0.031032589740414673
47,0.034154,156.353,157.135,0.149241,15.7967,-72.9354,-0.138219,0.0169464,0.0169328,-0.0325068,2.37621e-08,0.00719888,6.25425e-06,0.0401246,0.017090804797046832,2.3762100287427756e-08,0.007224854227667388,0.01707697245616191,6.254269557803838e-06,-0.031984132698972156
48,0.035154,158.0,158.805,0.817945,15.906,-73.5706,-0.110941,0.0174383,0.0174243,-0.0334727,2.80046e-08,0.00728917,7.30508e-06,0.0414073,0.017591234834603675,2.8004600416409176e-08,0.007315800665470773,0.017576988657039605,7.30510668223161e-06,-0.03291868780914897
49,0.036154,159.016,159.837,0.813819,16.0146,-74.1617,-0.113634,0.0179299,0.0179155,-0.0344466,2.90214e-08,0.00737907,7.46837e-06,0.0426972,0.018091605666721966,2.9021400393958174e-08,0.007406362426640722,0.018076945253155507,7.4683978883438584e-06,-0.033860069818715255
50,0.037154,159.746,160.57,0.512854,16.1228,-74.7314,-0.129327,0.0184213,0.0184065,-0.0354239,2.76666e-08,0.00746804,7.00414e-06,0.0439907,0.018592018823189393,2.766660034403401e-08,0.007495995357967633,0.01857694377286645,7.004164529034185e-06,-0.0348038171352395
51,0.038154,161.072,161.912,0.880281,16.2278,-75.3213,-0.115967,0.0189124,0.0188973,-0.0363925,3.03663e-08,0.00755315,7.6089e-06,0.0452779,0.01909237221535265,3.036630036312715e-08,0.007581746991241589,0.019076984036713318,7.608928947799853e-06,-0.03573825353735649
52,0.039154,161.52,162.355,0.298763,16.3338,-75.8564,-0.141938,0.0194033,0.0193878,-0.0373726,2.70965e-08,0.00763944,6.66381e-06,0.046575,0.019592767472840222,2.709650037679978e-08,0.007668694971506129,0.019576963907422362,6.6638322031575825e-06,-0.036682863493339934
53,0.040154,162.957,163.808,0.817851,16.4355,-76.4345,-0.120815,0.0198939,0.0198781,-0.0383386,3.04652e-08,0.00772081,7.43182e-06,0.0478614,0.02009310240668616,3.046520036242839e-08,0.00775069230923231,0.0200769850629956,7.431847615979592e-06,-0.037612978529314445
54,0.041154,163.424,164.273,0.293915,16.5382,-76.9579,-0.145104,0.0203843,0.0203681,-0.0393172,2.71815e-08,0.00780335,6.5094e-06,0.0491587,0.020593478746356864,2.7181500383832713e-08,0.007833875484297925,0.020576945265922797,6.509421186295938e-06,-0.038554309800012176
55,0.042154,164.346,165.199,0.274728,16.6388,-77.4912,-0.143603,0.0208745,0.0208579,-0.0402892,2.69579e-08,0.00788341,6.37055e-06,0.050451,0.021093896311963123,2.6957900356450182e-08,0.007914565894363346,0.021076946293969723,6.370570291958089e-06,-0.0394883809787524
56,0.043154,165.878,166.754,0.954926,16.735,-78.0603,-0.120234,0.0213644,0.0213475,-0.0412522,3.08436e-08,0.00795886,7.24906e-06,0.0517371,0.02159425276407201,3.084360056249125e-08,0.007990615917311095,0.02157698796708818,7.249086274585537e-06,-0.040412908436450734
57,0.044154,166.757,167.649,0.91777,16.8312,-78.5742,-0.122458,0.021854,0.0218368,-0.0422235,3.17095e-08,0.00803491,7.37251e-06,0.0530303,0.02209454777244968,3.170950058084543e-08,0.008067276518634037,0.02207696789741531,7.372537176975058e-06,-0.04134450287640601
58,0.045154,167.373,168.267,0.608785,16.9275,-79.0733,-0.13742,0.0223435,0.0223259,-0.043198,3.01046e-08,0.00811034,6.89787e-06,0.0543265,0.022594985525731914,3.010460036811935e-08,0.008143317901166514,0.022576988012365184,6.897893790380749e-06,-0.04227825761246273
59,0.046154,168.573,169.482,0.953566,17.021,-79.5958,-0.12502,0.0228327,0.0228147,-0.0441639,3.2643e-08,0.00818248,7.42522e-06,0.0556164,0.02309536137460455,3.26430005248568e-08,0.008216047983462316,0.023076945823840234,7.425247567027782e-06,-0.04320287442785775
60,0.047154,168.958,169.863,0.415563,17.1157,-80.0694,-0.148744,0.0233216,0.0233033,-0.0451405,2.9293e-08,0.00825584,6.54732e-06,0.0569153,0.023595674988478033,2.9293000469721164e-08,0.008290013425761744,0.02357694335902072,6.547341433682519e-06,-0.04413682637772487
61,0.048154,169.791,170.697,0.377652,17.2086,-80.5586,-0.148734,0.0238103,0.0237917,-0.0461105,2.88077e-08,0.00832691,6.36017e-06,0.0582092,0.024096028446254136,2.880770044733083e-08,0.008361675143484737,0.024076980437272022,6.36019022581813e-06,-0.045063564115671584
62,0.049154,171.198,172.124,0.995142,17.2976,-81.0802,-0.127329,0.0242988,0.0242798,-0.0470719,3.24446e-08,0.00839399,7.1376e-06,0.059497,0.024596421567219195,3.244460056173182e-08,0.008429318313380119,0.024576954420147734,7.137625472664055e-06,-0.04598119882744478
63,0.050154,171.996,172.936,0.943557,17.3867,-81.5529,-0.130249,0.024787,0.0247677,-0.0480412,3.29777e-08,0.00846167,7.18455e-06,0.0607914,0.025096751660866667,3.297770057031357e-08,0.00849757111929228,0.02507696748447752,7.184575808949489e-06,-0.04690548122559024
64,0.051154,172.607,173.55,0.701734,17.4757,-82.015,-0.142034,0.025275,0.0252554,-0.0490125,3.16266e-08,0.0085287,6.80042e-06,0.0620878,0.0255971209558552,3.1626600449641273e-08,0.008565172977135438,0.025577019449279925,6.800443122845223e-06,-0.04783077249122758
65,0.052154,173.662,174.616,0.955312,17.5626,-82.4941,-0.133075,0.0257627,0.0257428,-0.0499773,3.35173e-08,0.00859317,7.15982e-06,0.0633794,0.026097426661375156,3.35173004906153e-08,0.008630197269872797,0.026077007525755702,7.159845631488082e-06,-0.048748982346268455
66,0.053154,174.12,175.073,0.566715,17.65,-82.9373,-0.150526,0.0262503,0.02623,-0.0509497,3.09055e-08,0.00865825,6.49985e-06,0.0646774,0.026597873765703994,3.090550038109541e-08,0.0086958410591369,0.026577034040390357,6.499871123999412e-06,-0.049673529248279835
67,0.054154,174.896,175.851,0.532555,17.7362,-83.3903,-0.151018,0.0267375,0.0267169,-0.0519172,3.04294e-08,0.00872157,6.32887e-06,0.0659719,0.02709815410819827,3.042940055486554e-08,0.008759713701979255,0.02707699610415193,6.328890027385015e-06,-0.05059252547262261
68,0.055154,176.103,177.075,0.992838,17.8194,-83.867,-0.135414,0.0272246,0.0272036,-0.0528783,3.31751e-08,0.00878183,6.87613e-06,0.0672616,0.027598575486796895,3.3175100444537975e-08,0.008820503393901946,0.02757699614329545,6.876153640700267e-06,-0.05150456264672176
69,0.056154,176.427,177.398,0.485509,17.904,-84.2864,-0.156544,0.0277113,0.0276901,-0.0538509,2.97426e-08,0.00884381,6.05531e-06,0.0685609,0.028098829440410977,2.9742600382576256e-08,0.008883032026444582,0.02807703397625949,6.0553283334208174e-06,-0.05242662083950733
70,0.057154,177.221,178.195,0.501135,17.987,-84.7261,-0.154582,0.0281979,0.0281763,-0.0548166,2.94499e-08,0.00890365,5.93405e-06,0.0698548,0.028599224066955697,2.9449900518230265e-08,0.0089434053934343,0.028577006563665686,5.934067606405691e-06,-0.05334125075162932
71,0.058154,178.463,179.456,1.02791,18.0671,-85.1904,-0.136322,0.0286842,0.0286623,-0.0557757,3.26309e-08,0.00896042,6.56906e-06,0.0711439,0.029099553514864596,3.263090042615602e-08,0.009000684736417242,0.029077016481424023,6.569081576257574e-06,-0.0542487558943765
72,0.059154,178.726,179.717,0.48185,18.1489,-85.5926,-0.159109,0.0291703,0.029148,-0.0567476,2.88368e-08,0.00901922,5.69239e-06,0.0724435,0.02959992041214976,2.883680050302928e-08,0.009060015720993464,0.029576960589927426,5.692406201740496e-06,-0.0551674849997954
73,0.060154,179.515,180.51,0.51901,18.2292,-86.0185,-0.156403,0.0296561,0.0296335,-0.0577118,2.86389e-08,0.00907583,5.59862e-06,0.0737371,0.030100221566797147,2.8638900362309982e-08,0.009117140225377351,0.030076941564854742,5.598635672399155e-06,-0.05607805345516137
74,0.061154,180.738,181.751,1.05008,18.3066,-86.468,-0.137959,0.0301417,0.0301188,-0.0586696,3.19063e-08,0.00912952,6.24334e-06,0.075026,0.030600559706658315,3.1906300490547324e-08,0.00917132117911068,0.030576959224067668,6.243359489621625e-06,-0.05698170906580713
75,0.062154,180.989,182.001,0.516432,18.3857,-86.8566,-0.160013,0.0306271,0.0306039,-0.0596402,2.8195e-08,0.00918523,5.4059e-06,0.0763253,0.03110093464951391,2.8195000334463316e-08,0.009227543679476868,0.031077013385317986,5.405914611955609e-06,-0.05789655857070253
76,0.063154,181.762,182.779,0.561392,18.4634,-87.269,-0.156952,0.0311122,0.0310887,-0.0606031,2.80966e-08,0.00923884,5.3385e-06,0.0776186,0.03160124305290468,2.809660037961237e-08,0.009281649818395632,0.031577000708541414,5.3385142497752724e-06,-0.05880327336655922
77,0.064154,182.938,183.972,1.06439,18.5385,-87.7033,-0.139603,0.0315971,0.0315733,-0.06156,3.1251e-08,0.00928975,5.9507e-06,0.0789075,0.03210158779443972,3.125100045409113e-08,0.009333033655152256,0.03207702406895985,5.950717705482944e-06,-0.0597034737447143
78,0.065154,183.203,184.237,0.570575,18.6152,-88.0809,-0.160156,0.0320817,0.0320576,-0.0625288,2.77772e-08,0.0093425,5.18181e-06,0.0802061,0.032601865431366006,2.7777200317657957e-08,0.0093862773769684,0.03257698002627962,5.181823425681742e-06,-0.06061399189314354
79,0.066154,183.955,184.994,0.616024,18.6906,-88.4806,-0.157515,0.0325662,0.0325417,-0.0634905,2.77075e-08,0.0093933,5.12448e-06,0.0814991,0.03310228225135314,2.7707500294127385e-08,0.009437555502312511,0.03307697155549527,5.124493130059804e-06,-0.061516965152853875
80,0.067154,185.072,186.127,1.07603,18.7636,-88.8998,-0.141712,0.0330503,0.0330256,-0.0644467,3.06289e-08,0.00944165,5.68076e-06,0.082788,0.033602528140939114,3.062890052696332e-08,0.009486362988032626,0.03357699847378681,5.680776135497112e-06,-0.062413913731317994
81,0.068154,185.362,186.418,0.632482,18.8379,-89.2677,-0.160234,0.0335343,0.0335092,-0.0654136,2.74694e-08,0.00949161,4.99259e-06,0.0840857,0.03410291284789024,2.746940030995404e-08,0.009536798186588147,0.034076957190522617,4.992602463005369e-06,-0.06332002758679423
82,0.069154,186.273,186.959,0.622406,18.8605,-89.6475,-0.100516,0.034018,0.0339926,-0.0663764,-8.98475e-09,0.0095387,-2.41474e-06,0.08539,0.03460322941864269,-8.984750055063273e-09,0.009584338393740177,0.03457695083035506,-2.4147370845106764e-06,-0.06422142905993244
83,0.070154,187.552,188.066,1.14028,18.9141,-90.0456,-0.0563678,0.0345014,0.0344758,-0.067332,-4.20263e-08,0.00958283,-9.04554e-06,0.086688,0.03510347751996856,-4.202629910743383e-08,0.009628892333668926,0.03507697921012376,-9.045499089199716e-06,-0.06511523193529267
84,0.071154,187.841,188.263,0.62715,18.9788,-90.383,-0.0142335,0.0349847,0.0349587,-0.0683002,-7.46599e-08,0.0096291,-1.55121e-05,0.0879959,0.03560386393929216,-7.465989726451738e-08,0.009675608943297664,0.035576938588860685,-1.551197968796547e-05,-0.06601994932337096
85,0.072154,188.604,189.019,0.695087,19.0505,-90.7503,0.0248142,0.0354676,0.0354415,-0.0692606,-1.02067e-07,0.0096736,-2.0863e-05,0.0892968,0.03610407781210756,-1.0206699474490932e-07,0.009720540507615505,0.0360770358485758,-2.086278236912431e-05,-0.06691651316517044
86,0.073154,189.633,190.085,1.09402,19.123,-91.1368,0.0554327,0.0359504,0.0359239,-0.0702165,-1.25776e-07,0.00971631,-2.54222e-05,0.0905934,0.036604429636086344,-1.2577599206586854e-07,0.00976366659285155,0.036576959982675517,-2.5421876858611192e-05,-0.06780802150594023
87,0.074154,189.97,190.456,0.740372,19.1937,-91.4796,0.0809776,0.0364329,0.0364062,-0.0711813,-1.49344e-07,0.0097607,-2.98956e-05,0.0918972,0.03710471195678977,-1.493439888422543e-07,0.009808490996881858,0.03707702163064819,-2.9895153131009877e-05,-0.06870696660594389
88,0.075154,191.11,191.663,1.29328,19.2645,-91.869,0.11,0.0369152,0.0368882,-0.0721343,-1.66681e-07,0.00980216,-3.31048e-05,0.0931907,0.03760502820093059,-1.6668098612449e-07,0.00985035852482663,0.037577013243372814,-3.3104252042170934e-05,-0.06959406609672181
89,0.076154,191.115,191.706,0.60142,19.333,-92.1933,0.126805,0.0373973,0.03737,-0.0731024,-1.86707e-07,0.00984651,-3.67908e-05,0.0944967,0.038105378184698946,-1.86706982541196e-07,0.009895146381390552,0.03807703829471576,-3.679012322677089e-05,-0.07049435622558264
90,0.077154,191.81,192.463,0.687259,19.4032,-92.5571,0.143696,0.0378791,0.0378515,-0.0740604,-2.01785e-07,0.00988877,-3.94816e-05,0.0957935,0.03860565786360537,-2.0178497961431674e-07,0.009937825452078997,0.03857699274302884,-3.94808206118924e-05,-0.07138439623508341
91,0.078154,192.844,193.565,1.1577,19.4712,-92.9411,0.162653,0.0383607,0.0383328,-0.0750131,-2.12966e-07,0.00992899,-4.13972e-05,0.0970859,0.039105970814120816,-2.129659772975856e-07,0.009978445968291672,0.0390769801619566,-4.1396343147703796e-05,-0.07226866703151336
92,0.079154,193.083,193.847,0.749788,19.5376,-93.2746,0.170544,0.0388421,0.0388139,-0.0759763,-2.26053e-07,0.00997103,-4.36494e-05,0.0983869,0.039606316852099255,-2.2605297445021932e-07,0.010020906354671233,0.03957700036732836,-4.364844737880791e-05,-0.07316182763622858
93,0.080154,194.258,195.087,1.38186,19.6039,-93.659,0.189633,0.0393232,0.0392947,-0.076926,-2.32636e-07,0.0100097,-4.46467e-05,0.0996763,0.04010659178262199,-2.3263597292988436e-07,0.010059964618306827,0.04007694916716553,-4.464570335094287e-05,-0.07404162800918879
94,0.081154,194.713,195.583,1.22038,19.6686,-93.9996,0.195286,0.0398041,0.0397754,-0.0778852,-2.41287e-07,0.0100496,-4.6021e-05,0.100974,0.04060689933191863,-2.412869708479093e-07,0.01010026681491838,0.040577034342472285,-4.601994105002394e-05,-0.07492938144498873
95,0.082154,195.159,196.067,1.05495,19.7337,-94.3377,0.199494,0.0402847,0.0402557,-0.0788439,-2.48864e-07,0.0100891,-4.71774e-05,0.10227,0.04110713520478915,-2.488639689879335e-07,0.010140166563472608,0.0410769435356495,-4.717628716399691e-05,-0.07581582166398404
96,0.083154,195.84,196.788,1.15548,19.7983,-94.6884,0.20608,0.0407652,0.0407359,-0.0797989,-2.54154e-07,0.0101274,-4.78951e-05,0.103564,0.04160750738804486,-2.5415396764927323e-07,0.01017885567274357,0.0415769887351789,-4.789395304805044e-05,-0.07669799624888352
97,0.084154,196.281,197.258,0.994784,19.8625,-95.0232,0.206731,0.0412454,0.0412158,-0.0807567,-2.59855e-07,0.0101657,-4.86813e-05,0.10486,0.042107807425517896,-2.598549662113925e-07,0.010217546263835864,0.0420769614909402,-4.868011508474268e-05,-0.07758191153347271
98,0.085154,197.063,198.072,1.21047,19.9254,-95.3737,0.216342,0.0417253,0.0416955,-0.0817094,-2.62642e-07,0.0102025,-4.89207e-05,0.106151,0.042608034982303256,-2.6264196550940255e-07,0.010254722953585427,0.04257696572579506,-4.891950340202289e-05,-0.07846028076873279
99,0.086154,197.4,198.428,0.941869,19.9882,-95.6981,0.210642,0.0422051,0.042175,-0.0826676,-2.68141e-07,0.0102398,-4.96594e-05,0.107447,0.04310839834505953,-2.6814096409921717e-07,0.010292406157538903,0.04307700125479785,-4.9658166992427866e-05,-0.07934287720821653
100,0.087154,198.314,199.372,1.31017,20.0503,-96.0501,0.220308,0.0426846,0.0426542,-0.0836174,-2.68988e-07,0.0102749,-4.95372e-05,0.108736,0.04360868875710677,-2.6898796379182244e-07,0.010327868043347621,0.04357696353519436,-4.953597305312751e-05,-0.08021690220326783
101,0.088154,198.469,199.539,0.84979,20.1125,-96.3596,0.209521,0.0431639,0.0431332,-0.0845772,-2.74207e-07,0.0103114,-5.0216e-05,0.110033,0.04410901029410619,-2.7420696235846975e-07,0.010364745683543841,0.044076956639516274,-5.0214739197751435e-05,-0.08109928649657183
102,0.089154,199.609,200.706,1.46898,20.1725,-96.7176,0.227997,0.0436429,0.043612,-0.0855229,-2.723e-07,0.0103447,-4.95918e-05,0.111319,0.04460925830987206,-2.722999629112266e-07,0.010398391389773165,0.0445769803824867,-4.959057034703562e-05,-0.08196788012210077
103,0.090154,200.018,201.128,1.29116,20.2327,-97.0334,0.222326,0.0441217,0.0440906,-0.0864782,-2.74867e-07,0.010379,-4.97873e-05,0.112613,0.04510953697990705,-2.748669621910338e-07,0.010433048648966325,0.04507703457872192,-4.978606063299473e-05,-0.08284445744239954
104,0.091154,200.456,201.574,1.14631,20.2926,-97.3485,0.218474,0.0446003,0.0445689,-0.0874326,-2.77436e-07,0.0104129,-4.99824e-05,0.113906,0.04560984611873242,-2.7743596153761985e-07,0.010467302909922038,0.045577014485023826,-4.998115090060207e-05,-0.08371937311604516
105,0.092154,201.08,202.211,1.21247,20.3527,-97.6727,0.21465,0.0450786,0.045047,-0.088384,-2.79022e-07,0.0104456,-5.00014e-05,0.115196,0.046110080929749664,-2.790219610915301e-07,0.010500345730974248,0.046077024373488484,-5.0000149950824024e-05,-0.08459070794475954
106,0.093154,201.562,202.754,1.13876,20.412,-97.9765,0.297113,0.0455568,0.0455248,-0.0893365,-2.60227e-07,0.0104789,-4.63238e-05,0.116486,0.046610450399255265,-2.602269660867407e-07,0.010533995952760167,0.04657695940070128,-4.632272706939222e-05,-0.08546222017185368
107,0.094154,202.049,203.455,1.21992,20.5,-98.3131,0.183849,0.0460346,0.0460025,-0.0902864,-2.5364e-07,0.0105108,-4.48886e-05,0.117771,0.04711064035832124,-2.536399678065848e-07,0.010566232501401318,0.04707702864623675,-4.4887592521858366e-05,-0.08633052714122713
108,0.095154,202.429,203.948,1.10868,20.5719,-98.6262,0.148121,0.0465123,0.0464799,-0.0912381,-2.37327e-07,0.0105432,-4.17139e-05,0.119057,0.04761096460415226,-2.3732697185252505e-07,0.010598975377766218,0.04757702255876306,-4.171302998734472e-05,-0.08719965273953123
109,0.096154,203.081,204.662,1.26817,20.6352,-98.952,0.131469,0.0469897,0.046957,-0.0921861,-2.19077e-07,0.0105743,-3.82244e-05,0.12034,0.04811121347855951,-2.190769760046507e-07,0.01063040549463623,0.04807694080224012,-3.8223669456938225e-05,-0.08806457742965512
110,0.097154,203.432,205.037,1.07974,20.6955,-99.2576,0.101707,0.0474669,0.047434,-0.0931378,-2.04978e-07,0.0106057,-3.55051e-05,0.121627,0.04861149150647548,-2.0497797903473725e-07,0.01066213978759456,0.04857699275591232,-3.55044697013529e-05,-0.08893205351734379
111,0.098154,204.205,205.821,1.34238,20.7533,-99.5803,0.0906199,0.0479439,0.0479107,-0.0940835,-1.88633e-07,0.0106353,-3.24147e-05,0.122909,0.049111798501656034,-1.8863298223426028e-07,0.010692055829687463,0.049076968568126045,-3.241417464927565e-05,-0.08979324319660897
112,0.099154,204.45,206.056,1.02517,20.8115,-99.8731,0.0583933,0.0484207,0.0483872,-0.0950361,-1.77937e-07,0.0106655,-3.03495e-05,0.124196,0.04961213427775202,-1.779369841470313e-07,0.010722579190673986,0.04957697286021068,-3.0349039458532623e-05,-0.09065989330215807
113,0.1002,205.378,206.98,1.44938,20.8681,-100.196,0.0570749,0.0488972,0.0488635,-0.0959788,-1.62335e-07,0.0106934,-2.74404e-05,0.125476,0.050112393637062214,-1.6233498678630554e-07,0.01075077874401531,0.050077005445690936,-2.744002351562358e-05,-0.09151672429000168
114,0.1012,205.434,207.014,0.925319,20.9262,-100.472,0.0195043,0.0493735,0.0493395,-0.0969331,-1.55222e-07,0.0107228,-2.6046e-05,0.126765,0.0506126813042016,-1.552219879297212e-07,0.010780495253740918,0.05057696108028442,-2.6045660805884552e-05,-0.09238327633893839
115,0.1022,206.035,207.596,0.992888,20.9836,-100.772,0.00779241,0.0498495,0.0498153,-0.0978794,-1.44767e-07,0.0107505,-2.40802e-05,0.128048,0.05111289198119873,-1.4476698950716127e-07,0.010808494261243862,0.05107694453499789,-2.407991007435939e-05,-0.09324174779470729
116,0.1032,206.874,208.425,1.32793,21.0396,-101.084,0.005539,0.0503253,0.0502909,-0.0988221,-1.32852e-07,0.0107767,-2.1877e-05,0.129328,0.05161313049250804,-1.32851991185845e-07,0.010834977790726397,0.05157695562303033,-2.187676070020128e-05,-0.0940961460151859
117,0.1042,207.157,208.69,1.05661,21.0964,-101.362,-0.0181952,0.0508009,0.0507663,-0.0997718,-1.26078e-07,0.0108038,-2.05861e-05,0.130613,0.052113396651233046,-1.260779920464472e-07,0.010862371789811531,0.05207699415747569,-2.058588810771589e-05,-0.09495607450363952
118,0.1052,208.064,209.59,1.46654,21.1516,-101.669,-0.0144811,0.0512763,0.0512414,-0.100713,-1.14511e-07,0.0108288,-1.84751e-05,0.131892,0.05261369027037177,-1.1451099346526661e-07,0.010887643665003388,0.052576954693621,-1.8474929336376178e-05,-0.0958075011021059
119,0.1062,208.144,209.651,0.982571,21.2081,-101.933,-0.0453083,0.0517514,0.0517163,-0.101664,-1.10801e-07,0.0108552,-1.77396e-05,0.133179,0.05311390585142162,-1.1080099382443365e-07,0.010914331451073345,0.053076942202042066,-1.7739442654263193e-05,-0.09666697942184077
120,0.1072,209.251,210.756,1.61635,21.2624,-102.244,-0.0311377,0.0522264,0.052191,-0.102601,-9.86013e-08,0.0108787,-1.55466e-05,0.134454,0.05361425377992646,-9.860129512873073e-08,0.010938088217003372,0.05357695649550842,-1.5546479152250825e-05,-0.09751300603675461
121,0.1082,209.597,211.091,1.427,21.3172,-102.516,-0.0499519,0.052701,0.0526655,-0.103548,-9.31709e-08,0.0109033,-1.45347e-05,0.135738,0.05411441778430026,-9.317089566529546e-08,0.010962957599865542,0.05407699738668481,-1.4534594371728993e-05,-0.09836725666852197
122,0.1092,209.996,211.477,1.29652,21.3722,-102.788,-0.0640529,0.0531755,0.0531397,-0.104494,-8.79673e-08,0.0109276,-1.35695e-05,0.137021,0.05461471376137261,-8.79672961140443e-08,0.010987524298219364,0.054576959230430155,-1.3569407934732602e-05,-0.09921979792811841
123,0.1102,210.554,212.025,1.34467,21.4265,-103.068,-0.0712435,0.0536497,0.0536137,-0.105437,-8.20989e-08,0.010951,-1.24983e-05,0.138301,0.05511493065068929,-8.209889668098214e-08,0.011011181683078242,0.055076947196892156,-1.2498221896528605e-05,-0.10006883327558891
124,0.1112,210.981,212.441,1.25408,21.4808,-103.34,-0.0829255,0.0541238,0.0540875,-0.106382,-7.7803e-08,0.0109744,-1.17035e-05,0.139583,0.05561527923757126,-7.780299693394e-08,0.011034839621526515,0.05557696109841337,-1.1703431514353824e-05,-0.10091886652417503
125,0.1122,211.593,213.046,1.36779,21.5343,-103.618,-0.0860856,0.0545975,0.0545611,-0.107323,-7.22638e-08,0.0109968,-1.07033e-05,0.140862,0.0561154426496977,-7.22637973904483e-08,0.011057487055584403,0.056077000747231986,-1.070324271990053e-05,-0.10176450393597392
126,0.1132,211.975,213.419,1.23673,21.5878,-103.884,-0.0981973,0.0550711,0.0550344,-0.108267,-6.9088e-08,0.0110194,-1.01115e-05,0.142143,0.05661573738377834,-6.908799765614759e-08,0.011080337212997726,0.05657696029778014,-1.0111448878968865e-05,-0.10261203814517261
127,0.1142,212.639,214.08,1.41436,21.6404,-104.162,-0.0978396,0.0555444,0.0555075,-0.109207,-6.37337e-08,0.0110409,-9.15542e-06,0.143421,0.0571159519787281,-6.373369798584605e-08,0.011102075673935285,0.05707694511978101,-9.155378089320543e-06,-0.1034551864875114
128,0.1152,212.947,214.379,1.2094,21.6932,-104.421,-0.111894,0.0560175,0.0559804,-0.110151,-6.18264e-08,0.0110629,-8.7882e-06,0.144702,0.05761619185802225,-6.182639811225243e-08,0.011124320164288548,0.05757695502515214,-8.788161383832538e-06,-0.10430112544545844
129,0.1162,213.69,215.121,1.47974,21.7449,-104.7,-0.107129,0.0564904,0.0564531,-0.111089,-5.63133e-08,0.0110834,-7.81653e-06,0.145978,0.05811645683348221,-5.631329846877975e-08,0.01114504842531594,0.05807698982570675,-7.816499451029912e-06,-0.10514089707532392
130,0.1172,213.887,215.309,1.16143,21.7972,-104.951,-0.124721,0.0569631,0.0569255,-0.112034,-5.58936e-08,0.0111048,-7.70724e-06,0.14726,0.05861674671682571,-5.589359841629005e-08,0.01116668716088598,0.058576943475454835,-7.707210299301437e-06,-0.10598613948764601
131,0.1182,214.751,216.177,1.57111,21.8479,-105.232,-0.113885,0.0574355,0.0573978,-0.112969,-4.97489e-08,0.0111243,-6.63959e-06,0.148534,0.059116955407965355,-4.974889877829014e-08,0.011186405103534858,0.059077027451393205,-6.639567957988923e-06,-0.10682165178435754
132,0.1192,214.785,216.2,1.08241,21.8998,-105.473,-0.137375,0.0579077,0.0578698,-0.113915,-5.12133e-08,0.0111453,-6.8511e-06,0.149816,0.059617188530054266,-5.121329871293767e-08,0.011207640241010175,0.05957702979962165,-6.851076531311229e-06,-0.10766619896796847
133,0.1202,215.836,217.258,1.70029,21.9495,-105.76,-0.117716,0.0583797,0.0583415,-0.114847,-4.37581e-08,0.0111636,-5.57404e-06,0.151087,0.060117445894491084,-4.375809903311989e-08,0.011226145510149221,0.06007695018153081,-5.574024465104799e-06,-0.10849746663962379
134,0.1212,215.63,217.038,0.958398,22.0011,-105.987,-0.150549,0.0588515,0.0588131,-0.115796,-4.77587e-08,0.0111845,-6.21114e-06,0.152372,0.060617727312570535,-4.775869888451467e-08,0.011247280357448819,0.06057700037380398,-6.211120710863938e-06,-0.10934310122670621
135,0.1222,216.238,217.643,1.102,22.0516,-106.251,-0.147433,0.059323,0.0592844,-0.116733,-4.5311e-08,0.0112034,-5.77416e-06,0.153647,0.0611179264836863,-4.5310998952885484e-08,0.011266393111662554,0.061076968122225406,-5.774143329584369e-06,-0.11017725587837235
136,0.1232,217.031,218.44,1.45344,22.1008,-106.524,-0.138135,0.0597943,0.0597555,-0.117667,-4.1052e-08,0.0112212,-5.04037e-06,0.154919,0.061618149230669106,-4.1051999133401296e-08,0.01128439381366575,0.06157695924556994,-5.040357297314557e-06,-0.1110079623210839
137,0.1242,217.28,218.686,1.21323,22.1504,-106.767,-0.15025,0.0602654,0.0602264,-0.118607,-4.13793e-08,0.0112399,-5.06878e-06,0.156197,0.06211839536449659,-4.137929909830973e-08,0.011303305008649067,0.0620769735548079,-5.068767153781906e-06,-0.1118432222028547
138,0.1252,218.087,219.5,1.58328,22.1988,-107.036,-0.13911,0.0607363,0.0606971,-0.11954,-3.67962e-08,0.011257,-4.28791e-06,0.157469,0.0626186646960436,-3.6796199309740985e-08,0.011320598443023355,0.06257701086080791,-4.287900806976275e-06,-0.11267148603138055
139,0.1262,218.169,219.576,1.16961,22.2481,-107.27,-0.158042,0.0612069,0.0611675,-0.120482,-3.88456e-08,0.0112754,-4.60258e-06,0.158748,0.06311885072419088,-3.884559929279163e-08,0.011339206913232092,0.06307696466663293,-4.6025694081519575e-06,-0.11350695592343929
140,0.1272,219.115,220.531,1.69547,22.2958,-107.542,-0.140554,0.0616773,0.0616377,-0.121412,-3.31896e-08,0.0112915,-3.65121e-06,0.160017,0.0636190594714452,-3.318959940212807e-08,0.01135548960553856,0.06357694099064148,-3.6512033343427674e-06,-0.11433101120932876
141,0.1282,219.002,220.41,1.07605,22.3449,-107.764,-0.167004,0.0621475,0.0621077,-0.122356,-3.7189e-08,0.0113096,-4.28636e-06,0.161297,0.06411929074836542,-3.7188999324477834e-08,0.011373795305566592,0.06407693964338623,-4.286350813620388e-06,-0.11516668823313347
142,0.1292,219.569,220.975,1.19619,22.3932,-108.018,-0.163927,0.0626175,0.0625775,-0.123291,-3.57285e-08,0.0113262,-4.02594e-06,0.162569,0.06461954436540851,-3.5728499381271206e-08,0.011390584249916458,0.06457696043531813,-4.025931895967894e-06,-0.11599362072845021
143,0.1302,220.291,221.703,1.49029,22.4404,-108.278,-0.155557,0.0630873,0.0630471,-0.124222,-3.26688e-08,0.0113418,-3.5066e-06,0.16384,0.06511982013292772,-3.266879944341383e-08,0.011406362066097353,0.06507700317678489,-3.506593851843043e-06,-0.11681624767528975
144,0.1312,220.561,221.973,1.29415,22.4879,-108.514,-0.164959,0.0635568,0.0635164,-0.12516,-3.34211e-08,0.0113582,-3.61033e-06,0.165114,0.06562001129916828,-3.3421099443486924e-08,0.011422949266449933,0.06557696112033118,-3.6103234827278285e-06,-0.11764428562446017
145,0.1322,221.287,222.706,1.59594,22.5345,-108.77,-0.155449,0.0640261,0.0639855,-0.12609,-3.00984e-08,0.0113731,-3.05217e-06,0.166383,0.06612022413623242,-3.009839955048221e-08,0.011438019580667591,0.06607694053379554,-3.0521653421322625e-06,-0.11846449498236145
146,0.1332,221.427,222.843,1.2651,22.5817,-108.998,-0.170086,0.0644952,0.0644544,-0.127028,-3.21254e-08,0.0113891,-3.3638e-06,0.167659,0.06662045845416076,-3.212539945174342e-08,0.01145420271844566,0.06657694122721325,-3.3637943424036365e-06,-0.11929098760043144
147,0.1342,222.257,223.681,1.68411,22.6276,-109.257,-0.15625,0.0649641,0.0649231,-0.127957,-2.79914e-08,0.0114032,-2.67787e-06,0.168926,0.06712071406289155,-2.7991399642601777e-08,0.011468464323248106,0.06707696301051769,-2.6778664145021835e-06,-0.12010878634661681
148,0.1352,222.25,223.67,1.19944,22.6747,-109.475,-0.176599,0.0654327,0.0653916,-0.128896,-3.14459e-08,0.0114189,-3.22001e-06,0.170202,0.06762088401016753,-3.144589955095256e-08,0.011484344502797006,0.0675770056935403,-3.2200048157848826e-06,-0.12093461640834413
149,0.1362,223.238,224.669,1.79525,22.7198,-109.739,-0.155551,0.0659011,0.0658598,-0.129822,-2.58946e-08,0.0114321,-2.30936e-06,0.171466,0.0681210747677683,-2.589459968671548e-08,0.011497696184265438,0.0680769622783095,-2.30935733347426e-06,-0.12174825418112156
150,0.1372,223.031,224.454,1.09946,22.7667,-109.946,-0.18375,0.0663694,0.0663278,-0.130763,-3.12627e-08,0.0114476,-3.15825e-06,0.172744,0.0686213930074544,-3.126269954023542e-08,0.011513374520063069,0.06857693928214914,-3.158245012735428e-06,-0.12257430035825678
151,0.1382,223.601,225.023,1.24575,22.8127,-110.189,-0.178685,0.0668373,0.0667956,-0.131693,-3.02579e-08,0.0114613,-2.9806e-06,0.174012,0.069121517952349,-3.025789951927038e-08,0.01152723234821984,0.0690769365145798,-2.9805955580330945e-06,-0.1233899269337797
152,0.1392,224.305,225.735,1.54441,22.8575,-110.439,-0.16937,0.0673051,0.0672632,-0.132621,-2.77572e-08,0.0114742,-2.56468e-06,0.175278,0.06962176999827796,-2.7757199649869335e-08,0.011540281133681551,0.06957695378502127,-2.564676711225289e-06,-0.12420304373703484
153,0.1402,224.563,225.993,1.35856,22.9028,-110.664,-0.177493,0.0677727,0.0677306,-0.133554,-2.89795e-08,0.0114878,-2.74569e-06,0.176549,0.07012204209242934,-2.89794995778081e-08,0.011554038175052739,0.0700769909027914,-2.745686230598565e-06,-0.12501978122994106
154,0.1412,225.257,226.695,1.6476,22.9471,-110.908,-0.167846,0.06824,0.0681977,-0.134481,-2.62577e-08,0.0115002,-2.29701e-06,0.177815,0.07062222698179643,-2.6257699681231372e-08,0.011566581522894692,0.07057694061940833,-2.2970073618733267e-06,-0.12583051206094364
155,0.1422,225.395,226.832,1.33796,22.992,-111.126,-0.180928,0.0687071,0.0686647,-0.135415,-2.85935e-08,0.0115134,-2.65561e-06,0.179086,0.07112243143767571,-2.8593499568074776e-08,0.011579934289898786,0.0710770168093795,-2.6556064738336715e-06,-0.12664660518786153
156,0.1432,226.176,227.621,1.72566,23.0358,-111.372,-0.167767,0.069174,0.0691314,-0.13634,-2.51276e-08,0.0115251,-2.09084e-06,0.180349,0.07162265526908018,-2.5127599667662537e-08,0.011591769844367938,0.0715770051163207,-2.090837814217039e-06,-0.12745408356173993
157,0.1442,226.188,227.631,1.28464,23.0806,-111.582,-0.185665,0.0696407,0.0695979,-0.137275,-2.86282e-08,0.011538,-2.6336e-06,0.181621,0.07212289828492224,-2.8628199588709435e-08,0.011604819462368798,0.07207701240684039,-2.6335965320756216e-06,-0.12826953271172492
158,0.1452,227.101,228.554,1.81967,23.1237,-111.833,-0.166565,0.0701071,0.0700641,-0.138198,-2.39421e-08,0.0115488,-1.87795e-06,0.182882,0.07262305303170269,-2.394209974720951e-08,0.011615744853415988,0.07257693123204811,-1.8779482366948486e-06,-0.1290737687210176
159,0.1462,226.949,228.397,1.20532,23.1684,-112.033,-0.191065,0.0705733,0.0705302,-0.139134,-2.90155e-08,0.0115616,-2.66808e-06,0.184155,0.07312322648039782,-2.9015499558582292e-08,0.011628693617822039,0.07307697586604456,-2.668076440670575e-06,-0.12988857428500356
160,0.1472,227.485,228.933,1.33615,23.2122,-112.265,-0.186156,0.0710394,0.0709961,-0.140061,-2.83421e-08,0.0115728,-2.54793e-06,0.185419,0.07362352580195974,-2.834209955615563e-08,0.011640023922640186,0.07357703890974099,-2.547926754026264e-06,-0.13069479383614535
161,0.1482,228.135,229.588,1.59454,23.2551,-112.502,-0.177934,0.0715052,0.0714617,-0.140985,-2.64279e-08,0.0115833,-2.23318e-06,0.186682,0.07412373613021961,-2.642789964646397e-08,0.011650646198658077,0.07407701276393852,-2.233177506472117e-06,-0.13149766086495107
162,0.1492,228.401,229.857,1.43917,23.2982,-112.718,-0.184398,0.0719707,0.0719271,-0.141914,-2.76644e-08,0.0115944,-2.41516e-06,0.187948,0.07462385712351849,-2.7664399659954597e-08,0.011661875583153902,0.07457700454474159,-2.4151570835462266e-06,-0.13230412487747278
163,0.1502,229.033,230.496,1.68152,23.3407,-112.95,-0.176388,0.0724361,0.0723923,-0.142838,-2.55861e-08,0.0116045,-2.07625e-06,0.18921,0.07512410346491816,-2.5586099683394536e-08,0.011672093419697216,0.07507701406045175,-2.076247844540191e-06,-0.13310550557118883
164,0.1512,229.205,230.669,1.42858,23.3836,-113.16,-0.186985,0.0729012,0.0728573,-0.143768,-2.7703e-08,0.0116152,-2.39613e-06,0.190477,0.07562425998782296,-2.7702999561007857e-08,0.011682918369010364,0.07557704111927133,-2.396127129267178e-06,-0.133911342678672
165,0.1522,229.9,231.371,1.74288,23.4256,-113.393,-0.176206,0.0733662,0.073322,-0.14469,-2.50285e-08,0.0116246,-1.96529e-06,0.191737,0.0761245415751719,-2.5028499717194563e-08,0.011692428233139207,0.07607697792159884,-1.9652880688392216e-06,-0.1347095084097779
166,0.1532,229.979,231.448,1.39275,23.4683,-113.598,-0.190208,0.0738309,0.0737865,-0.14562,-2.79908e-08,0.011635,-2.41655e-06,0.193004,0.07662473286008575,-2.7990799567056968e-08,0.011702949889105474,0.0765769317831384,-2.416547080108522e-06,-0.1355138544880572
167,0.1542,230.769,232.248,1.81441,23.5097,-113.833,-0.175508,0.0742954,0.0742509,-0.14654,-2.4476e-08,0.0116437,-1.85619e-06,0.194262,0.07712494121289537,-2.447599967148051e-08,0.011711751743057386,0.07707701021948399,-1.8561882773049376e-06,-0.1363088160035597
168,0.1552,230.728,232.203,1.33906,23.5523,-114.03,-0.194104,0.0747597,0.074715,-0.147471,-2.85248e-08,0.0116538,-2.47549e-06,0.195529,0.07762516644140094,-2.8524799633444786e-08,0.011721970083352629,0.07757699767304116,-2.4754869359933096e-06,-0.13711253830507608
169,0.1562,231.647,233.133,1.90376,23.5931,-114.27,-0.17379,0.0752237,0.0751789,-0.148389,-2.37975e-08,0.0116618,-1.72846e-06,0.196785,0.07812530054076783,-2.379749974856793e-08,0.01173006389148834,0.07807700160920783,-1.7284585062116165e-06,-0.1379043055181578
170,0.1572,231.451,232.931,1.26472,23.6355,-114.458,-0.198557,0.0756876,0.0756426,-0.149321,-2.9319e-08,0.0116718,-2.57475e-06,0.198053,0.0786255588936422,-2.9318999561489534e-08,0.011740181242714032,0.0785770218355839,-2.5747466853021095e-06,-0.13870740440320195
171,0.1582,231.976,233.405,1.39879,23.6776,-114.691,-0.291435,0.0761512,0.076106,-0.150243,-5.4576e-08,0.0116794,-6.47606e-06,0.199314,0.07912572563243714,-5.4575998498229694e-08,0.01174787049731063,0.07907695025197037,-6.476039030367531e-06,-0.13950115020329912
172,0.1592,232.623,234.077,1.65953,23.7196,-114.898,-0.183273,0.0766146,0.0765693,-0.151162,-3.40862e-08,0.0116877,-3.28123e-06,0.200571,0.0796259083770865,-3.4086199418581486e-08,0.011756268039485374,0.07957700243116506,-3.281224616791256e-06,-0.140291585385665
173,0.1602,232.865,234.338,1.51274,23.7604,-115.106,-0.181312,0.0770778,0.0770323,-0.152087,-3.32686e-08,0.011696,-3.14003e-06,0.201832,0.08012610693488931,-3.326859943086902e-08,0.01176466565136014,0.08007696231507233,-3.1400250700697185e-06,-0.14108644798855408
174,0.1612,233.622,234.9,1.75056,23.7625,-115.308,-0.03543,0.0775408,0.0774951,-0.153007,-3.13765e-08,0.0117035,-2.83404e-06,0.203094,0.08062632111304668,-3.137649950968324e-08,0.011772253914808628,0.08057693761859319,-2.8340359841116936e-06,-0.14187628507563477
175,0.1622,233.872,234.98,1.51129,23.7835,-115.516,-0.116038,0.0780035,0.0779578,-0.153932,-7.83713e-08,0.01171,-1.00602e-05,0.204362,0.08112644260601032,-7.83712968965844e-08,0.011778830455832834,0.08107703625652696,-1.0060149396307061e-05,-0.14266968250905598
176,0.1632,234.59,235.61,1.79525,23.8165,-115.725,-0.0869849,0.0784661,0.0784201,-0.15485,-1.01365e-07,0.0117159,-1.35637e-05,0.205622,0.08162668739605894,-1.013649948422568e-07,0.011784799968542536,0.08157693371278207,-1.356360801341161e-05,-0.14345635060461137
177,0.1642,234.729,235.699,1.48481,23.8534,-115.91,-0.0591083,0.0789284,0.0788823,-0.155776,-1.23754e-07,0.0117226,-1.69581e-05,0.206889,0.0821268390147809,-1.2375399238706564e-07,0.011791578949411852,0.08207695411735805,-1.695795621226015e-05,-0.14424914290446667
178,0.1652,235.46,236.429,1.84344,23.894,-116.125,-0.0306903,0.0793905,0.0793443,-0.156692,-1.41482e-07,0.011728,-1.96248e-05,0.208147,0.08262700538162848,-1.4148199001251527e-07,0.011797042638690192,0.08257698916936329,-1.962460743487604e-05,-0.14503265178771374
179,0.1662,235.488,236.457,1.44789,23.9336,-116.306,-0.00898121,0.0798524,0.0798061,-0.157618,-1.60572e-07,0.0117348,-2.2486e-05,0.209413,0.08312718630330518,-1.6057198715113685e-07,0.01180392288197285,0.08307703867550598,-2.2485747191769434e-05,-0.1458239851082851
180,0.1672,236.286,237.287,1.90774,23.9746,-116.527,0.0161065,0.0803141,0.0802676,-0.158533,-1.74513e-07,0.0117399,-2.45506e-05,0.21067,0.08362738158641725,-1.7451298472970223e-07,0.011809083095138062,0.08357699408469177,-2.4550298636460965e-05,-0.14660519870218747
181,0.1682,236.193,237.211,1.3995,24.014,-116.705,0.0295853,0.0807756,0.0807289,-0.159459,-1.91322e-07,0.0117468,-2.70405e-05,0.211935,0.08412759103747214,-1.9132198170179748e-07,0.011816064601897658,0.0840769634611338,-2.7040134409017647e-05,-0.14739507651831862
182,0.1692,237.094,238.16,1.98716,24.0548,-116.933,0.0526518,0.0812369,0.08119,-0.160371,-2.01255e-07,0.0117515,-2.84757e-05,0.213189,0.08462781446288026,-2.0125497979250895e-07,0.011820820148576772,0.08457694661124249,-2.8475294571062015e-05,-0.1481722977417853
183,0.1702,236.862,237.947,1.33816,24.0929,-117.105,0.0626435,0.0816979,0.0816509,-0.161298,-2.15678e-07,0.0117586,-3.05829e-05,0.214455,0.08512794315615402,-2.1567797670041244e-07,0.011828004101902767,0.08507694334133076,-3.058243234788094e-05,-0.14896157613472272
184,0.1712,237.362,238.485,1.49665,24.1329,-117.315,0.0767349,0.0821588,0.0821116,-0.162215,-2.25556e-07,0.0117642,-3.19931e-05,0.215711,0.08562819389908283,-2.2555597456452858e-07,0.011833670354591375,0.08557695345761474,-3.1992588226281704e-05,-0.1497416206643294
185,0.1722,237.919,239.081,1.71899,24.1718,-117.528,0.0909943,0.0826194,0.0825721,-0.16313,-2.33674e-07,0.0117693,-3.31309e-05,0.216967,0.0861283494221674,-2.3367397272711088e-07,0.011838830719469007,0.08607697676621262,-3.313035117780139e-05,-0.15051925126116916
186,0.1732,238.174,239.366,1.6115,24.2098,-117.724,0.100062,0.0830798,0.0830324,-0.16405,-2.42289e-07,0.011775,-3.43378e-05,0.218225,0.086628518044223,-2.422889706643616e-07,0.011844598217241487,0.08657701307314536,-3.433721046453009e-05,-0.15130041415997741
187,0.1742,238.689,239.916,1.78975,24.248,-117.934,0.111341,0.08354,0.0834924,-0.164965,-2.48534e-07,0.0117799,-3.51822e-05,0.21948,0.08712869957116887,-2.485339690716515e-07,0.011849556267919947,0.08707695347663602,-3.518158111370795e-05,-0.1520766191131001
188,0.1752,238.882,240.134,1.61778,24.2856,-118.127,0.11675,0.084,0.0839523,-0.165884,-2.55716e-07,0.0117853,-3.61633e-05,0.220738,0.0876288938088261,-2.5571596729001556e-07,0.011855020270276517,0.08757701514790739,-3.616264611572273e-05,-0.15285550274828696
189,0.1762,239.424,240.708,1.82843,24.3236,-118.336,0.126272,0.0844598,0.0844119,-0.166798,-2.60136e-07,0.0117898,-3.67253e-05,0.221991,0.08812910056291967,-2.6013596621243806e-07,0.011859573628112852,0.08807698042728984,-3.672462563442114e-05,-0.1536294390759947
190,0.1772,239.57,240.874,1.60749,24.361,-118.526,0.128711,0.0849193,0.0848713,-0.167717,-2.66098e-07,0.011795,-3.75153e-05,0.223248,0.08862921077615038,-2.660979645519035e-07,0.011864835311576005,0.0885769578281137,-3.751459630996212e-05,-0.15440689632516036
191,0.1782,240.155,241.489,1.86761,24.3988,-118.737,0.137171,0.0853787,0.0853305,-0.168629,-2.6887e-07,0.011799,-3.78243e-05,0.2245,0.08912944192987915,-2.6886996384867246e-07,0.011868882779012324,0.0890769471559123,-3.782358467019353e-05,-0.15517772568409638
192,0.1792,240.248,241.597,1.59044,24.436,-118.923,0.136818,0.0858378,0.0857895,-0.169548,-2.73909e-07,0.0118039,-3.84706e-05,0.225757,0.08962957605367272,-2.739089625114488e-07,0.011873840948685377,0.08957694821612172,-3.846986001598829e-05,-0.15595376071148015
193,0.1802,240.888,242.265,1.91181,24.4736,-119.135,0.144807,0.0862967,0.0862483,-0.170459,-2.75188e-07,0.0118075,-3.85527e-05,0.227007,0.09012972181579171,-2.751879620843667e-07,0.01187748370106978,0.09007696081408234,-3.855195685420476e-05,-0.15672233669595637
194,0.1812,240.916,242.305,1.56696,24.5105,-119.316,0.141694,0.0867555,0.0867069,-0.171378,-2.79595e-07,0.0118121,-3.91005e-05,0.228263,0.09062998808446743,-2.7959496096130465e-07,0.0118821383482004,0.09057698475503795,-3.909973558546831e-05,-0.15749695287787957
195,0.1822,241.623,243.037,1.96246,24.548,-119.53,0.149804,0.087214,0.0871653,-0.172287,-2.79496e-07,0.0118152,-3.89749e-05,0.229511,0.09113015658887158,-2.794959609309089e-07,0.011885275187691446,0.09107701984413596,-3.8974140488479136e-05,-0.1582624401810253
196,0.1832,241.575,242.997,1.53618,24.5847,-119.706,0.143856,0.0876723,0.0876234,-0.173206,-2.83546e-07,0.0118195,-3.9467e-05,0.230767,0.0916303361470272,-2.8354595982271746e-07,0.011889626303729584,0.09157695672872701,-3.9466221188222406e-05,-0.15903564165800232
197,0.1842,242.363,243.809,2.02076,24.622,-119.921,0.152711,0.0881304,0.0880814,-0.174113,-2.82138e-07,0.011822,-3.91461e-05,0.232013,0.09213052656388387,-2.821379602169216e-07,0.011892156030957501,0.09207701347916353,-3.9145333801449134e-05,-0.15979805052633045
198,0.1852,242.224,243.674,1.49701,24.6585,-120.092,0.143739,0.0885882,0.0885391,-0.175032,-2.86102e-07,0.0118262,-3.96238e-05,0.233269,0.09263061838122777,-2.8610195912381897e-07,0.011896405986937753,0.09257697153490607,-3.9623014987610894e-05,-0.1605698414256599
199,0.1862,243.108,244.582,2.08795,24.6956,-120.31,0.154013,0.0890459,0.0889966,-0.175937,-2.83412e-07,0.0118281,-3.91129e-05,0.234513,0.09313082987992982,-2.834119597894258e-07,0.011898328591935625,0.09307693985841659,-3.911213510054967e-05,-0.16132918206570346
200,0.1872,242.86,244.334,1.44825,24.7319,-120.474,0.141708,0.0895034,0.089454,-0.176857,-2.87557e-07,0.011832,-3.96166e-05,0.235769,0.09363105165160523,-2.875569586890947e-07,0.011902275003112583,0.09357702761205844,-3.961581527289759e-05,-0.16210040440153162
201,0.1882,243.86,245.358,2.16543,24.7687,-120.695,0.154147,0.0899606,0.0899111,-0.17776,-2.83566e-07,0.0118333,-3.89145e-05,0.237011,0.09413117408769733,-2.8356595982437227e-07,0.01190359047692513,0.0940770159350055,-3.8913742840707144e-05,-0.1628566862237244
202,0.1892,243.484,244.978,1.38856,24.8048,-120.852,0.138066,0.0904176,0.090368,-0.178681,-2.88166e-07,0.0118371,-3.94852e-05,0.238268,0.09463130630576289,-2.8816595842862114e-07,0.011907435717875003,0.09457701393943196,-3.948442046974865e-05,-0.16362734027504666
203,0.1902,244.006,245.512,1.59009,24.842,-121.05,0.140652,0.0908745,0.0908247,-0.179589,-2.87169e-07,0.0118392,-3.92271e-05,0.239513,0.09513155762332492,-2.871689587236048e-07,0.011909560725721136,0.09507702142971786,-3.922633062736214e-05,-0.16438642197483233
204,0.1912,244.554,246.072,1.8206,24.8782,-121.249,0.14327,0.0913311,0.0912812,-0.180496,-2.85594e-07,0.0118408,-3.88852e-05,0.240758,0.09563170886837558,-2.8559395925942255e-07,0.011911179782313708,0.09557703821014729,-3.8884443980369277e-05,-0.16514397988565488
205,0.1922,244.803,246.328,1.72494,24.9141,-121.432,0.139511,0.0917875,0.0917374,-0.181408,-2.8565e-07,0.0118427,-3.87849e-05,0.242006,0.09613186930823359,-2.8564995924185155e-07,0.011913102415381793,0.0960769544772091,-3.878414787550355e-05,-0.16590502148827901
206,0.1932,245.292,246.828,1.8909,24.9499,-121.625,0.140763,0.0922437,0.0921935,-0.182315,-2.83992e-07,0.0118441,-3.84328e-05,0.243251,0.09663203874698634,-2.839919597263929e-07,0.011914519094716747,0.09657698920039648,-3.843206146936229e-05,-0.16666120265379125
207,0.1942,245.486,247.026,1.73739,24.9856,-121.803,0.135133,0.0926997,0.0926494,-0.183226,-2.84202e-07,0.0118458,-3.83571e-05,0.244498,0.09713221698862706,-2.842019596327461e-07,0.01191623935086139,0.09707703262601086,-3.835636437587997e-05,-0.16742002860047456
208,0.1952,245.991,247.541,1.92204,25.0212,-121.996,0.136675,0.0931554,0.093105,-0.184132,-2.82209e-07,0.0118467,-3.79581e-05,0.245742,0.09763229407381857,-2.822089602005917e-07,0.011917150075886784,0.09757697480025462,-3.7957379600439545e-05,-0.16817400445192754
209,0.1962,246.151,247.703,1.734,25.0568,-122.171,0.129888,0.093611,0.0935605,-0.185043,-2.82516e-07,0.0118481,-3.78985e-05,0.246989,0.09813248928281504,-2.825159600705618e-07,0.011918566760888538,0.098077034992339,-3.78977818609183e-05,-0.16893145286373512
210,0.1972,246.684,248.245,1.9507,25.0922,-122.363,0.13219,0.0940664,0.0940157,-0.185948,-2.80172e-07,0.0118486,-3.74503e-05,0.248231,0.09863269270610919,-2.801719607425923e-07,0.01191907272029824,0.09857699344057735,-3.74495987462975e-05,-0.16968322966857885
211,0.1982,246.809,248.371,1.72663,25.1275,-122.535,0.124235,0.0945215,0.0944707,-0.186858,-2.80656e-07,0.0118497,-3.74187e-05,0.249477,0.09913279423403076,-2.806559605827985e-07,0.011920185831890473,0.09907695970629282,-3.7417999929179047e-05,-0.17043847424118175
212,0.1992,247.375,248.946,1.98121,25.1626,-122.727,0.127604,0.0949765,0.0949256,-0.187762,-2.77965e-07,0.0118498,-3.69222e-05,0.250718,0.09963301344664832,-2.7796496138154936e-07,0.011920287023914122,0.09957704355070995,-3.6921518383969953e-05,-0.17118805899711032
213,0.2002,247.461,249.031,1.71646,25.1978,-122.897,0.118346,0.0954312,0.0953802,-0.188672,-2.78724e-07,0.0118506,-3.69327e-05,0.251963,0.10013313027080595,-2.7872396113348685e-07,0.011921096560467692,0.10007702491186099,-3.693201799626067e-05,-0.17194193479790987
214,0.2012,248.068,249.643,2.01476,25.2321,-123.088,0.12487,0.0958857,0.0958346,-0.189574,-2.75681e-07,0.0118502,-3.63874e-05,0.253203,0.10063325442311832,-2.75680961947522e-07,0.011920691792109972,0.10057701350078507,-3.6386737986560114e-05,-0.17268850641830358
215,0.2022,248.107,249.681,1.70281,25.2672,-123.254,0.1116,0.0963401,0.0962888,-0.190484,-2.77371e-07,0.0118508,-3.65363e-05,0.254448,0.10113349582016617,-2.773709615322417e-07,0.01192129894470706,0.1010770091207267,-3.653563255756609e-05,-0.17344101743302165
216,0.2032,248.757,250.337,2.05007,25.3014,-123.447,0.119169,0.0967942,0.0967428,-0.191385,-2.74082e-07,0.01185,-3.59578e-05,0.255686,0.10163363408841763,-2.740819624591495e-07,0.011920489407991841,0.10157701157483645,-3.595715352611162e-05,-0.1741854116763496
217,0.2042,248.749,250.324,1.68763,25.3359,-123.609,0.108032,0.0972481,0.0971966,-0.192294,-2.75781e-07,0.0118504,-3.6109e-05,0.25693,0.10213377909425247,-2.7578096195579604e-07,0.011920894176268515,0.10207702066617119,-3.610834807787899e-05,-0.17493573606303714
218,0.2052,249.448,251.029,2.08851,25.3696,-123.802,0.116998,0.0977018,0.0976502,-0.193194,-2.72309e-07,0.0118492,-3.55065e-05,0.258167,0.10263393064062654,-2.723089629341757e-07,0.011919679871924105,0.10257703619769476,-3.550586965173075e-05,-0.1756779598497763
219,0.2062,249.383,250.96,1.66835,25.4042,-123.961,0.101284,0.0981553,0.0981035,-0.194103,-2.75072e-07,0.0118492,-3.58145e-05,0.259411,0.10313408853040151,-2.7507196220799557e-07,0.011919679871924105,0.10307694766457676,-3.5813858668465315e-05,-0.17642692812661953
220,0.2072,250.135,251.721,2.1296,25.438,-124.155,0.112737,0.0986086,0.0985567,-0.195001,-2.70744e-07,0.0118477,-3.50894e-05,0.260646,0.10363425256634651,-2.7074396335979856e-07,0.011918161993542675,0.10357697543499289,-3.508878437419316e-05,-0.17716616477822822
221,0.2082,250.012,251.591,1.64823,25.4719,-124.309,0.0999575,0.0990617,0.0990097,-0.195911,-2.73178e-07,0.0118475,-3.535e-05,0.26189,0.10413442255113736,-2.7317796269521466e-07,0.011917959609930584,0.10407700905392869,-3.534937519611425e-05,-0.17791460297725104
222,0.2092,250.741,252.461,2.1844,25.5275,-124.514,0.0355561,0.0995145,0.0994624,-0.196807,-2.69324e-07,0.0118455,-3.46974e-05,0.26312,0.10463448782390228,-2.6932396368639644e-07,0.011915935776035225,0.1045769378662762,-3.469679805212511e-05,-0.17865086159986376
223,0.2102,250.553,252.237,1.59774,25.5506,-124.651,0.1278,0.0999672,0.099915,-0.197717,-2.48758e-07,0.011846,-3.16023e-05,0.264364,0.1051346690640218,-2.487579691123898e-07,0.011916441734129535,0.10507698253992803,-3.160180065253648e-05,-0.17939794933933118
224,0.2112,250.927,252.727,1.74523,25.6004,-124.843,0.0520193,0.10042,0.100367,-0.198617,-2.45908e-07,0.0118447,-3.11035e-05,0.265597,0.10563518735096245,-2.4590796976475815e-07,0.011915126243610352,0.10557659023887012,-3.110301629116741e-05,-0.18013615894077595
225,0.2122,251.369,253.243,1.9321,25.6418,-125.029,0.0379492,0.100872,0.10082,-0.199516,-2.31686e-07,0.0118433,-2.89509e-05,0.26683,0.10613504741550939,-2.3168597318434792e-07,0.01191370956342519,0.10607752988851238,-2.895048092677044e-05,-0.18087288532575962
226,0.2132,251.583,253.497,1.8546,25.679,-125.203,0.0174222,0.101324,0.101271,-0.200419,-2.20208e-07,0.0118422,-2.72036e-05,0.268065,0.10663513346787501,-2.202079757429587e-07,0.011912596458957037,0.10657648336004266,-2.720322998539526e-05,-0.1816122232489995
227,0.2142,252.003,253.94,1.98723,25.7138,-125.384,0.00394056,0.101776,0.101723,-0.201318,-2.0823e-07,0.0118406,-2.53902e-05,0.269297,0.10713544561022847,-2.082299783712216e-07,0.011910977400097833,0.10707676898655549,-2.5389877671644356e-05,-0.18234762324846965
228,0.2152,252.199,254.141,1.87045,25.7477,-125.554,-0.0168888,0.102228,0.102175,-0.20222,-1.992e-07,0.0118392,-2.40102e-05,0.270532,0.10763598394478624,-1.99199980177589e-07,0.011909560725721136,0.10757728079328444,-2.400991175743883e-05,-0.1830848131696634
229,0.2162,252.639,254.581,2.01052,25.7809,-125.732,-0.0272731,0.102679,0.102626,-0.203118,-1.88835e-07,0.0118371,-2.24421e-05,0.271763,0.10813564043761525,-1.8883498220656492e-07,0.011907435717875003,0.10807691080502102,-2.244184817801198e-05,-0.1838180737241727
230,0.2172,252.824,254.757,1.87366,25.8142,-125.898,-0.0462102,0.10313,0.103077,-0.204019,-1.81536e-07,0.0118353,-2.13228e-05,0.272997,0.10863552232634532,-1.8153598346781763e-07,0.011905614286130017,0.1085767662007131,-2.1322572670734452e-05,-0.18455312245056987
231,0.2182,253.283,255.208,2.02974,25.8472,-126.074,-0.0537904,0.103581,0.103528,-0.204917,-1.72479e-07,0.0118327,-1.99535e-05,0.274228,0.10913562971265334,-1.7247898509431536e-07,0.011902983334953099,0.10907684708203202,-1.995330093029768e-05,-0.18528506505519293
232,0.2192,253.453,255.365,1.87443,25.8806,-126.237,-0.0713541,0.104032,0.103979,-0.205817,-1.66675e-07,0.0118305,-1.90586e-05,0.275461,0.10963596269826126,-1.6667498614619802e-07,0.011900757150838492,0.10957715355069442,-1.9058418386008746e-05,-0.1860179786360603
233,0.2202,253.931,255.832,2.04955,25.9135,-126.412,-0.0764249,0.104483,0.104429,-0.206714,-1.58694e-07,0.0118275,-1.78529e-05,0.27669,0.11013652138493768,-1.5869398739543072e-07,0.011897721453120624,0.11007657563133266,-1.7852740637924747e-05,-0.18674779313848477
234,0.2212,254.082,255.968,1.8738,25.9468,-126.571,-0.0928712,0.104933,0.10488,-0.207614,-1.54175e-07,0.011825,-1.71503e-05,0.277923,0.1106361952377457,-1.5417498810954555e-07,0.01189519171197917,0.11057733307925899,-1.7150152934464202e-05,-0.18747939085630427
235,0.2222,254.578,256.455,2.06995,25.9797,-126.745,-0.095595,0.105383,0.10533,-0.208509,-1.47054e-07,0.0118216,-1.60752e-05,0.279151,0.11113609399438706,-1.4705398920789037e-07,0.011891751274176077,0.11107720534196841,-1.6075070794707713e-05,-0.18820627147389069
236,0.2232,254.707,256.57,1.87223,26.0129,-126.902,-0.111299,0.105833,0.10578,-0.209409,-1.43673e-07,0.0118187,-1.55423e-05,0.280383,0.11163621775609145,-1.4367298972750575e-07,0.01188881679235232,0.11157730259781573,-1.5542179219063534e-05,-0.18893655715171487
237,0.2242,255.223,257.078,2.09111,26.0455,-127.074,-0.111866,0.106283,0.106229,-0.210303,-1.37238e-07,0.011815,-1.45718e-05,0.28161,0.11213656662413363,-1.372379906383614e-07,0.011885072810656538,0.11207651287100173,-1.4571693831788579e-05,-0.18966132385063517
238,0.2252,255.329,257.171,1.86982,26.0785,-127.228,-0.127105,0.106733,0.106679,-0.211202,-1.34864e-07,0.0118119,-1.41882e-05,0.282841,0.11263714069983433,-1.348639908638205e-07,0.01188193597179299,0.11257705991643219,-1.418809934794485e-05,-0.19038949096033553
239,0.2262,255.865,257.701,2.11306,26.1109,-127.4,-0.125667,0.107182,0.107128,-0.212095,-1.28968e-07,0.0118078,-1.33001e-05,0.284067,0.1131368269471762,-1.2896799173045537e-07,0.011877787264360284,0.11307671918144546,-1.330001155408489e-05,-0.19111215042943142
240,0.2272,255.945,257.769,1.86661,26.1437,-127.552,-0.140683,0.107631,0.107577,-0.212994,-1.27489e-07,0.0118044,-1.30489e-05,0.285298,0.11363673760401949,-1.274889919189448e-07,0.011874346885732301,0.11357660284384208,-1.3048814863525493e-05,-0.19183901383214153
241,0.2282,256.503,258.323,2.13576,26.1758,-127.723,-0.137365,0.10808,0.108026,-0.213886,-1.22006e-07,0.0118001,-1.22241e-05,0.286522,0.11413687277114626,-1.2200599253109345e-07,0.011869995835395386,0.11407671100439898,-1.222402528600064e-05,-0.19255957201507679
242,0.2292,256.555,258.365,1.86263,26.2083,-127.873,-0.152369,0.108529,0.108475,-0.214784,-1.21328e-07,0.0117964,-1.2091e-05,0.287752,0.11463723254938474,-1.2132799265263117e-07,0.011866251923337234,0.11457704376393885,-1.2090926904129162e-05,-0.19328432805524132
243,0.2302,257.137,258.943,2.15919,26.2401,-128.044,-0.147272,0.108978,0.108923,-0.215674,-1.16149e-07,0.0117918,-1.13132e-05,0.288976,0.11513781703960757,-1.1614899320111505e-07,0.011861597349283715,0.1150764861462854,-1.1313136005997038e-05,-0.19400198559829418
244,0.2312,257.16,258.957,1.85794,26.2723,-128.192,-0.162447,0.109426,0.109372,-0.216572,-1.16196e-07,0.0117879,-1.12865e-05,0.290205,0.11563751070466477,-1.1619599327161723e-07,0.011857651096749411,0.11557726790565703,-1.1286436307655912e-05,-0.19472544693247096
245,0.2322,257.766,259.562,2.18328,26.3038,-128.363,-0.155655,0.109874,0.10982,-0.217462,-1.11226e-07,0.011783,-1.05418e-05,0.291427,0.11613742828263662,-1.112259938595983e-07,0.011852693006406234,0.11607715848880851,-1.0541744435377254e-05,-0.19544182245030894
246,0.2332,257.759,259.547,1.85258,26.3358,-128.509,-0.17116,0.110322,0.110268,-0.218359,-1.11933e-07,0.0117789,-1.06114e-05,0.292656,0.11663756987385865,-1.1193299376266452e-07,0.011848544418869622,0.11657727307311383,-1.0611343699284959e-05,-0.19616318755495343
247,0.2342,258.39,260.178,2.20796,26.367,-128.68,-0.16274,0.11077,0.110715,-0.219248,-1.07093e-07,0.0117737,-9.888e-06,0.293877,0.11713793557871122,-1.0709299425037955e-07,0.011843282820118706,0.11707649468189452,-9.887951113896065e-06,-0.19687748093076818
248,0.2352,258.352,260.133,1.84663,26.3987,-128.824,-0.17871,0.111218,0.111163,-0.220145,-1.08405e-07,0.0117694,-1.00456e-05,0.295105,0.11763852549761977,-1.0840499409248139e-07,0.011838931903357164,0.11757705706911481,-1.004554954309178e-05,-0.19759755882715502
249,0.2362,259.011,260.792,2.23314,26.4296,-128.995,-0.168724,0.111665,0.11161,-0.221032,-1.03627e-07,0.0117639,-9.33344e-06,0.296325,0.11813822159227416,-1.036269946519397e-07,0.011833366804535617,0.11807672568123961,-9.333396443600428e-06,-0.19830897423309946
250,0.2372,258.941,260.715,1.84017,26.4611,-129.137,-0.185273,0.112112,0.112057,-0.221928,-1.05497e-07,0.0117595,-9.57186e-06,0.297552,0.118638141101012,-1.0549699447359728e-07,0.01182891474751635,0.11857661769516059,-9.5718141899237e-06,-0.19902696768308625
251,0.2382,259.626,261.404,2.25871,26.4917,-129.309,-0.17377,0.112559,0.112504,-0.222815,-1.00725e-07,0.0117537,-8.86258e-06,0.29877,0.11913828412372207,-1.0072499490032527e-07,0.011823046156829609,0.11907673321076073,-8.862540727405666e-06,-0.19973711576551667
252,0.2392,259.524,261.294,1.8333,26.523,-129.448,-0.190995,0.113006,0.112951,-0.223711,-1.03113e-07,0.011749,-9.17575e-06,0.299997,0.11963865076033708,-1.0311299469822899e-07,0.011818290599688419,0.11957707232796766,-9.175707902930874e-06,-0.2004538301737866
253,0.2402,260.238,262.012,2.28457,26.5533,-129.62,-0.178024,0.113453,0.113397,-0.224596,-9.82988e-08,0.011743,-8.46233e-06,0.301214,0.12013924111083507,-9.829879521472407e-08,0.011812219708157379,0.12007651506967854,-8.462294194599984e-06,-0.20116111551415605
254,0.2412,260.102,261.87,1.82614,26.5843,-129.757,-0.196,0.113899,0.113844,-0.225491,-1.0117e-07,0.0117382,-8.84493e-06,0.30244,0.12063893463574349,-1.0116999493714474e-07,0.011807363021158812,0.1205773011892739,-8.84489088370799e-06,-0.20187575646624112
255,0.2422,260.845,262.617,2.31059,26.6144,-129.93,-0.181605,0.114345,0.11429,-0.226375,-9.62741e-08,0.0117318,-8.12163e-06,0.303656,0.12113885107366995,-9.627409536250298e-08,0.011800887474757271,0.12107719013255225,-8.121597019683513e-06,-0.20258098653990686
256,0.2432,260.676,262.442,1.8188,26.6452,-130.065,-0.200391,0.114791,0.114736,-0.227271,-9.95972e-08,0.0117268,-8.56895e-06,0.304882,0.1216389905240558,-9.959719504681885e-08,0.011795828482967341,0.12157730207602468,-8.568913286599589e-06,-0.2032951539811747
257,0.2442,261.448,263.219,2.33663,26.675,-130.238,-0.184619,0.115237,0.115181,-0.228153,-9.45887e-08,0.0117202,-7.8312e-06,0.306096,0.12213935308638679,-9.458869554279659e-08,0.011789150652536273,0.12207651504209549,-7.831169336225408e-06,-0.2039975378585399
258,0.2452,261.245,263.01,1.81143,26.7056,-130.371,-0.204256,0.115683,0.115627,-0.229048,-9.83358e-08,0.0117151,-8.33897e-06,0.307321,0.12263993886019287,-9.833579517337654e-08,0.01178399054102619,0.1225770727838833,-8.338935230889355e-06,-0.2047096413483105
259,0.2462,262.046,263.817,2.36255,26.7351,-130.544,-0.187157,0.116128,0.116072,-0.229929,-9.31899e-08,0.0117082,-7.58319e-06,0.308534,0.1231396248048624,-9.318989568907199e-08,0.011777009255576898,0.12307673074692338,-7.583161247715076e-06,-0.20540998360821894
260,0.2472,261.81,263.576,1.80416,26.7656,-130.675,-0.20767,0.116573,0.116517,-0.230824,-9.73346e-08,0.0117029,-8.14745e-06,0.309758,0.1236395331592599,-9.733459527261346e-08,0.011771646851638229,0.12357661110723694,-8.14741680965625e-06,-0.20612082352457695
261,0.2482,262.64,264.412,2.38821,26.7948,-130.849,-0.189296,0.117018,0.116962,-0.231704,-9.20335e-08,0.0116957,-7.37104e-06,0.31097,0.12413966402237975,-9.203349571329511e-08,0.011764362122006045,0.12407671396381259,-7.371012833989887e-06,-0.20681912990000606
262,0.2492,262.372,264.138,1.79715,26.8251,-130.977,-0.210695,0.117463,0.117407,-0.232599,-9.65507e-08,0.0116902,-7.98802e-06,0.312194,0.12464001749326004,-9.655069532765737e-08,0.011758797433317314,0.1245770394156831,-7.98798809586998e-06,-0.2075287091946454
263,0.2502,263.23,265.003,2.41344,26.8541,-131.151,-0.191103,0.117908,0.117851,-0.233478,-9.10821e-08,0.0116828,-7.18923e-06,0.313404,0.1251405936709835,-9.108209586550231e-08,0.01175131044591815,0.12507646248490056,-7.189204157542761e-06,-0.20822498540103962
264,0.2512,262.93,264.697,1.79056,26.8842,-131.278,-0.213381,0.118352,0.118296,-0.234372,-9.59472e-08,0.0116772,-7.85526e-06,0.314628,0.125640267013847,-9.594719541095031e-08,0.011745644654443943,0.12557723292386513,-7.855229147479825e-06,-0.20893251595081164
265,0.2522,263.815,265.591,2.43808,26.913,-131.452,-0.192636,0.118796,0.11874,-0.235249,-9.03047e-08,0.0116695,-7.03312e-06,0.315837,0.12614016226093372,-9.030469594328849e-08,0.011737854242973134,0.12607710017760176,-7.033095267616751e-06,-0.2096259780067644
266,0.2532,263.485,265.254,1.78453,26.9429,-131.577,-0.215773,0.11924,0.119184,-0.236143,-9.5493e-08,0.0116637,-7.74458e-06,0.317059,0.12664027951079104,-9.549299540001499e-08,0.011731986180435916,0.1265771894216774,-7.744550010846396e-06,-0.21033225662884203
267,0.2542,264.396,266.174,2.46198,26.9715,-131.752,-0.193944,0.119684,0.119628,-0.23702,-8.96749e-08,0.0116558,-6.89885e-06,0.318267,0.12714061886201034,-8.96748959533511e-08,0.011723993529316079,0.12707750075467739,-6.89882620297233e-06,-0.21102449165035342
268,0.2552,264.037,265.808,1.77922,27.0013,-131.875,-0.217906,0.120128,0.120071,-0.237913,-9.51615e-08,0.0116498,-7.65208e-06,0.319489,0.12764118041322603,-9.51614954614044e-08,0.011717923203566016,0.12757690669776078,-7.652050722950499e-06,-0.21172873228906486
269,0.2562,264.973,266.753,2.48498,27.0296,-132.049,-0.19507,0.120571,0.120514,-0.238788,-8.91708e-08,0.0116416,-6.78317e-06,0.320695,0.12814083612171712,-8.917079596937327e-08,0.011709627150609636,0.12807653392668827,-6.783146994315814e-06,-0.21241816797621138
270,0.2572,264.586,266.36,1.77491,27.0592,-132.17,-0.219831,0.121014,0.120958,-0.239681,-9.4936e-08,0.0116354,-7.57528e-06,0.321917,0.12864071322672288,-9.493599550935983e-08,0.011703354570366198,0.12857751111645777,-7.575251307678776e-06,-0.2131211646174912
271,0.2582,265.545,267.328,2.50674,27.0873,-132.345,-0.196018,0.121457,0.1214,-0.240555,-8.87761e-08,0.011627,-6.68367e-06,0.323122,0.12914081182634352,-8.877609602997438e-08,0.011694856297880696,0.12907645263432377,-6.683647664318393e-06,-0.2138085962682248
272,0.2592,265.132,266.909,1.77163,27.1167,-132.465,-0.22152,0.1219,0.121843,-0.241448,-9.47916e-08,0.0116207,-7.51056e-06,0.324343,0.12964113201872296,-9.479159546188498e-08,0.01168848264036293,0.12957674430926502,-7.510531795817954e-06,-0.21451035181127276
273,0.2602,265.606,267.383,1.98555,27.1455,-132.62,-0.214439,0.122343,0.122286,-0.242328,-9.34263e-08,0.011613,-7.29554e-06,0.325552,0.13014167390204845,-9.342629558872773e-08,0.01168069266903804,0.1300772576625162,-7.295513387628461e-06,-0.2152012786492823
274,0.2612,266.021,267.802,2.13944,27.174,-132.772,-0.210079,0.122785,0.122728,-0.243208,-9.23056e-08,0.0116051,-7.11564e-06,0.326763,0.1306413069326786,-9.230559572248609e-08,0.011672700423135396,0.13057686221487552,-7.11561468391686e-06,-0.2158915977391228
275,0.2622,266.266,268.049,2.1099,27.2024,-132.917,-0.211579,0.123227,0.12317,-0.244091,-9.25109e-08,0.0115974,-7.12282e-06,0.327974,0.1311411608499209,-9.251089572170912e-08,0.011664910573333076,0.13107668764125635,-7.122794632774543e-06,-0.21658365986792327
276,0.2632,266.61,268.396,2.18778,27.2306,-133.065,-0.209675,0.123669,0.123612,-0.244971,-9.18462e-08,0.0115895,-7.00766e-06,0.329184,0.13164123575142828,-9.184619575997033e-08,0.011656918452108478,0.1315767340393068,-7.007635446365512e-06,-0.2172727629973924
277,0.2642,266.826,268.615,2.13052,27.2588,-133.207,-0.21227,0.124111,0.124054,-0.245853,-9.23005e-08,0.0115816,-7.05017e-06,0.330395,0.13214153173489795,-9.230049569097787e-08,0.011648926394021375,0.13207700150671786,-7.050145147569076e-06,-0.217962824058766
278,0.2652,267.162,268.953,2.2014,27.2869,-133.354,-0.210581,0.124553,0.124496,-0.246733,-9.1713e-08,0.0115735,-6.94621e-06,0.331604,0.13264204889806908,-9.17129957533902e-08,0.011640732070904658,0.132577490141224,-6.946185875156274e-06,-0.21865071405760295
279,0.2662,267.374,269.166,2.13998,27.3151,-133.495,-0.213278,0.124994,0.124937,-0.247614,-9.22295e-08,0.0115654,-6.99763e-06,0.332814,0.13314165419650448,-9.222949570730776e-08,0.011632537814161736,0.13307706696296906,-6.9976055165899e-06,-0.21933877964112458
280,0.2672,267.708,269.504,2.21177,27.343,-133.642,-0.211676,0.125435,0.125378,-0.248493,-9.16664e-08,0.0115571,-6.89739e-06,0.334022,0.13364147986946562,-9.16663958072661e-08,0.011624141298943513,0.13357686414667858,-6.897366213065581e-06,-0.2200246793567321
281,0.2682,267.915,269.713,2.14781,27.371,-133.782,-0.214324,0.125877,0.125819,-0.249374,-9.21767e-08,0.0115488,-6.94807e-06,0.335231,0.13414266015625187,-9.217669572070264e-08,0.011615744853415988,0.1340768817895539,-6.94804586220954e-06,-0.22071153500987784
282,0.2692,268.25,270.051,2.22079,27.3987,-133.928,-0.21254,0.126317,0.12626,-0.250252,-9.15973e-08,0.0115403,-6.84583e-06,0.336438,0.1346417927278336,-9.159729585928034e-08,0.011607146156129122,0.1345771199888388,-6.8458065674015245e-06,-0.22139544999952365
283,0.2702,268.455,270.257,2.15598,27.4266,-134.068,-0.215277,0.126758,0.1267,-0.251132,-9.21566e-08,0.0115319,-6.90354e-06,0.337646,0.13514228010778262,-9.215659579897562e-08,0.011598648691790947,0.13507644376480887,-6.903516170608803e-06,-0.22208032061625582
284,0.2712,268.788,270.594,2.22985,27.4542,-134.212,-0.213408,0.127199,0.127141,-0.25201,-9.15919e-08,0.0115232,-6.80362e-06,0.338852,0.13564298825134102,-9.159189584551086e-08,0.011589847821831034,0.13557712286813706,-6.80359685545362e-06,-0.22276303433957245
285,0.2722,268.991,270.798,2.16417,27.4818,-134.351,-0.21614,0.127639,0.127581,-0.252889,-9.2184e-08,0.0115146,-6.86605e-06,0.340059,0.13614278111253775,-9.218399577015646e-08,0.011581148186548429,0.13607688674218843,-6.8660264287423445e-06,-0.2234459254577723
286,0.2732,269.324,271.133,2.23852,27.5093,-134.495,-0.214241,0.128079,0.128021,-0.253765,-9.16357e-08,0.0115056,-6.76868e-06,0.341264,0.13664279393098044,-9.163569580916686e-08,0.01157204399718359,0.13657687056072865,-6.768657092481867e-06,-0.2241258889595753
287,0.2742,269.525,271.335,2.17254,27.5368,-134.634,-0.216934,0.128519,0.128461,-0.254644,-9.22406e-08,0.0114968,-6.83301e-06,0.34247,0.13714302680347146,-9.224059571710796e-08,0.011563142202364318,0.1370770744205545,-6.832986655047613e-06,-0.22480758265490863
288,0.2752,269.856,271.669,2.24667,27.5641,-134.777,-0.214783,0.128958,0.128901,-0.25552,-9.17041e-08,0.0114878,-6.73753e-06,0.343675,0.13764234218394522,-9.17040957615356e-08,0.011554038175052739,0.13757749841850564,-6.73750730284528e-06,-0.22548635386730587
289,0.2762,270.056,271.871,2.18162,27.5915,-134.914,-0.217746,0.129398,0.12934,-0.256397,-9.23897e-08,0.0114788,-6.81327e-06,0.34488,0.13814301495443826,-9.238969578273526e-08,0.01154493422967695,0.13807700457389038,-6.813246789749705e-06,-0.2261653045715637
290,0.2772,270.385,272.202,2.25445,27.6187,-135.057,-0.21547,0.129837,0.129779,-0.257272,-9.18378e-08,0.0114695,-6.71584e-06,0.346083,0.13864276942608367,-9.183779581256601e-08,0.011535526905532834,0.1385767300606171,-6.715817448821326e-06,-0.2268421137828518
291,0.2782,270.585,272.403,2.19041,27.6459,-135.193,-0.218132,0.130276,0.130218,-0.258149,-9.25141e-08,0.0114603,-6.79033e-06,0.347287,0.13914274333810583,-9.2514095717533e-08,0.011526220821493238,0.1390766749749932,-6.790306945725355e-06,-0.2275198760068885
292,0.2792,270.912,272.732,2.26259,27.6729,-135.335,-0.216199,0.130715,0.130657,-0.259024,-9.20505e-08,0.0114509,-6.70547e-06,0.34849,0.1396429367868599,-9.205049578131508e-08,0.011516712519706651,0.13957683941336874,-6.705447518351448e-06,-0.22819550048656634
293,0.2802,271.111,272.932,2.1991,27.7,-135.471,-0.218672,0.131154,0.131096,-0.2599,-9.26891e-08,0.0114415,-6.77475e-06,0.349693,0.14014334986874433,-9.268909573201256e-08,0.01150720430729768,0.14007722347213591,-6.77472705146176e-06,-0.2288713051824669
294,0.2812,271.435,273.259,2.27054,27.7269,-135.612,-0.21675,0.131593,0.131534,-0.260773,-9.2231e-08,0.0114319,-6.69084e-06,0.350894,0.14064398268019862,-9.223099572963633e-08,0.011497493884746302,0.1405766866704723,-6.690817616394895e-06,-0.22954420676876375
295,0.2822,271.633,273.459,2.20784,27.7538,-135.747,-0.219187,0.132031,0.131973,-0.261649,-9.28636e-08,0.0114223,-6.75933e-06,0.352096,0.14114369417344053,-9.286359570204183e-08,0.011487783555414799,0.14107750975854505,-6.759307155768113e-06,-0.23021883051529246
296,0.2832,271.955,273.784,2.27832,27.7805,-135.887,-0.217294,0.132469,0.132411,-0.262522,-9.24146e-08,0.0114125,-6.67688e-06,0.353297,0.14164362458825708,-9.241459575370925e-08,0.011477871023707342,0.1415774111782384,-6.676857709719819e-06,-0.2308905562253184
297,0.2842,272.153,273.983,2.21665,27.8073,-136.021,-0.219686,0.132907,0.132849,-0.263396,-9.30386e-08,0.0114028,-6.74422e-06,0.354498,0.14214377402055645,-9.30385957165214e-08,0.011468059735943337,0.14207753160271186,-6.744197257768647e-06,-0.23156246421261584
298,0.2852,272.472,274.305,2.28593,27.8339,-136.161,-0.21783,0.133345,0.133286,-0.264268,-9.26002e-08,0.0113928,-6.66342e-06,0.355698,0.14264414256628966,-9.260019573353873e-08,0.011457945105919132,0.1425767285506112,-6.663397799422377e-06,-0.23223224967491962
299,0.2862,272.67,274.504,2.22554,27.8605,-136.294,-0.22017,0.133782,0.133724,-0.265142,-9.32133e-08,0.0113829,-6.72931e-06,0.356898,0.14314358717729037,-9.321329563771741e-08,0.011447931721829008,0.14307728677196452,-6.729287358231417e-06,-0.23290298553443656
300,0.2872,272.987,274.824,2.29339,27.8869,-136.433,-0.218358,0.13422,0.134161,-0.266014,-9.27872e-08,0.0113728,-6.65038e-06,0.358096,0.14364439373710414,-9.278719570460225e-08,0.011437716149307331,0.1435769207083477,-6.650357886273106e-06,-0.2335716025716552
301,0.2882,273.184,275.023,2.23449,27.9134,-136.566,-0.22064,0.134657,0.134598,-0.266886,-9.33873e-08,0.0113627,-6.71453e-06,0.359296,0.14414427555338905,-9.338729567431869e-08,0.011427500679962455,0.14407677303247524,-6.7145074575947206e-06,-0.23423963682894633
302,0.2892,273.498,275.34,2.30069,27.9397,-136.704,-0.21888,0.135094,0.135035,-0.267757,-9.29749e-08,0.0113524,-6.63768e-06,0.360493,0.1446443758657654,-9.297489567128281e-08,0.011417083030356379,0.14457684383980363,-6.637657970598454e-06,-0.23490632372097886
303,0.2902,273.696,275.539,2.24351,27.966,-136.836,-0.221097,0.135531,0.135472,-0.268629,-9.35601e-08,0.0113421,-6.69981e-06,0.361692,0.14514469476973724,-9.356009567085266e-08,0.011406665488051582,0.14507713322583093,-6.6997875562968545e-06,-0.2355731946087306
304,0.2912,274.007,275.853,2.30784,27.9922,-136.973,-0.219396,0.135967,0.135908,-0.2695,-9.31628e-08,0.0113316,-6.62522e-06,0.362888,0.1456440867161901,-9.31627957001524e-08,0.011396045773817587,0.1455764957090282,-6.625198053278325e-06,-0.23623872047763583
305,0.2922,274.205,276.052,2.25257,28.0184,-137.105,-0.221544,0.136404,0.136345,-0.270371,-9.37315e-08,0.0113212,-6.68511e-06,0.364086,0.14614484258927418,-9.373149556513027e-08,0.01138552730963771,0.14607722203838747,-6.685087654667576e-06,-0.2369036669258836
306,0.2932,274.513,276.363,2.31487,28.0444,-137.241,-0.219907,0.13684,0.136781,-0.27124,-9.33504e-08,0.0113106,-6.61295e-06,0.365281,0.14664467069525244,-9.335039563573844e-08,0.011374806679867566,0.14657702065537714,-6.612928134530627e-06,-0.23756650959247372
307,0.2942,274.711,276.563,2.26166,28.0705,-137.372,-0.22198,0.137276,0.137217,-0.272111,-9.3901e-08,0.0113,-6.67039e-06,0.366478,0.14714471677379914,-9.390099564576815e-08,0.011364086163735632,0.14707703723207577,-6.670367753036643e-06,-0.23823030003991386
308,0.2952,275.016,276.87,2.32178,28.0964,-137.507,-0.220413,0.137712,0.137653,-0.272979,-9.35372e-08,0.0112892,-6.60078e-06,0.367673,0.14764498091997158,-9.353719565563523e-08,0.011353163490587459,0.1475772718635342,-6.600758214903024e-06,-0.2388912292547034
309,0.2962,275.215,277.071,2.27078,28.1223,-137.638,-0.222407,0.138148,0.138088,-0.273849,-9.40685e-08,0.0112784,-6.65559e-06,0.368868,0.14814546322886768,-9.406849554860486e-08,0.011342240935403813,0.14807657656769457,-6.655567851621136e-06,-0.2395531059271514
310,0.2972,275.516,277.375,2.32859,28.1481,-137.772,-0.220914,0.138583,0.138524,-0.274717,-9.37229e-08,0.0112674,-6.58865e-06,0.370062,0.1486450151500378,-9.372289555553692e-08,0.011331116231939387,0.14857724709332132,-6.588628294945664e-06,-0.24021288744460345
311,0.2982,275.717,277.577,2.27991,28.1738,-137.902,-0.222825,0.139018,0.138959,-0.275586,-9.42336e-08,0.0112565,-6.64069e-06,0.371256,0.14914478442356427,-9.423359559335154e-08,0.01132009278285051,0.14907698688133064,-6.6406679506414434e-06,-0.240872855647698
312,0.2992,276.014,277.877,2.3353,28.1995,-138.036,-0.22141,0.139453,0.139394,-0.276453,-9.39068e-08,0.0112454,-6.57651e-06,0.372449,0.1496447711440161,-9.390679556187109e-08,0.011308867192122651,0.14957694410343603,-6.576488374765432e-06,-0.24153073365052724
313,0.3002,276.216,278.08,2.28905,28.2251,-138.165,-0.223237,0.139888,0.139829,-0.277321,-9.43962e-08,0.0112343,-6.62565e-06,0.373643,0.15014497540600313,-9.439619552686906e-08,0.011297641725998231,0.15007711885424224,-6.6256280504273235e-06,-0.24218879933189597
314,0.3012,276.51,278.377,2.34193,28.2506,-138.298,-0.221902,0.140323,0.140264,-0.278188,-9.40887e-08,0.011223,-6.56429e-06,0.374835,0.1506453973041766,-9.40886956124487e-08,0.011286214127212979,0.1505775112283947,-6.564268455133693e-06,-0.2428455369059983
315,0.3022,276.712,278.581,2.29817,28.2761,-138.427,-0.223643,0.140758,0.140698,-0.279055,-9.4556e-08,0.0112118,-6.61044e-06,0.376027,0.1511460369332287,-9.455599547791849e-08,0.011274887785042376,0.15107697024303413,-6.610418151087316e-06,-0.24350170533538384
316,0.3032,277.002,278.874,2.34848,28.3015,-138.559,-0.22239,0.141192,0.141132,-0.279921,-9.42681e-08,0.0112003,-6.55194e-06,0.377218,0.15164574274157472,-9.426809555179716e-08,0.011263258190703063,0.15157664606993104,-6.551918536046308e-06,-0.24415654927021424
317,0.3042,277.206,279.079,2.30728,28.3269,-138.687,-0.224045,0.141626,0.141566,-0.280788,-9.47127e-08,0.0111889,-6.59502e-06,0.37841,0.1521456654693094,-9.471269546423855e-08,0.01125172985527123,0.15207653880320215,-6.594998252951179e-06,-0.24481158154447435
318,0.3052,277.493,279.368,2.35499,28.3521,-138.818,-0.222876,0.14206,0.142,-0.281653,-9.44444e-08,0.0111773,-6.53937e-06,0.3796,0.15264580521059656,-9.444439552641626e-08,0.011239999403241718,0.15257664853700503,-6.539348618384011e-06,-0.24546453708245508
319,0.3062,277.698,279.575,2.31647,28.3774,-138.946,-0.22444,0.142494,0.142434,-0.282519,-9.48644e-08,0.0111657,-6.5791e-06,0.38079,0.1531461620596406,-9.486439545014491e-08,0.011228269087284692,0.15307697536553855,-6.579078357771273e-06,-0.24611768194079886
320,0.3072,277.981,279.86,2.36124,28.4025,-139.076,-0.223326,0.142927,0.142868,-0.283383,-9.46154e-08,0.011154,-6.52626e-06,0.381979,0.1536455824645271,-9.46153955183604e-08,0.011216437785749545,0.1535775193830422,-6.526238704007703e-06,-0.24676875495955597
321,0.3082,278.187,280.068,2.32557,28.4277,-139.204,-0.224808,0.143361,0.143301,-0.284248,-9.50249e-08,0.0111423,-6.56463e-06,0.383169,0.15414637331106973,-9.502489550783366e-08,0.01120460662263989,0.15407712660609296,-6.564608452830356e-06,-0.24742001827452464
322,0.3092,278.466,280.349,2.36803,28.4527,-139.333,-0.223963,0.143794,0.143734,-0.285112,-9.4807e-08,0.0111304,-6.51621e-06,0.384357,0.15464622690120589,-9.480699547648186e-08,0.011192573359419145,0.15457695020591355,-6.516188769567499e-06,-0.24806996656064384
323,0.3102,278.673,280.559,2.33429,28.4777,-139.46,-0.225279,0.144227,0.144167,-0.285976,-9.51397e-08,0.0111185,-6.54403e-06,0.385546,0.15514629697481208,-9.513969545515977e-08,0.01118054023939341,0.15507699027621524,-6.544008587905381e-06,-0.2487193535339659
324,0.3112,278.949,280.837,2.37433,28.5026,-139.589,-0.224357,0.14466,0.1446,-0.286839,-9.49115e-08,0.0111065,-6.49433e-06,0.386733,0.15564658362564554,-9.491149544071931e-08,0.011168406145715126,0.15557724691075014,-6.4943089118640884e-06,-0.24936742904706
325,0.3122,279.158,281.047,2.3432,28.5274,-139.715,-0.225706,0.145092,0.145032,-0.287703,-9.52611e-08,0.0110944,-6.52457e-06,0.387921,0.1561459308009958,-9.526109545632266e-08,0.011156171082023159,0.15607656412616877,-6.524548715081124e-06,-0.2500156954969296
326,0.3132,279.43,281.321,2.38067,28.5522,-139.843,-0.224856,0.145525,0.145465,-0.288565,-9.50622e-08,0.0110823,-6.47905e-06,0.389107,0.15664665038699965,-9.506219544874739e-08,0.011143936166374324,0.15657725366989883,-6.479029010963977e-06,-0.2506619034117865
327,0.3142,279.64,281.533,2.35208,28.5769,-139.969,-0.226103,0.145957,0.145897,-0.289428,-9.53965e-08,0.0110701,-6.50727e-06,0.390294,0.15714642968452264,-9.539649548084839e-08,0.011131600285602339,0.15707700298156335,-6.507248827780643e-06,-0.2513083032275035
328,0.3152,279.908,281.804,2.38702,28.6016,-140.096,-0.22532,0.146389,0.146329,-0.290289,-9.52233e-08,0.0110577,-6.46541e-06,0.391479,0.15764642493334402,-9.522329547095865e-08,0.011119062331494067,0.15757696823156997,-6.465389099319374e-06,-0.2519526493476143
329,0.3162,280.119,282.016,2.36088,28.6262,-140.221,-0.226472,0.146821,0.146761,-0.291151,-9.55417e-08,0.0110454,-6.49151e-06,0.392665,0.15814663622677538,-9.554169544401248e-08,0.01110662564351328,0.15807714951322405,-6.491488930171485e-06,-0.2525971883276662
330,0.3172,280.385,282.284,2.39336,28.6507,-140.348,-0.225757,0.147253,0.147193,-0.292012,-9.5392e-08,0.0110329,-6.45303e-06,0.39385,0.15864706365816783,-9.539199541386267e-08,0.011093986889685103,0.15857754691987136,-6.453009179230307e-06,-0.25324042519530743
331,0.3182,280.596,282.497,2.36946,28.6752,-140.472,-0.226844,0.147684,0.147624,-0.292873,-9.56953e-08,0.0110205,-6.47713e-06,0.395034,0.1591465481737857,-9.569529546560318e-08,0.011081449401980192,0.1590770014673173,-6.477109023461658e-06,-0.2538831084743598
332,0.3192,280.859,282.762,2.39976,28.6996,-140.598,-0.226156,0.148116,0.148055,-0.293734,-9.5561e-08,0.0110079,-6.44088e-06,0.396218,0.15964740766045638,-9.556099545005026e-08,0.011068709855977188,0.15957667132606934,-6.4408592576059576e-06,-0.25452523864125776
333,0.3202,281.072,282.976,2.37813,28.7239,-140.722,-0.227142,0.148547,0.148486,-0.294594,-9.58543e-08,0.0109952,-6.46369e-06,0.397402,0.160147323417265,-9.585429538994106e-08,0.011055869364899218,0.16007655658894682,-6.463669110390313e-06,-0.2551660713384698
334,0.3212,281.33,283.237,2.40653,28.7482,-140.847,-0.22672,0.148978,0.148917,-0.295453,-9.57521e-08,0.0109825,-6.43197e-06,0.398584,0.16064745468420383,-9.575209536372142e-08,0.01104302903689458,0.16057665734880877,-6.431949314933405e-06,-0.2558056089624554
335,0.3222,281.543,283.452,2.38642,28.7725,-140.971,-0.227559,0.149408,0.149348,-0.296313,-9.5975e-08,0.0109697,-6.44513e-06,0.399767,0.1611466404069568,-9.597499539548693e-08,0.011030087768947094,0.16107697369855445,-6.4451092302020285e-06,-0.2564453410145364
336,0.3232,281.8,283.711,2.4128,28.7967,-141.095,-0.227046,0.149839,0.149779,-0.297172,-9.58588e-08,0.0109568,-6.4116e-06,0.400949,0.16164720247234854,-9.585879545692677e-08,0.011017045564937433,0.16157750573112328,-6.4115794456975905e-06,-0.2570837802177095
337,0.3242,282.014,283.926,2.39486,28.8208,-141.218,-0.227933,0.150269,0.150209,-0.298031,-9.61017e-08,0.0109439,-6.42763e-06,0.402131,0.16214681817909038,-9.610169537932478e-08,0.01100400352917097,0.16207709146182192,-6.427609342884999e-06,-0.25772167123708567
338,0.3252,282.267,284.182,2.41927,28.8448,-141.342,-0.227452,0.1507,0.150639,-0.298889,-9.60099e-08,0.0109309,-6.39757e-06,0.403311,0.1626478114140122,-9.600989536728832e-08,0.010990860562554383,0.16257689206057813,-6.397549535575031e-06,-0.2583582729019964
339,0.3262,282.482,284.398,2.40317,28.8688,-141.464,-0.228259,0.15113,0.151069,-0.299747,-9.62496e-08,0.0109179,-6.41323e-06,0.404492,0.1631478574751184,-9.624959540488476e-08,0.01097771776679557,0.1630769076198051,-6.413209435285339e-06,-0.2589943285969333
340,0.3272,282.732,284.651,2.42562,28.8927,-141.587,-0.227825,0.15156,0.151499,-0.300604,-9.61837e-08,0.0109047,-6.38685e-06,0.405672,0.1636481186022669,-9.618369534170057e-08,0.010964372948996992,0.16357713823195552,-6.386829604076993e-06,-0.25962909841960613
341,0.3282,282.948,284.868,2.41145,28.9166,-141.709,-0.228543,0.151989,0.151928,-0.301462,-9.64153e-08,0.0108915,-6.40148e-06,0.406852,0.1641474307399431,-9.641529530313164e-08,0.010951028307348842,0.1640764199125202,-6.401459510585461e-06,-0.26026406421388315
342,0.3292,283.195,285.117,2.432,28.9404,-141.832,-0.228141,0.152419,0.152358,-0.302318,-9.63729e-08,0.0108782,-6.37843e-06,0.408031,0.16464812177601917,-9.63728953307097e-08,0.01093758274808554,0.1645770804073745,-6.37840965789227e-06,-0.260897007236654
343,0.3302,283.411,285.335,2.42004,28.9642,-141.953,-0.228984,0.152848,0.152787,-0.303175,-9.66003e-08,0.0108649,-6.39256e-06,0.40921,0.1651478630070906,-9.660029531843861e-08,0.010924137367646969,0.16507679115516072,-6.392539567579014e-06,-0.2615301471622433
344,0.3312,283.655,285.582,2.43817,28.988,-142.075,-0.228563,0.153277,0.153216,-0.304031,-9.65182e-08,0.0108515,-6.36413e-06,0.410388,0.16564781867314338,-9.65181953249683e-08,0.010910591074966725,0.16557671632484805,-6.364109748968616e-06,-0.2621620068817303
345,0.3322,283.872,285.801,2.42802,29.0116,-142.196,-0.229169,0.153706,0.153645,-0.304887,-9.67002e-08,0.010838,-6.3721e-06,0.411566,0.16614798886618964,-9.670019529561813e-08,0.010896943874106002,0.1660768560084429,-6.372079698224731e-06,-0.2627933259607246
346,0.3332,284.114,286.044,2.44459,29.0352,-142.317,-0.22891,0.154135,0.154074,-0.305742,-9.6676e-08,0.0108245,-6.35174e-06,0.412743,0.16664837367828111,-9.667599532026117e-08,0.01088329685748124,0.16657721029799188,-6.351719827768498e-06,-0.2634233682855529
347,0.3342,284.332,286.263,2.43597,29.0588,-142.437,-0.229439,0.154563,0.154502,-0.306597,-9.68618e-08,0.0108109,-6.36031e-06,0.41392,0.16714780605311974,-9.686179536227968e-08,0.01086954893813008,0.16707661220838466,-6.360289773299499e-06,-0.2640528721544162
348,0.3352,284.571,286.505,2.4515,29.0823,-142.558,-0.229399,0.154992,0.154931,-0.307452,-9.68644e-08,0.0107972,-6.34374e-06,0.415096,0.1676486198788012,-9.686439528255875e-08,0.010855700120174117,0.16757739548535477,-6.343719878509901e-06,-0.2646818380274977
349,0.3362,284.788,286.724,2.44357,29.1058,-142.677,-0.229794,0.15542,0.155359,-0.308306,-9.699e-08,0.0107835,-6.34411e-06,0.416272,0.16814848045064124,-9.69899952574238e-08,0.01084185149194572,0.16807722556662963,-6.344089876209047e-06,-0.265309531674486
350,0.3372,285.026,286.963,2.4579,29.1291,-142.797,-0.229592,0.155848,0.155787,-0.30916,-9.69777e-08,0.0107697,-6.32558e-06,0.417448,0.16864855500859566,-9.697769531857858e-08,0.010827901970647202,0.16857726962096664,-6.325559993580754e-06,-0.2659366894999281
351,0.3382,285.243,287.182,2.45132,29.1525,-142.917,-0.230042,0.156276,0.156215,-0.310014,-9.71479e-08,0.0107558,-6.33217e-06,0.418623,0.1691488436442703,-9.714789528381118e-08,0.01081385156046033,0.1690775277399652,-6.332149951826516e-06,-0.2665633119612204
352,0.3392,285.478,287.419,2.46425,29.1757,-143.036,-0.229927,0.156703,0.156642,-0.310867,-9.71351e-08,0.0107419,-6.31367e-06,0.419797,0.16964817680054844,-9.713509530051567e-08,0.01079980134557279,0.16957683043784977,-6.313650068867638e-06,-0.26718866670440167
353,0.3402,285.696,287.639,2.45914,29.199,-143.155,-0.230343,0.157131,0.15707,-0.31172,-9.72794e-08,0.0107279,-6.31679e-06,0.420971,0.17014889336592032,-9.7279395316896e-08,0.01078565024741196,0.17007751646044267,-6.316770049141773e-06,-0.26781348824742923
354,0.3412,285.929,287.874,2.47119,29.2222,-143.273,-0.230395,0.157558,0.157497,-0.312572,-9.73066e-08,0.0107139,-6.30386e-06,0.422145,0.17064865363461146,-9.73065952258878e-08,0.010771499347365099,0.1705772462446873,-6.303840130672533e-06,-0.26843704548234015
355,0.3422,286.146,288.093,2.46646,29.2453,-143.391,-0.230641,0.157985,0.157924,-0.313424,-9.74143e-08,0.0106998,-6.30203e-06,0.423318,0.17114862734650438,-9.741429529697143e-08,0.010757247569699535,0.17107718945911388,-6.3020101422894825e-06,-0.26906007167274404
356,0.3432,286.377,288.326,2.47744,29.2684,-143.51,-0.230542,0.158412,0.158351,-0.314276,-9.74142e-08,0.0106856,-6.28545e-06,0.424491,0.1716488145927586,-9.741419526587691e-08,0.010742894918688073,0.17157734619487663,-6.285430246610879e-06,-0.269682567270898
357,0.3442,286.709,288.49,2.4842,29.2668,-143.623,-0.198871,0.158839,0.158777,-0.315127,-1.11927e-07,0.0106709,-8.26175e-06,0.425665,0.17214921546457274,-1.1192699378437254e-07,0.01072803710733794,0.17207654446603815,-8.26171587187119e-06,-0.2703038030328422
358,0.3452,287.0,288.671,2.48046,29.2761,-143.733,-0.17197,0.159265,0.159204,-0.315978,-1.25876e-07,0.0106562,-1.01572e-05,0.42684,0.17264865740394053,-1.2587599207414257e-07,0.010713179514395987,0.17257712801750746,-1.0157148415790296e-05,-0.27092451034803877
359,0.3462,287.278,288.88,2.48755,29.2915,-143.842,-0.145875,0.159691,0.15963,-0.316829,-1.38393e-07,0.0106413,-1.1853e-05,0.428014,0.17314831215089943,-1.3839299040085962e-07,0.010698120000214972,0.17307675228645625,-1.1852929753475294e-05,-0.271544689666005
360,0.3472,287.529,289.092,2.48467,29.3105,-143.95,-0.122132,0.160118,0.160056,-0.317679,-1.49949e-07,0.0106264,-1.34139e-05,0.429187,0.1736493534448913,-1.4994898878128993e-07,0.010683060710418912,0.1735765894406851,-1.3413810034057505e-05,-0.27216361359985264
361,0.3482,287.777,289.321,2.49212,29.3313,-144.06,-0.100044,0.160544,0.160482,-0.318529,-1.60494e-07,0.0106114,-1.48334e-05,0.430359,0.17414943457917764,-1.6049398710027418e-07,0.010667900578209544,0.17407663957090236,-1.4833289985638487e-05,-0.27278201167187943
362,0.3492,288.008,289.546,2.49057,29.353,-144.17,-0.0800483,0.160969,0.160908,-0.319379,-1.70254e-07,0.0105965,-1.61426e-05,0.431531,0.1746485541442686,-1.7025398546532955e-07,0.01065284173867953,0.17457690276785498,-1.614246970893518e-05,-0.2733998843288781
363,0.3502,288.24,289.781,2.49802,29.3751,-144.281,-0.0613951,0.161395,0.161334,-0.320228,-1.79155e-07,0.0105816,-1.73317e-05,0.432703,0.1751490610287314,-1.7915498395915108e-07,0.010637783123524702,0.175077379122329,-1.7331549806987034e-05,-0.2740165060341304
364,0.3512,288.457,290.012,2.49739,29.3978,-144.393,-0.0455294,0.161821,0.161759,-0.321077,-1.87077e-07,0.0105667,-1.83843e-05,0.433874,0.17564978117454833,-1.8707698246078763e-07,0.010622724732741284,0.17557689314766756,-1.838413100974101e-05,-0.27463260444972304
365,0.3522,288.677,290.249,2.50433,29.4203,-144.506,-0.0307033,0.162246,0.162184,-0.321925,-1.94176e-07,0.0105518,-1.93223e-05,0.435044,0.1761495385224614,-1.9417598118298685e-07,0.01060766656632639,0.1760766195115857,-1.9322113325559442e-05,-0.2752474552675578
366,0.3532,288.886,290.48,2.5043,29.4431,-144.62,-0.0192014,0.162671,0.162609,-0.322773,-2.00664e-07,0.010537,-2.01748e-05,0.436214,0.17664950831238824,-2.0066397987683615e-07,0.010592709683542534,0.1765765583043466,-2.017459649006348e-05,-0.27586178491290736
367,0.3542,289.1,290.716,2.51121,29.4655,-144.734,-0.00669131,0.163096,0.163034,-0.323621,-2.05935e-07,0.0105221,-2.08588e-05,0.437383,0.1771496906346357,-2.0593497884746625e-07,0.010577651964348567,0.17707670961625133,-2.0858582456706465e-05,-0.2764755938275387
368,0.3552,289.306,290.945,2.51191,29.4877,-144.849,0.00351579,0.16352,0.163459,-0.324469,-2.10892e-07,0.0105072,-2.14988e-05,0.438552,0.1776489079300525,-2.1089197776991142e-07,0.01056259446951291,0.17757707353764007,-2.1498568902433846e-05,-0.27708888245284424
369,0.3562,289.516,291.177,2.51826,29.5096,-144.964,0.0126474,0.163945,0.163883,-0.325316,-2.15313e-07,0.0104923,-2.20641e-05,0.439721,0.17814951508740862,-2.153129767812345e-07,0.01054753719903223,0.17807647208182975,-2.2063856589538133e-05,-0.2777009289311325
370,0.3572,289.721,291.402,2.51934,29.5315,-145.08,0.0207068,0.164369,0.164308,-0.326163,-2.1928e-07,0.0104774,-2.25662e-05,0.440888,0.17864915639827816,-2.1927997595483362e-07,0.0105324801529032,0.1785772609925702,-2.2565945385188968e-05,-0.27831245722553555
371,0.3582,289.928,291.632,2.52492,29.5537,-145.195,0.0260997,0.164794,0.164732,-0.327009,-2.22784e-07,0.0104624,-2.3004e-05,0.442056,0.17915018875158095,-2.227839751567373e-07,0.010517322279385288,0.17907708370615816,-2.3003735409976578e-05,-0.2789227466978764
372,0.3592,290.132,291.856,2.52662,29.5757,-145.311,0.0328392,0.165218,0.165156,-0.327855,-2.25338e-07,0.0104475,-2.3311e-05,0.443222,0.1796502544380456,-2.2533797461310456e-07,0.010502265683455247,0.1795771183895114,-2.331072830075165e-05,-0.27953252008365914
373,0.3602,290.338,292.082,2.5321,29.5975,-145.427,0.0377847,0.165641,0.16558,-0.328701,-2.27752e-07,0.0104324,-2.35983e-05,0.444389,0.18014935204737537,-2.2775197405788816e-07,0.010487007214445176,0.1800773651325236,-2.3598021562265536e-05,-0.28014177781930827
374,0.3612,290.542,292.303,2.53388,29.6193,-145.542,0.0419237,0.166065,0.166003,-0.329546,-2.2987e-07,0.0104173,-2.38445e-05,0.445554,0.18064984146890262,-2.2986997361140737e-07,0.010471748975836137,0.1805766434478937,-2.3844215722212958e-05,-0.28074980109104
375,0.3622,290.748,292.526,2.53905,29.641,-145.658,0.0454772,0.166488,0.166427,-0.330391,-2.3167e-07,0.0104022,-2.4047e-05,0.446719,0.1811493619929867,-2.3166997320522853e-07,0.010456490967624799,0.18107731407938887,-2.4046710873193433e-05,-0.28135731080011783
376,0.3632,290.952,292.744,2.541,29.6626,-145.773,0.0484144,0.166912,0.16685,-0.331236,-2.33214e-07,0.010387,-2.42141e-05,0.447884,0.18165027550863266,-2.332139728000726e-07,0.010441132145689425,0.18157701546263594,-2.421380684103358e-05,-0.28196430738031897
377,0.3642,291.158,292.965,2.54588,29.6843,-145.888,0.0508587,0.167335,0.167273,-0.33208,-2.34498e-07,0.0103718,-2.43454e-05,0.449049,0.18215021930583153,-2.344979724844265e-07,0.01042577355720642,0.18207692826428024,-2.4345103653122813e-05,-0.2825700738354868
378,0.3652,291.363,293.182,2.54801,29.706,-146.002,0.0527904,0.167758,0.167696,-0.332924,-2.35572e-07,0.0103565,-2.44477e-05,0.450212,0.1826503746239898,-2.355719722624272e-07,0.010410314161135803,0.18257705257377022,-2.4447401157368098e-05,-0.2831753292394604
379,0.3662,291.569,293.4,2.55264,29.7276,-146.116,0.0543175,0.16818,0.168119,-0.333767,-2.36433e-07,0.0103411,-2.45209e-05,0.451376,0.1831495584024505,-2.364329720894176e-07,0.010394753962111425,0.18307738848059274,-2.452059936519646e-05,-0.28377935780310093
380,0.3672,291.773,293.615,2.55493,29.7493,-146.23,0.0554218,0.168603,0.168541,-0.334611,-2.37123e-07,0.0103257,-2.45705e-05,0.452538,0.1836501365304648,-2.3712297192446385e-07,0.010379194002712477,0.18357675249692829,-2.457019814772199e-05,-0.284383593001993
381,0.3682,291.98,293.832,2.55934,29.771,-146.344,0.0561954,0.169025,0.168964,-0.335454,-2.37638e-07,0.0103102,-2.45962e-05,0.453701,0.18414974229748315,-2.3763797174503054e-07,0.010363533246576573,0.1840775113662687,-2.459589751591107e-05,-0.2849866034284868
382,0.3692,292.185,294.046,2.56176,29.7927,-146.457,0.0566216,0.169448,0.169386,-0.336296,-2.38014e-07,0.0102946,-2.46029e-05,0.454863,0.18465074359277867,-2.3801397164291416e-07,0.0103477716983984,0.18457729752352758,-2.460259735115322e-05,-0.2855883913201438
383,0.3702,292.391,294.261,2.56599,29.8143,-146.57,0.0567791,0.16987,0.169808,-0.337138,-2.38247e-07,0.010279,-2.45903e-05,0.456024,0.18515077170508576,-2.3824697159557928e-07,0.010332010396098212,0.18507729463505274,-2.4589997661084162e-05,-0.2861896727196592
384,0.3712,292.596,294.474,2.56853,29.836,-146.683,0.0566524,0.170291,0.17023,-0.33798,-2.38369e-07,0.0102634,-2.45624e-05,0.457185,0.18564982522336826,-2.3836897156126469e-07,0.010316249339672678,0.18557750278988627,-2.456209834666989e-05,-0.28679044805331977
385,0.3722,292.802,294.687,2.57259,29.8577,-146.795,0.0563084,0.170713,0.170651,-0.338821,-2.38375e-07,0.0102476,-2.45189e-05,0.458345,0.18615027503709625,-2.3837497153955667e-07,0.010300286469040021,0.1860767359997777,-2.451859941421386e-05,-0.2873900051374151
386,0.3732,293.005,294.9,2.57493,29.8798,-146.907,0.0539383,0.171135,0.171073,-0.339662,-2.38292e-07,0.0102318,-2.44632e-05,0.459505,0.1866509360852131,-2.382919715993026e-07,0.010284323850618948,0.18657736600787178,-2.4462900778399188e-05,-0.287989058205971
387,0.3742,293.21,295.114,2.57909,29.9018,-147.019,0.053673,0.171556,0.171494,-0.340503,-2.37562e-07,0.010216,-2.43194e-05,0.460664,0.1871506213056635,-2.3756197176094673e-07,0.01026836148440502,0.18707702024879902,-2.431910428579709e-05,-0.2885876076826862
388,0.3752,293.413,295.325,2.58183,29.9236,-147.13,0.0521739,0.171977,0.171915,-0.341344,-2.37029e-07,0.0102001,-2.42026e-05,0.461823,0.18765051693788037,-2.370289718944818e-07,0.010252298345159838,0.18757688488844737,-2.420230711941418e-05,-0.28918565399090357
389,0.3762,293.618,295.537,2.58569,29.9453,-147.241,0.0505176,0.172398,0.172336,-0.342184,-2.36456e-07,0.0101842,-2.40809e-05,0.462982,0.18815062307046548,-2.3645597202470725e-07,0.010236235461316356,0.1880769600154133,-2.4080610057430896e-05,-0.2897824873364523
390,0.3772,293.822,295.746,2.5885,29.967,-147.352,0.0487656,0.172819,0.172757,-0.343023,-2.35844e-07,0.0101682,-2.39539e-05,0.46414,0.18865093979205838,-2.3584397224052367e-07,0.010220071810858489,0.188577245718331,-2.3953613107585703e-05,-0.29037810993095936
391,0.3782,294.027,295.956,2.59221,29.9886,-147.462,0.0469459,0.173239,0.173177,-0.343863,-2.3519e-07,0.0101521,-2.38215e-05,0.465297,0.1891502780404628,-2.351899723862516e-07,0.010203807398631248,0.18907655300872395,-2.3821216270314416e-05,-0.2909739420340991
392,0.3792,294.231,296.165,2.59507,30.0102,-147.572,0.0450442,0.17366,0.173598,-0.344702,-2.34508e-07,0.010136,-2.36857e-05,0.466454,0.18965101570540055,-2.345079724852539e-07,0.01018754324825899,0.18957725962888872,-2.3685419496044524e-05,-0.29156856541734255
393,0.3802,294.436,296.374,2.59867,30.0317,-147.682,0.0430924,0.17408,0.174018,-0.34554,-2.33797e-07,0.0101198,-2.3546e-05,0.467611,0.19015077407390768,-2.3379697267067456e-07,0.010171178342614384,0.19007698701333764,-2.3545722795170754e-05,-0.2921619822831292
394,0.3812,294.64,296.582,2.60158,30.0533,-147.791,0.0410802,0.1745,0.174438,-0.346378,-2.33066e-07,0.0101035,-2.3404e-05,0.468767,0.19065074238501456,-2.3306597285444042e-07,0.01015471268660284,0.19057692432737006,-2.3403726128523594e-05,-0.29275490207388566
395,0.3822,294.845,296.79,2.6051,30.0748,-147.9,0.0390343,0.17492,0.174858,-0.347216,-2.32313e-07,0.0100872,-2.32593e-05,0.469922,0.1911509207269153,-2.323129729697726e-07,0.010138247298979275,0.19107707165917498,-2.3259029504618667e-05,-0.2933473252059866
396,0.3832,295.048,296.997,2.60804,30.0962,-148.009,0.0369455,0.17534,0.175278,-0.348054,-2.31548e-07,0.0100709,-2.31132e-05,0.471077,0.1916513091878418,-2.3154797323954313e-07,0.01012178217973947,0.1915774290969785,-2.31129328920332e-05,-0.29393925209545757
397,0.3842,295.252,297.204,2.61149,30.1177,-148.118,0.0348364,0.175759,0.175697,-0.348891,-2.30769e-07,0.0100545,-2.29655e-05,0.472232,0.1921507157047504,-2.3076897337492852e-07,0.01010521631835215,0.192076804651643,-2.2965236294969493e-05,-0.294529977688306
398,0.3852,295.455,297.41,2.61446,30.1391,-148.226,0.0326989,0.176179,0.176116,-0.349728,-2.29982e-07,0.010038,-2.28171e-05,0.473386,0.19265152416776177,-2.2998197357626537e-07,0.01008854971978268,0.19257638948850642,-2.2816839691963686e-05,-0.2951202090506976
399,0.3862,295.659,297.616,2.61785,30.1605,-148.334,0.0305519,0.176598,0.176536,-0.350564,-2.29187e-07,0.0100215,-2.26677e-05,0.47454,0.19315134986255855,-2.2918697373253138e-07,0.010071883396209902,0.1930773767720566,-2.2667443089652295e-05,-0.2957092423057246
400,0.3872,295.862,297.821,2.62084,30.1818,-148.441,0.0283886,0.177017,0.176955,-0.351401,-2.28389e-07,0.010005,-2.25183e-05,0.475693,0.19365138502820267,-2.2838897395516256e-07,0.010055217347629153,0.19357738093648136,-2.251804646502542e-05,-0.2962984870365942
401,0.3882,296.064,298.027,2.62417,30.2031,-148.549,0.0262245,0.177436,0.177373,-0.352236,-2.27587e-07,0.00998835,-2.23687e-05,0.476846,0.19415162975248057,-2.275869741552583e-07,0.010038400068264508,0.19407640056955033,-2.2368449822507408e-05,-0.2968858325490412
402,0.3892,296.267,298.231,2.62718,30.2244,-148.656,0.024054,0.177854,0.177792,-0.353072,-2.26785e-07,0.00997168,-2.22194e-05,0.477998,0.19465088947172915,-2.2678497424433175e-07,0.010021562868473888,0.19457682341265348,-2.2219153150926374e-05,-0.29747339035964526
403,0.3902,296.469,298.436,2.63047,30.2456,-148.762,0.02189,0.178273,0.178211,-0.353907,-2.25984e-07,0.00995497,-2.20704e-05,0.47915,0.1951515530761181,-2.2598397442230578e-07,0.010004685549168668,0.1950774559768611,-2.2070156450504363e-05,-0.29805975523728956
404,0.3912,296.67,298.639,2.6335,30.2668,-148.869,0.0197277,0.178691,0.178629,-0.354742,-2.25186e-07,0.0099382,-2.19223e-05,0.480301,0.19565123085068326,-2.2518597464493695e-07,0.009987747912614475,0.19557710277236473,-2.192205970819039e-05,-0.29864563070461814
405,0.3922,296.872,298.843,2.63674,30.288,-148.975,0.017578,0.179109,0.179047,-0.355576,-2.24391e-07,0.00992139,-2.17747e-05,0.481452,0.1961511175342172,-2.2439097480120296e-07,0.00997077016127057,0.19607695846388506,-2.177446293294416e-05,-0.2992303164007851
406,0.3932,297.073,299.046,2.63977,30.3091,-149.081,0.0154368,0.179527,0.179465,-0.35641,-2.23603e-07,0.00990453,-2.16284e-05,0.482603,0.1966512132140621,-2.2360297502466153e-07,0.009953742197631676,0.1965770231387589,-2.162816610784546e-05,-0.29981451467236575
407,0.3942,297.274,299.249,2.64299,30.3301,-149.187,0.0133132,0.179945,0.179883,-0.357244,-2.2282e-07,0.00988762,-2.1483e-05,0.483753,0.19715151797759645,-2.228199751375115e-07,0.009936664024247532,0.1970772968843595,-2.1482769241965016e-05,-0.30039822592570264
408,0.3952,297.474,299.451,2.64602,30.3511,-149.293,0.0112038,0.180363,0.1803,-0.358077,-2.22045e-07,0.00987066,-2.13391e-05,0.484902,0.1976520319122359,-2.2204497529543232e-07,0.00991953564367476,0.1975765822109159,-2.1338872323029e-05,-0.3009807515479008
409,0.3962,297.674,299.653,2.6492,30.3721,-149.398,0.00911618,0.18078,0.180718,-0.35891,-2.21277e-07,0.00985365,-2.11964e-05,0.486051,0.1981515569532759,-2.212769755205457e-07,0.009902357058477751,0.19807727385954443,-2.1196175357895974e-05,-0.30156279212830384
410,0.3972,297.874,299.854,2.65224,30.393,-149.503,0.00704766,0.181197,0.181135,-0.359743,-2.20519e-07,0.00983659,-2.10554e-05,0.4872,0.19865129033969486,-2.205189756354642e-07,0.009885128271228227,0.19857697626345394,-2.10551783366153e-05,-0.30214434807078294
411,0.3982,298.075,300.054,2.65559,30.4134,-149.608,0.00674812,0.181614,0.181552,-0.360575,-2.19771e-07,0.00981949,-2.09159e-05,0.488348,0.19915123215839126,-2.1977097586223238e-07,0.009867859383184241,0.19907688708671833,-2.0915681264055408e-05,-0.3027247225039448
412,0.3992,298.275,300.253,2.65852,30.434,-149.712,0.00427217,0.182031,0.181969,-0.361407,-2.19559e-07,0.00980233,-2.08498e-05,0.489495,0.1996513824962991,-2.1955897588910034e-07,0.009850530199402074,0.19957700641626674,-2.084958264447767e-05,-0.303304614266397
413,0.4002,298.475,300.453,2.66152,30.4546,-149.816,0.00281564,0.182448,0.182386,-0.362239,-2.1909e-07,0.00978513,-2.07488e-05,0.490643,0.20015174144038927,-2.1908997605013525e-07,0.009833160919658912,0.20007733433906405,-2.074858474510055e-05,-0.3038840237595548
414,0.4012,298.674,300.653,2.6646,30.4753,-149.92,0.00138677,0.182865,0.182802,-0.36307,-2.18591e-07,0.00976788,-2.0644e-05,0.491789,0.20065230907766884,-2.1859097609766565e-07,0.009815741447876336,0.20057667036484128,-2.0643786914131823e-05,-0.30446225584710285
415,0.4022,298.872,300.852,2.66759,30.4959,-150.024,-8.29121e-05,0.183281,0.183219,-0.363901,-2.18084e-07,0.00975058,-2.05381e-05,0.492936,0.2011518843426956,-2.180839762111475e-07,0.00979827178666226,0.20107741523443257,-2.05378890946184e-05,-0.3050400076233831
416,0.4032,299.07,301.051,2.67069,30.5165,-150.128,-0.00157532,0.183697,0.183635,-0.364732,-2.17567e-07,0.00973324,-2.04312e-05,0.494082,0.2016516674742661,-2.1756697632380195e-07,0.009780762036439627,0.20157716738040943,-2.0430991284459132e-05,-0.3056172794873685
417,0.4042,299.268,301.25,2.67369,30.5371,-150.231,-0.00308602,0.184113,0.184051,-0.365562,-2.17043e-07,0.00971586,-2.03235e-05,0.495227,0.20215165855887052,-2.1704297648028614e-07,0.009763212199303872,0.20207712746652762,-2.0323293479118654e-05,-0.3061933780314253
418,0.4052,299.465,301.449,2.67676,30.5577,-150.334,-0.00460764,0.184529,0.184467,-0.366392,-2.16513e-07,0.00969843,-2.02153e-05,0.496372,0.20265185768303517,-2.1651297654745605e-07,0.009745612179899776,0.20257729557930793,-2.0215095672182493e-05,-0.30676899861207285
419,0.4062,299.661,301.647,2.67977,30.5782,-150.437,-0.00613848,0.184945,0.184882,-0.367221,-2.15979e-07,0.00968096,-2.01068e-05,0.497516,0.20315226493332283,-2.1597897670311283e-07,0.0097279720781418,0.2030764687282376,-2.0106597859670394e-05,-0.3073434489696515
420,0.4072,299.857,301.845,2.68283,30.5987,-150.54,-0.00767208,0.18536,0.185298,-0.36805,-2.15444e-07,0.00966345,-1.99982e-05,0.49866,0.20365167674405327,-2.1544397676986904e-07,0.009710291896141143,0.20357705265346593,-1.999800003738006e-05,-0.307917423305222
421,0.4082,300.053,302.042,2.68582,30.6191,-150.643,-0.00920687,0.185776,0.185713,-0.368879,-2.14909e-07,0.00964589,-1.98899e-05,0.499804,0.20415250000559482,-2.1490897694764755e-07,0.009692561539088373,0.20407664078768484,-1.9889702197239956e-05,-0.30849092201324313
422,0.4092,300.248,302.239,2.68886,30.6394,-150.745,-0.0107374,0.186191,0.186128,-0.369708,-2.14374e-07,0.00962829,-1.97818e-05,0.500947,0.2046523270000249,-2.1437397701440375e-07,0.009674791106385694,0.20457643629400613,-1.9781604341462256e-05,-0.30906394548784677
423,0.4102,300.443,302.436,2.69185,30.6597,-150.847,-0.0122622,0.186606,0.186543,-0.370536,-2.13842e-07,0.00961065,-1.96744e-05,0.50209,0.20515236146570492,-2.138419771258171e-07,0.009656980600159626,0.20507643925850716,-1.9674206460207344e-05,-0.30963580375898725
424,0.4112,300.638,302.632,2.69487,30.68,-150.949,-0.0137766,0.187021,0.186958,-0.371364,-2.13314e-07,0.00959296,-1.95675e-05,0.503232,0.20565260348875336,-2.1331397725976586e-07,0.009639119926150963,0.20557664976730106,-1.956730855767752e-05,-0.31020718872745345
425,0.4122,300.832,302.828,2.69785,30.7002,-151.051,-0.0152793,0.187435,0.187373,-0.372191,-2.1279e-07,0.00957523,-1.94616e-05,0.504373,0.20615184700287448,-2.1278997730522775e-07,0.009621219183245211,0.20607706790653624,-1.9461410624255215e-05,-0.3107774115627342
426,0.4132,301.026,303.023,2.70085,30.7203,-151.153,-0.0167663,0.18785,0.187787,-0.373019,-2.12273e-07,0.00955746,-1.93567e-05,0.505515,0.20665250389850098,-2.122729774178822e-07,0.009603278373584878,0.20657648718530708,-1.9356512660273495e-05,-0.31134785167116497
427,0.4142,301.22,303.218,2.70382,30.7404,-151.254,-0.0182364,0.188264,0.188202,-0.373845,-2.11762e-07,0.00953965,-1.92529e-05,0.506655,0.20715216145709303,-2.1176197761985094e-07,0.009585297499317136,0.20707732034318127,-1.92527146640753e-05,-0.3119164434849374
428,0.4152,301.413,303.413,2.7068,30.7605,-151.355,-0.0196862,0.188678,0.188616,-0.374672,-2.11259e-07,0.00952179,-1.91503e-05,0.507796,0.20765202591674004,-2.1125897764484591e-07,0.00956726646692152,0.20757715381219222,-1.915011663422561e-05,-0.31248525335087707
429,0.4162,301.607,303.606,2.70987,30.78,-151.456,-0.0194772,0.189092,0.18903,-0.375498,-2.10764e-07,0.00950389,-1.90491e-05,0.508936,0.20815209736311635,-2.1076397782593403e-07,0.009549195374588537,0.20807719425510007,-1.9048918567077244e-05,-0.31305290605876623
430,0.4172,301.801,303.799,2.71285,30.7997,-151.557,-0.0213733,0.189506,0.189444,-0.376324,-2.10761e-07,0.00948594,-1.90151e-05,0.510075,0.20865237588193253,-2.107609777812769e-07,0.009531074129170092,0.20857744175760984,-1.9014919214077608e-05,-0.3136200900791133
431,0.4182,301.994,303.992,2.71559,30.8196,-151.657,-0.022329,0.18992,0.189857,-0.377149,-2.10488e-07,0.00946795,-1.89444e-05,0.511214,0.20915286155893442,-2.1048797782530215e-07,0.00951291282850808,0.20907668732816975,-1.8944220556038616e-05,-0.31418611998535717
432,0.4192,302.186,304.185,2.71866,30.8394,-151.758,-0.0233007,0.190333,0.190271,-0.377974,-2.10168e-07,0.00944992,-1.88674e-05,0.512353,0.20965234482695339,-2.1016797790984754e-07,0.00949471147477543,0.20957734870647782,-1.8867222011720308e-05,-0.3147516831095024
433,0.4202,302.378,304.378,2.72143,30.8593,-151.858,-0.0243591,0.190746,0.190684,-0.378799,-2.09824e-07,0.00943185,-1.87873e-05,0.513491,0.21015203442416608,-2.098239779702027e-07,0.009476470070150622,0.210077007323896,-1.8787123519770077e-05,-0.31531677983648565
434,0.4212,302.571,304.57,2.72456,30.8787,-151.957,-0.0239812,0.19116,0.191097,-0.379624,-2.09453e-07,0.00941374,-1.87036e-05,0.514628,0.21065314108833988,-2.0945297807273278e-07,0.009458188616816798,0.21057687234294198,-1.870342508880629e-05,-0.3158814105509258
435,0.4222,302.762,304.762,2.7274,30.8983,-152.057,-0.025773,0.191572,0.19151,-0.380448,-2.09491e-07,0.00939559,-1.86759e-05,0.515765,0.21115203294713414,-2.0949097800926353e-07,0.009439867116961542,0.21107694384887754,-1.8675725606431826e-05,-0.31644489208235826
436,0.4232,302.953,304.954,2.7302,30.9181,-152.157,-0.0267643,0.191985,0.191923,-0.381271,-2.09201e-07,0.00937739,-1.86035e-05,0.516902,0.2116523420434584,-2.0920097809629112e-07,0.009421495478562303,0.21157722192699935,-1.8603326955912713e-05,-0.31700722650381963
437,0.4242,303.142,305.146,2.73316,30.9379,-152.256,-0.027913,0.192398,0.192335,-0.382095,-2.08812e-07,0.00935916,-1.85179e-05,0.518038,0.21215285781011373,-2.0881197815292296e-07,0.00940309389243077,0.21207649458553846,-1.8517728544775736e-05,-0.3175697807450031
438,0.4252,303.331,305.338,2.73598,30.9577,-152.355,-0.0292709,0.19281,0.192748,-0.382918,-2.08349e-07,0.0093409,-1.84223e-05,0.519174,0.2126523676794989,-2.0834897829224985e-07,0.009384662360216733,0.21257718556337246,-1.8422130310447038e-05,-0.3181311897639504
439,0.4262,303.519,305.53,2.73895,30.9776,-152.454,-0.0308114,0.193223,0.19316,-0.383741,-2.07813e-07,0.00932259,-1.8317e-05,0.52031,0.2131532965420404,-2.0781297838112778e-07,0.00936618069624906,0.21307687029181044,-1.8316832244735792e-05,-0.3186921369333523
440,0.4272,303.707,305.721,2.74178,30.9974,-152.553,-0.0325215,0.193635,0.193572,-0.384563,-2.07211e-07,0.00930425,-1.82029e-05,0.521444,0.21365321867710385,-2.072109784867493e-07,0.00934766909024698,0.21357676093277145,-1.820273432817654e-05,-0.3192519418854368
441,0.4282,303.894,305.913,2.74474,31.0172,-152.652,-0.0343878,0.194047,0.193984,-0.385385,-2.06547e-07,0.00928587,-1.80806e-05,0.522579,0.2141533468225223,-2.0654697863164984e-07,0.009329117450579183,0.21407685757110917,-1.8080436546941137e-05,-0.3198112868669245
442,0.4292,304.081,306.103,2.74758,31.0369,-152.751,-0.0364005,0.194458,0.194396,-0.386207,-2.05827e-07,0.00926746,-1.79508e-05,0.523713,0.2146524664101157,-2.0582697879412137e-07,0.009310535872570913,0.21457716029171214,-1.7950638885322334e-05,-0.32037017225575604
443,0.4302,304.267,306.294,2.75051,31.0567,-152.849,-0.0385486,0.19487,0.194807,-0.387028,-2.05053e-07,0.00924901,-1.7814e-05,0.524846,0.2151530063304199,-2.0505297892992047e-07,0.009291914264968781,0.2150764541024417,-1.781384133159314e-05,-0.32092791935781995
444,0.4312,304.39,306.511,2.74621,31.0894,-152.95,-0.0578214,0.195281,0.195219,-0.387849,-1.97718e-07,0.0092307,-1.67847e-05,0.525978,0.2156525368625144,-1.977179804324436e-07,0.009273434299203354,0.21557716874166477,-1.6784559137672517e-05,-0.3214852087374338
445,0.4322,304.545,306.73,2.75921,31.1165,-153.052,-0.0745081,0.195693,0.19563,-0.38867,-1.90863e-07,0.00921238,-1.58222e-05,0.527109,0.2161534888967347,-1.908629817526375e-07,0.009254944579253355,0.21607687364034,-1.5822074829641153e-05,-0.3220420407702337
446,0.4332,304.696,306.922,2.75585,31.1402,-153.155,-0.090674,0.196104,0.196041,-0.389491,-1.84868e-07,0.00919406,-1.49781e-05,0.528241,0.21665343071167653,-1.848679829219435e-07,0.009236455198031734,0.21657678395993973,-1.497798782879034e-05,-0.3225984158315469
447,0.4342,304.868,307.12,2.76541,31.1617,-153.257,-0.104731,0.196514,0.196452,-0.390311,-1.79299e-07,0.00917567,-1.41932e-05,0.529371,0.2171523608919661,-1.7929898388224785e-07,0.009217895510277518,0.2170768997849093,-1.419309927697121e-05,-0.3231536574503894
448,0.4352,305.037,307.302,2.76378,31.1822,-153.358,-0.118086,0.196925,0.196863,-0.391131,-1.74374e-07,0.00915723,-1.34969e-05,0.530502,0.21765271332767488,-1.7437398480701916e-07,0.00919928570386741,0.2175772211997289,-1.3496808917268233e-05,-0.32370844395772547
449,0.4362,305.219,307.49,2.77078,31.202,-153.459,-0.129662,0.197336,0.197273,-0.39195,-1.698e-07,0.00913871,-1.28497e-05,0.531632,0.21815327145050056,-1.6979998562760557e-07,0.009180595506167899,0.21807653021177376,-1.2849617442967087e-05,-0.32426209998903166
450,0.4372,305.397,307.668,2.77073,31.2215,-153.559,-0.140683,0.197746,0.197684,-0.39277,-1.65759e-07,0.00912012,-1.22757e-05,0.532761,0.218652816691572,-1.657589863146569e-07,0.00916183501327672,0.21857726255913934,-1.2275624653890205e-05,-0.32481597794604267
451,0.4382,305.583,307.851,2.77631,31.2408,-153.658,-0.15045,0.198156,0.198094,-0.393588,-1.62009e-07,0.00910146,-1.17424e-05,0.53389,0.21915256678818462,-1.6200898689255894e-07,0.009143004229127172,0.21907698167220668,-1.1742331058273159e-05,-0.3253680526467464
452,0.4392,305.765,308.029,2.77675,31.2603,-153.756,-0.159459,0.198566,0.198504,-0.394407,-1.58629e-07,0.00908273,-1.12602e-05,0.535019,0.21965252182434658,-1.586289873900526e-07,0.009124103157666985,0.2195769057121173,-1.1260136604240856e-05,-0.32592035001498476
453,0.4402,305.954,308.21,2.78108,31.2796,-153.853,-0.167305,0.198976,0.198914,-0.395225,-1.55535e-07,0.00906393,-1.08175e-05,0.536147,0.22015268188410042,-1.5553498788900555e-07,0.00910513180285899,0.22007703476290863,-1.0817441491006718e-05,-0.3264715217087163
454,0.4412,306.14,308.389,2.78257,31.2989,-153.95,-0.1748,0.199386,0.199324,-0.396043,-1.52805e-07,0.00904507,-1.04251e-05,0.537275,0.2206530470515231,-1.5280498832925815e-07,0.009086100259541041,0.22057736890865254,-1.0425045658846166e-05,-0.3270222427283531
455,0.4422,306.328,308.57,2.787,31.3182,-154.047,-0.181626,0.199796,0.199733,-0.39686,-1.5031e-07,0.00902616,-1.00651e-05,0.538402,0.2211536174107256,-1.5030998867793244e-07,0.009067018621802703,0.22107668715615714,-1.006504934708552e-05,-0.32757184101457315
456,0.4432,306.515,308.748,2.78795,31.3375,-154.142,-0.187585,0.200205,0.200143,-0.397677,-1.48015e-07,0.0090072,-9.73299e-06,0.53953,0.22165317139207197,-1.480149890431548e-07,0.009047886892499024,0.22157743124341445,-9.732942634621544e-06,-0.328120990462369
457,0.4442,306.704,308.93,2.79256,31.3569,-154.238,-0.193224,0.200614,0.200552,-0.398494,-1.45967e-07,0.00898818,-9.43482e-06,0.540656,0.22215292973278533,-1.459669893844051e-07,0.009028694984205998,0.22207715860007138,-9.434775492200842e-06,-0.3286696914382915
458,0.4452,306.889,309.108,2.79323,31.3761,-154.333,-0.1981,0.201023,0.200961,-0.399311,-1.44087e-07,0.00896912,-9.16011e-06,0.541782,0.2226528925164657,-1.4408698967294242e-07,0.009009463080560165,0.22257709038702012,-9.160068046298875e-06,-0.32921794430859286
459,0.4462,307.078,309.29,2.7974,31.3954,-154.427,-0.202603,0.201432,0.20137,-0.400127,-1.42382e-07,0.00895001,-8.90945e-06,0.542908,0.2231530598267475,-1.42381989864937e-07,0.008990181093960548,0.22307722668788998,-8.90941031095327e-06,-0.32976507920464004
460,0.4472,307.323,309.443,2.80646,31.4021,-154.519,-0.189714,0.201841,0.201779,-0.400942,-1.46653e-07,0.0089307,-9.47168e-06,0.544034,0.22365343174729935,-1.4665298919691594e-07,0.008970697681676576,0.22357756758634428,-9.471635143754042e-06,-0.3303110981321521
461,0.4482,307.54,309.596,2.8001,31.4139,-154.609,-0.179821,0.202249,0.202187,-0.401758,-1.50991e-07,0.00891131,-1.00422e-05,0.54516,0.2241527842084272,-1.5099098860105187e-07,0.00895113392951985,0.22407688908857937,-1.0042149577227377e-05,-0.33085734137852174
462,0.4492,307.759,309.771,2.80844,31.4289,-154.699,-0.169815,0.202658,0.202595,-0.402573,-1.54657e-07,0.00889187,-1.05209e-05,0.546285,0.22465356509987977,-1.546569879939952e-07,0.008931520110123214,0.22457641435555242,-1.052084465547054e-05,-0.33140247047501736
463,0.4502,307.957,309.942,2.80476,31.4457,-154.788,-0.161092,0.203066,0.203004,-0.403387,-1.58041e-07,0.0088724,-1.09604e-05,0.54741,0.22515332569866997,-1.5804098751903695e-07,0.008911876404658736,0.22507736854717275,-1.0960339935084384e-05,-0.3319464874191158
464,0.4512,308.159,310.127,2.81201,31.4636,-154.878,-0.15289,0.203474,0.203412,-0.404202,-1.61015e-07,0.00885291,-1.13438e-05,0.548534,0.22565329024138636,-1.6101498701015515e-07,0.008892212903808927,0.22557730209304827,-1.1343735659363752e-05,-0.3324907292232092
465,0.4522,308.347,310.306,2.81018,31.4819,-154.968,-0.145762,0.203882,0.20382,-0.405016,-1.63774e-07,0.00883343,-1.16973e-05,0.549658,0.22615345881125481,-1.6377398659450648e-07,0.008872559874922858,0.22607743965342664,-1.1697231586893508e-05,-0.33303386068512675
466,0.4532,308.539,310.493,2.81645,31.5005,-155.058,-0.139051,0.20429,0.204227,-0.405829,-1.66211e-07,0.00881393,-1.20065e-05,0.550782,0.2266538314915354,-1.6621098619662433e-07,0.008852887051815861,0.22657655473439475,-1.2006427922317542e-05,-0.33357588379414094
467,0.4542,308.721,310.675,2.81591,31.5192,-155.149,-0.133167,0.204697,0.204635,-0.406643,-1.68475e-07,0.00879444,-1.22919e-05,0.551904,0.22715318121172734,-1.6847498585104148e-07,0.008833224700657505,0.22707710007303183,-1.2291824454946365e-05,-0.3341181322996497
468,0.4552,308.907,310.862,2.82135,31.5377,-155.24,-0.127619,0.205105,0.205042,-0.407456,-1.7049e-07,0.00877493,-1.2543e-05,0.553027,0.2276539618619675,-1.7048998546265182e-07,0.00881354255644351,0.2275766220985984,-1.2542921336899937e-05,-0.33465927425407915
469,0.4562,309.085,311.045,2.82171,31.5562,-155.332,-0.122705,0.205512,0.20545,-0.408268,-1.72368e-07,0.00875542,-1.27752e-05,0.554149,0.2281537187180669,-1.7236798510733564e-07,0.008793860796224351,0.22807757554796915,-1.2775118397478913e-05,-0.3351993116385342
470,0.4572,309.267,311.231,2.82649,31.5745,-155.423,-0.118061,0.205919,0.205857,-0.409081,-1.74055e-07,0.0087359,-1.29811e-05,0.555271,0.2286536790166045,-1.7405498486944282e-07,0.008774169332250947,0.228577504849929,-1.2981015745872071e-05,-0.3357395749513773
471,0.4582,309.443,311.413,2.82749,31.5928,-155.516,-0.113904,0.206326,0.206263,-0.409893,-1.75635e-07,0.00871637,-1.31721e-05,0.556392,0.22915384284039808,-1.756349845560834e-07,0.008754468165106388,0.22907640858750367,-1.3172013248241576e-05,-0.3362787354877147
472,0.4592,309.622,311.597,2.83175,31.6109,-155.608,-0.109965,0.206732,0.20667,-0.410704,-1.77066e-07,0.00869681,-1.33427e-05,0.557512,0.22965298061870398,-1.770659843192135e-07,0.008734737120679403,0.22957674449724963,-1.3342610986621928e-05,-0.33681679522052144
473,0.4602,309.798,311.778,2.83321,31.6289,-155.7,-0.106401,0.207139,0.207077,-0.411516,-1.78411e-07,0.00867725,-1.35013e-05,0.558633,0.23015355124102754,-1.784109840974324e-07,0.008715006462187702,0.23007728408515682,-1.3501208857902292e-05,-0.3373550814090335
474,0.4612,309.973,311.962,2.83714,31.6474,-155.793,-0.104802,0.207545,0.207483,-0.412327,-1.79641e-07,0.00865765,-1.36442e-05,0.559752,0.23065309498334918,-1.7964098386613614e-07,0.008695235841813753,0.2305767968567265,-1.364410691828688e-05,-0.33789226857917
475,0.4622,310.146,312.143,2.83855,31.6658,-155.885,-0.101687,0.207952,0.207889,-0.413137,-1.80277e-07,0.00863805,-1.37061e-05,0.560872,0.23115407273506428,-1.8027698378553225e-07,0.00867546560894028,0.23107651247165584,-1.370600607186745e-05,-0.3384283586958129
476,0.4632,310.32,312.325,2.84254,31.6839,-155.978,-0.0996479,0.208358,0.208295,-0.413948,-1.80993e-07,0.00861841,-1.3779e-05,0.561991,0.23165402277158464,-1.809929836005253e-07,0.008655655417332486,0.23157643101231606,-1.377890507003876e-05,-0.3389646757909329
477,0.4642,310.493,312.504,2.8442,31.702,-156.071,-0.0979616,0.208764,0.208701,-0.414758,-1.81643e-07,0.00859875,-1.38426e-05,0.563109,0.2321541758290302,-1.8164298354328423e-07,0.008635825442076195,0.2320765525611117,-1.3842504191674543e-05,-0.33949989760944255
478,0.4652,310.665,312.687,2.84795,31.7206,-156.163,-0.0981303,0.209169,0.209107,-0.415568,-1.82193e-07,0.00857906,-1.38926e-05,0.564227,0.2326532993359287,-1.8219298336674683e-07,0.008615965598194109,0.2325768772004806,-1.3892503498258435e-05,-0.34003468607381127
479,0.4662,310.877,312.819,2.84972,31.749,-156.254,-0.0789722,0.209575,0.209513,-0.416378,-1.86439e-07,0.0085593,-1.44448e-05,0.565345,0.23315385818202916,-1.8643898258563496e-07,0.008596035543623426,0.23307740501289453,-1.4444695674353802e-05,-0.34056904153491385
480,0.4672,311.089,312.981,2.86461,31.7747,-156.345,-0.066696,0.20998,0.209918,-0.417187,-1.91045e-07,0.00853939,-1.50454e-05,0.566463,0.23365338664227808,-1.9104498172328732e-07,0.00857595459646232,0.23357690250333896,-1.50452868185047e-05,-0.34110230544597575
481,0.4682,311.267,313.133,2.85397,31.798,-156.433,-0.0584436,0.210385,0.210323,-0.417996,-1.95336e-07,0.00851944,-1.56024e-05,0.56758,0.23415311745252665,-1.9533598094589877e-07,0.008555833706874516,0.23407660233123773,-1.560227828323324e-05,-0.3416351381209922
482,0.4692,311.428,313.358,2.86933,31.8115,-156.523,-0.0626593,0.21079,0.210728,-0.418805,-1.94466e-07,0.00849951,-1.54575e-05,0.568696,0.23465305069474285,-1.9446598109595925e-07,0.008535733389409161,0.23457650457855395,-1.5457380533434595e-05,-0.342167539908692
483,0.4702,311.6,313.49,2.84863,31.8353,-156.613,-0.0498224,0.211195,0.211133,-0.419614,-1.97892e-07,0.0084796,-1.58965e-05,0.569812,0.23515318645092864,-1.9789198046904488e-07,0.008515653642851895,0.23507660932728403,-1.5896373651291817e-05,-0.34269951115752195
484,0.4712,311.815,313.679,2.87906,31.8581,-156.703,-0.0398257,0.2116,0.211538,-0.420421,-2.01362e-07,0.00845957,-1.63408e-05,0.570928,0.23565352480311863,-2.0136197975695325e-07,0.008495453276616827,0.2355769166594579,-1.6340666489811362e-05,-0.34322973867643813
485,0.4722,311.973,313.824,2.85542,31.8794,-156.791,-0.0333938,0.212005,0.211943,-0.42123,-2.05003e-07,0.00843955,-1.68079e-05,0.572043,0.23615406583338072,-2.0500297903680575e-07,0.008475263399743582,0.23607742665713816,-1.6807758748016433e-05,-0.3437608509539657
486,0.4732,312.173,314.018,2.88011,31.9001,-156.881,-0.024702,0.212409,0.212347,-0.422037,-2.07536e-07,0.00841946,-1.71239e-05,0.573158,0.23665357296962508,-2.0753597851363992e-07,0.008455003335214872,0.23657690282490007,-1.7123753386916185e-05,-0.34429022231717143
487,0.4742,312.33,314.174,2.86232,31.9199,-156.969,-0.0188137,0.212813,0.212751,-0.422845,-2.10205e-07,0.0083994,-1.74578e-05,0.574272,0.2371532819475215,-2.102049778685e-07,0.00843477393074954,0.23707658082180028,-1.745764761351687e-05,-0.34481982183052273
488,0.4752,312.528,314.364,2.88466,31.9396,-157.058,-0.00778397,0.213217,0.213155,-0.423651,-2.12243e-07,0.00837928,-1.77057e-05,0.575386,0.23765319284863096,-2.122429775264223e-07,0.008414484427211155,0.23757646072939465,-1.770554325497553e-05,-0.3453476842969768
489,0.4762,312.686,314.519,2.86814,31.9587,-157.147,-0.00420615,0.213621,0.213559,-0.424458,-2.15636e-07,0.00835915,-1.81375e-05,0.5765,0.23815330575454663,-2.1563597674134627e-07,0.008394185247951436,0.23807654262927125,-1.8137335516588138e-05,-0.3458757756022476
490,0.4772,312.869,314.71,2.8832,31.9772,-157.237,2.23248e-05,0.214025,0.213963,-0.425264,-2.17744e-07,0.00833899,-1.8394e-05,0.577612,0.238653620746895,-2.1774397629403808e-07,0.008373856226094212,0.23857682660305168,-1.839383083146462e-05,-0.3464027873128622
491,0.4782,313.026,314.88,2.87499,31.9951,-157.326,0.00459266,0.214429,0.214367,-0.42607,-2.18973e-07,0.00831885,-1.85308e-05,0.578725,0.23915413790733542,-2.1897297597384124e-07,0.008353547781136506,0.2390773127323902,-1.853062830581287e-05,-0.3469293744231752
492,0.4792,313.19,315.072,2.88239,32.0117,-157.416,0.0026713,0.214832,0.21477,-0.426876,-2.19864e-07,0.00829868,-1.86216e-05,0.579837,0.23965361766332283,-2.1986397580331385e-07,0.008333209495190008,0.23957676152159268,-1.862142661912536e-05,-0.3474555372752761
493,0.4802,313.345,315.267,2.88661,32.0271,-157.506,0.00413766,0.215235,0.215173,-0.427681,-2.18016e-07,0.00827856,-1.834e-05,0.580948,0.24015329875021751,-2.1801597627213454e-07,0.008312922035107473,0.24007641162922044,-1.833983182319976e-05,-0.34798062419192977
494,0.4812,313.516,315.464,2.89921,32.0435,-157.595,0.0319322,0.215638,0.215577,-0.428486,-2.0971e-07,0.00825859,-1.71814e-05,0.582059,0.2406531812491719,-2.0970997804958813e-07,0.00829278622711116,0.240577503713304,-1.7181252400577662e-05,-0.34850528858370466
495,0.4822,313.599,315.622,2.8566,32.053,-157.691,-0.027731,0.216041,0.21598,-0.429291,-2.17996e-07,0.00823826,-1.82786e-05,0.583169,0.24115326524137148,-2.1799597627047973e-07,0.008272287843134052,0.24107755720131063,-1.827843294743836e-05,-0.3490295307905963
496,0.4832,313.75,315.823,2.86614,32.0637,-157.784,-0.0375164,0.216444,0.216382,-0.430095,-2.1542e-07,0.00821816,-1.78986e-05,0.584279,0.24165355080803463,-2.154199767456788e-07,0.008252021773823115,0.2415765706742934,-1.7898439821029122e-05,-0.3495527007053528
497,0.4842,313.963,315.996,2.89525,32.0839,-157.875,-0.0135918,0.216847,0.216785,-0.430898,-2.1196e-07,0.00819806,-1.73991e-05,0.585389,0.2421540380304119,-2.1195997756962015e-07,0.008231756111855892,0.24207702686742483,-1.7398948636504485e-05,-0.3500748002356705
498,0.4852,314.163,316.193,2.9281,32.1026,-157.965,-0.00253369,0.217249,0.217187,-0.431701,-2.08592e-07,0.00817785,-1.69128e-05,0.586498,0.24265348433568157,-2.0859197824574238e-07,0.008211379953966702,0.24257644220798324,-1.691265697945088e-05,-0.3505964806883475
499,0.4862,314.311,316.316,2.89841,32.1226,-158.056,-0.00682862,0.217652,0.21759,-0.432505,-2.11332e-07,0.00815753,-1.72568e-05,0.587607,0.24315437461248046,-2.1133197769529488e-07,0.008190893306871061,0.24307730143054784,-1.7256651102304232e-05,-0.3511183912817012
500,0.4872,314.414,316.536,2.90173,32.1428,-158.151,-0.0625443,0.218054,0.217992,-0.433308,-2.12956e-07,0.00813712,-1.74491e-05,0.588714,0.24365422313389606,-2.129559772967582e-07,0.008170316340727402,0.2435771189623157,-1.744894776534167e-05,-0.3516392340671367
501,0.4882,314.538,316.683,2.86842,32.1518,-158.24,-0.0561278,0.218456,0.218394,-0.434111,-2.07241e-07,0.00811694,-1.66439e-05,0.589822,0.24415427263481138,-2.072409784892315e-07,0.008149971669022094,0.24407713746112303,-1.664376149101976e-05,-0.3521596587836925
502,0.4892,314.814,316.913,2.95759,32.1704,-158.33,-0.0220154,0.218857,0.218796,-0.434912,-2.00383e-07,0.00809666,-1.56847e-05,0.590929,0.2446532785421356,-2.0038297987579057e-07,0.008129526594910397,0.24457735700777494,-1.568457699574477e-05,-0.35267837112498024
503,0.4902,314.956,317.022,2.9164,32.1891,-158.418,-0.0196691,0.219259,0.219197,-0.435715,-2.0099e-07,0.00807627,-1.57406e-05,0.592037,0.24515372974406158,-2.0098997977058275e-07,0.00810897104342767,0.2450765326059534,-1.5740476117409585e-05,-0.3531979617494114
504,0.4912,315.08,317.194,2.89986,32.2019,-158.51,-0.0621389,0.219661,0.219599,-0.436516,-2.05741e-07,0.00805566,-1.63597e-05,0.593143,0.24565438216781343,-2.0574097880921016e-07,0.008088194131641302,0.2455771539902174,-1.6359566180845775e-05,-0.3537158427430228
505,0.4922,315.252,317.403,2.92224,32.2153,-158.598,-0.053803,0.220062,0.22,-0.437317,-1.98128e-07,0.00803529,-1.52985e-05,0.594249,0.24615398973968627,-1.9812798035534485e-07,0.008067659584271913,0.24607673058738078,-1.5298382978534697e-05,-0.35423330908005046
506,0.4932,315.455,317.562,2.94109,32.2355,-158.687,-0.0359639,0.220463,0.220401,-0.438118,-1.95195e-07,0.00801483,-1.48742e-05,0.595354,0.24665379769436924,-1.9519498095643684e-07,0.00804703473094981,0.24657650755493132,-1.4874089379612876e-05,-0.35475036109250124
507,0.4942,315.644,317.718,2.95023,32.256,-158.775,-0.0348235,0.220864,0.220802,-0.438919,-1.96184e-07,0.00799423,-1.49835e-05,0.59646,0.24715380611223225,-1.9618398072740462e-07,0.008026269175920087,0.24707648497323342,-1.4983387747968813e-05,-0.35526699911211634
508,0.4952,315.732,317.848,2.89311,32.269,-158.864,-0.0721107,0.221265,0.221203,-0.43972,-2.00631e-07,0.00797353,-1.55623e-05,0.597565,0.24765401507367724,-2.006309798296968e-07,0.008005403248111387,0.2475766629226841,-1.5562178908079538e-05,-0.35578322347037117
509,0.4962,316.154,317.77,2.91243,32.3333,-158.945,0.0255086,0.221666,0.221604,-0.440522,-2.23591e-07,0.00795255,-1.86551e-05,0.598674,0.24815442465913828,-2.2359097495705527e-07,0.007984255516591654,0.24807704148371257,-1.8654925994732174e-05,-0.35629967819911956
510,0.4972,316.38,318.11,3.01582,32.3469,-159.023,0.0349219,0.222066,0.222004,-0.44132,-2.18574e-07,0.00793141,-1.79447e-05,0.599776,0.24865378629467072,-2.1857397614066798e-07,0.007962946954662264,0.24857637215978357,-1.794453899484072e-05,-0.3568131461549541
511,0.4982,316.386,318.192,2.88012,32.3601,-159.102,0.0153837,0.222466,0.222405,-0.442121,-2.22022e-07,0.00791051,-1.83843e-05,0.600881,0.2491533477148118,-2.2202197536014268e-07,0.007941880749213537,0.24907715168460376,-1.838413100974101e-05,-0.35732813254529994
512,0.4992,316.628,318.532,3.003,32.3714,-159.188,0.0179104,0.222867,0.222805,-0.442919,-2.15937e-07,0.00788962,-1.75288e-05,0.601982,0.24965435865322516,-2.1593697663302436e-07,0.00792082506325209,0.2495768824847746,-1.7528646371500756e-05,-0.3578407801219411
513,0.5002,316.669,318.641,2.90694,32.383,-159.273,0.0082852,0.223267,0.223205,-0.443719,-2.13524e-07,0.00786897,-1.71726e-05,0.603086,0.25015432038236596,-2.1352397716611904e-07,0.007900011713113164,0.2500768132172493,-1.7172452551728057e-05,-0.35835430206167973
514,0.5012,316.853,318.915,2.97588,32.3904,-159.364,-0.0134016,0.223667,0.223605,-0.444516,-2.10728e-07,0.00784818,-1.6765e-05,0.604187,0.2506544821362009,-2.1072797784515984e-07,0.007879057689687441,0.2505769439620167,-1.676485946822126e-05,-0.3588654899475049
515,0.5022,316.969,319.044,2.93414,32.4054,-159.451,-0.00904709,0.224066,0.224005,-0.445315,-2.06938e-07,0.0078276,-1.62226e-05,0.605289,0.2511535928405373,-2.0693797864179686e-07,0.007858315752115486,0.2510772747990979,-1.6222468414373026e-05,-0.359377551825075
516,0.5032,317.16,319.231,2.96716,32.4214,-159.542,-0.0173034,0.224466,0.224404,-0.446112,-2.07894e-07,0.0078068,-1.63258e-05,0.60639,0.25165415438330774,-2.078939783656253e-07,0.007837352517166218,0.2515765542313657,-1.6325666734817723e-05,-0.35988792450574103
517,0.5042,317.319,319.391,2.96407,32.4378,-159.629,-0.0105361,0.224865,0.224804,-0.44691,-2.04697e-07,0.00778608,-1.58648e-05,0.607491,0.25215366403645567,-2.0469697903369166e-07,0.007816470343562143,0.2520772849925339,-1.5864674154708602e-05,-0.3603985301832239
518,0.5052,317.463,319.533,2.94824,32.454,-159.718,-0.0269373,0.225264,0.225203,-0.447707,-2.07634e-07,0.00776519,-1.62376e-05,0.608592,0.2526533730337217,-2.076339784551351e-07,0.007795417277396854,0.2525769635084809,-1.6237468170920977e-05,-0.36090808946831965
519,0.5062,317.832,319.419,2.92672,32.5164,-159.799,0.0556505,0.225663,0.225602,-0.448507,-2.33019e-07,0.00774397,-1.9659e-05,0.609696,0.25315328145466,-2.3301897289496054e-07,0.007774032085539728,0.25307684143593545,-1.965880676313425e-05,-0.3614191585418586
520,0.5072,318.214,319.481,2.98624,32.569,-159.873,0.123182,0.226062,0.226001,-0.449305,-2.56348e-07,0.0077222,-2.27982e-05,0.610799,0.2536533893788564,-2.5634796718687625e-07,0.00775209308366831,0.25357691885447897,-2.2797940123053806e-05,-0.3619285427819988
521,0.5082,318.25,319.823,2.98075,32.5659,-159.944,0.099136,0.226461,0.2264,-0.450101,-2.47595e-07,0.00770076,-2.15755e-05,0.611897,0.2541536968859288,-2.475949693048207e-07,0.007730487110409356,0.25407719584372424,-2.1575267250550922e-05,-0.36243624556942755
522,0.5092,318.304,320.037,2.93952,32.5713,-160.024,0.0851254,0.22686,0.226798,-0.450897,-2.43836e-07,0.00767964,-2.10321e-05,0.612995,0.2546542040555264,-2.4383597030386284e-07,0.007709204067271269,0.2545764179062706,-2.1031878826960337e-05,-0.3629435443862392
523,0.5102,318.451,320.33,2.993,32.5766,-160.11,0.0780353,0.227258,0.227197,-0.451692,-2.35782e-07,0.00765866,-1.99058e-05,0.614092,0.2551536558130474,-2.3578197216878038e-07,0.0076880625499453625,0.2550770937752087,-1.990560188092072e-05,-0.36344980300398755
524,0.5112,318.492,320.514,2.94276,32.5787,-160.199,0.0460801,0.227656,0.227595,-0.452487,-2.31232e-07,0.00763782,-1.92565e-05,0.61519,0.2556533063919306,-2.3123197323560163e-07,0.007667062549542525,0.2555767138763363,-1.925631459476218e-05,-0.36395565930607654
525,0.5122,318.63,320.764,2.98129,32.5848,-160.292,0.0240335,0.228055,0.227993,-0.453282,-2.24137e-07,0.00761703,-1.82625e-05,0.616286,0.2561544120251069,-2.2413697486900475e-07,0.007646113369079499,0.2560765328658401,-1.8262333241536588e-05,-0.3644611136122199
526,0.5132,318.696,320.9,2.92926,32.592,-160.385,-0.0072927,0.228453,0.228391,-0.454077,-2.21539e-07,0.00759626,-1.78801e-05,0.617383,0.25665446098423494,-2.2153897549781476e-07,0.0076251847766490854,0.2565765508228939,-1.787994015201022e-05,-0.3649661662418774
527,0.5142,318.886,321.142,2.99436,32.6012,-160.479,-0.0132266,0.22885,0.228789,-0.45487,-2.12999e-07,0.00757549,-1.66914e-05,0.618479,0.25715345184837823,-2.1299897734472495e-07,0.007604256618900962,0.2570767678267021,-1.6691260699364108e-05,-0.3654695484546209
528,0.5152,319.216,320.94,2.9192,32.6644,-160.563,0.071784,0.229248,0.229187,-0.455668,-2.37718e-07,0.00755433,-2.00217e-05,0.61958,0.2576538985044925,-2.3771797175164977e-07,0.007582935938404534,0.2575771839565013,-2.0021499567146606e-05,-0.36597570177292005
529,0.5162,319.661,321.024,3.03304,32.7187,-160.64,0.140801,0.229645,0.229584,-0.456462,-2.60846e-07,0.00753243,-2.31333e-05,0.620678,0.25815328622410205,-2.608459659381168e-07,0.007560870113729079,0.25807654121438905,-2.313303242729159e-05,-0.36647891726272586
530,0.5172,319.657,321.315,2.98625,32.7152,-160.711,0.111143,0.230043,0.229982,-0.457256,-2.51997e-07,0.00751087,-2.18975e-05,0.621773,0.2586541308934973,-2.519969682923673e-07,0.007539147335541951,0.25857735533319115,-2.1897260251479977e-05,-0.3669817333580133
531,0.5182,319.675,321.59,2.96584,32.7209,-160.796,0.0551153,0.23044,0.230379,-0.458049,-2.46648e-07,0.00748955,-2.11379e-05,0.622866,0.25915391578419844,-2.466479696039414e-07,0.007517666829903735,0.25907710973794384,-2.1137676596172383e-05,-0.36748351785961
532,0.5192,319.788,321.844,2.98623,32.7195,-160.881,0.0543351,0.230837,0.230776,-0.458841,-2.33903e-07,0.00746856,-1.93742e-05,0.62396,0.2596538991288919,-2.3390297265724058e-07,0.007496519256021461,0.25957706258458346,-1.9374012321438094e-05,-0.36798427258841704
533,0.5202,319.906,322.018,2.97712,32.7259,-160.971,0.0428078,0.231234,0.231173,-0.459634,-2.29022e-07,0.00744754,-1.86809e-05,0.625054,0.2601540810063794,-2.2902197382990153e-07,0.0074753419017614675,0.26007721395190697,-1.8680725513031682e-05,-0.36848526239154356
534,0.5212,320.037,322.234,2.99707,32.7302,-161.062,0.020107,0.231631,0.23157,-0.460426,-2.2319e-07,0.0074265,-1.78594e-05,0.626147,0.260654461495494,-2.2318997505710314e-07,0.007454144843561661,0.26057756391874265,-1.785924052188914e-05,-0.36898522405277767
535,0.5222,320.381,322.069,2.94752,32.7913,-161.146,0.101696,0.232027,0.231966,-0.461221,-2.47183e-07,0.00740514,-2.10899e-05,0.627245,0.2611537795206902,-2.471829694261629e-07,0.007432625852851427,0.2610768514864683,-2.1089677609609225e-05,-0.3694866814439316
536,0.5232,320.793,322.137,3.03797,32.8439,-161.222,0.168661,0.232423,0.232363,-0.462013,-2.69448e-07,0.00738311,-2.40833e-05,0.62834,0.26165329531497994,-2.694479637188607e-07,0.007410432356566243,0.2615775983881914,-2.408300999967583e-05,-0.3699858502952703
537,0.5242,320.58,322.201,2.78114,32.8382,-161.297,0.038492,0.23282,0.232759,-0.462807,-2.89051e-07,0.00736101,-2.67117e-05,0.629434,0.2621542711103355,-2.8905095827980176e-07,0.007388168832023867,0.26207728204798797,-2.671134324572222e-05,-0.3704858829908858
538,0.5252,321.156,322.474,3.04534,32.887,-161.367,0.207111,0.233216,0.233155,-0.463597,-2.8345e-07,0.00733942,-2.59126e-05,0.630526,0.2626541831777516,-2.8344995983697885e-07,0.0073664195562430645,0.26257716362169803,-2.5912264271510388e-05,-0.3709830027551617
539,0.5262,321.102,322.76,2.97622,32.8802,-161.442,0.167988,0.233612,0.233551,-0.464388,-2.71919e-07,0.00731779,-2.43089e-05,0.631617,0.26315429324954875,-2.719189630129293e-07,0.0073446304562381215,0.2630772431877113,-2.4308604541056766e-05,-0.37148035846986505
540,0.5272,321.182,323.078,3.0122,32.8742,-161.527,0.139687,0.234007,0.233947,-0.465177,-2.60684e-07,0.00729646,-2.27468e-05,0.632706,0.2636533377501826,-2.606839659691218e-07,0.007323144024424133,0.2635775208244482,-2.2746541293527933e-05,-0.3719760648851359
541,0.5282,321.228,323.297,2.98731,32.8719,-161.616,0.108885,0.234403,0.234342,-0.465968,-2.51381e-07,0.00727533,-2.14488e-05,0.633796,0.2641538435655426,-2.51380968374626e-07,0.0073018595112626095,0.26407673253299535,-2.144856997610134e-05,-0.37247263539828257
542,0.5292,321.342,323.533,3.01405,32.8728,-161.709,0.0827133,0.234798,0.234738,-0.466757,-2.42395e-07,0.00725424,-2.01952e-05,0.634885,0.2646532829665389,-2.4239497065092763e-07,0.007280615739061913,0.2645774060458912,-2.0194996078304328e-05,-0.37296755921583225
543,0.5302,321.433,323.707,3.00015,32.8763,-161.802,0.0570426,0.235194,0.235133,-0.467546,-2.34893e-07,0.00723318,-1.91448e-05,0.635975,0.2651541848386185,-2.3489297240608664e-07,0.00725940263266911,0.26507701278711493,-1.914461673946377e-05,-0.37346209269249964
544,0.5312,321.804,323.56,2.98283,32.938,-161.89,0.136472,0.235589,0.235528,-0.468338,-2.5777e-07,0.00721171,-2.22225e-05,0.637069,0.265654019452467,-2.577699668160349e-07,0.007237777005446588,0.26557681691198187,-2.2222253082126997e-05,-0.37395811426461656
545,0.5322,322.191,323.593,3.04753,32.9912,-161.966,0.200999,0.235984,0.235923,-0.469128,-2.79294e-07,0.00718961,-2.51143e-05,0.63816,0.2661540515399867,-2.7929396095860426e-07,0.0072155172965453485,0.2660768184984743,-2.5113984638558406e-05,-0.3744524920494108
546,0.5332,322.426,323.597,3.00189,33.0357,-162.032,0.257647,0.236379,0.236318,-0.469919,-2.97924e-07,0.00716736,-2.76095e-05,0.639252,0.26665428117919454,-2.979239556166746e-07,0.007193107000601051,0.2665770176246052,-2.760911886123818e-05,-0.374947104483193
547,0.5342,322.496,324.055,3.08006,33.0243,-162.104,0.218114,0.236773,0.236713,-0.470706,-2.84493e-07,0.00714528,-2.57466e-05,0.640338,0.2671534412940646,-2.8449295952359677e-07,0.007170868422313292,0.2670774143684176,-2.574626855911255e-05,-0.37543882759354097
548,0.5352,322.452,324.258,2.98677,33.0202,-162.181,0.193018,0.237168,0.237107,-0.471495,-2.7282e-07,0.00712377,-2.41234e-05,0.641425,0.2676540657702007,-2.72819962732207e-07,0.007149204409930832,0.26757674123061115,-2.4123109033102885e-05,-0.37593141200846425
549,0.5362,322.564,324.583,3.05234,33.0143,-162.271,0.151556,0.237562,0.237502,-0.472281,-2.6358e-07,0.00710227,-2.28327e-05,0.642511,0.26815361987781094,-2.6357996529835503e-07,0.007127550934811655,0.268077532943249,-2.2832439335873644e-05,-0.3764217371955837
550,0.5372,322.573,324.74,2.98349,33.0121,-162.361,0.114031,0.237956,0.237896,-0.473069,-2.55447e-07,0.00708103,-2.16935e-05,0.643597,0.26865337084851904,-2.5544696735657624e-07,0.007106159772804821,0.2685772539297986,-2.16932646976975e-05,-0.37691292331392634
551,0.5382,322.731,325.01,3.05355,33.014,-162.455,0.0892459,0.23835,0.23829,-0.473855,-2.44761e-07,0.00705975,-2.0209e-05,0.644682,0.26915331875990445,-2.4476097004733077e-07,0.007084728781751259,0.26907717184520896,-2.020879579955892e-05,-0.3774024773362672
552,0.5392,323.019,324.8,2.96472,33.0724,-162.541,0.161171,0.238744,0.238684,-0.474645,-2.66946e-07,0.0070382,-2.31917e-05,0.645773,0.2696534636895769,-2.6694596433340934e-07,0.007063026339690692,0.26957728676708603,-2.3191431074653934e-05,-0.37789413514876524
553,0.5402,323.464,324.888,3.09149,33.1252,-162.62,0.228248,0.239138,0.239078,-0.475432,-2.86754e-07,0.00701592,-2.58496e-05,0.646861,0.2701538057151771,-2.8675395891131217e-07,0.007040589225414395,0.27007759877306525,-2.5849265901989327e-05,-0.3783835398583898
554,0.5412,323.651,324.843,2.99855,33.1693,-162.684,0.282684,0.239531,0.239471,-0.476221,-3.05021e-07,0.00699357,-2.8295e-05,0.64795,0.2706530742606663,-3.0502095349493885e-07,0.007018082119762958,0.2705768373633404,-2.8294599700218193e-05,-0.37887380181166774
555,0.5422,323.751,325.344,3.11636,33.1572,-162.756,0.239056,0.239925,0.239865,-0.477005,-2.9034e-07,0.00697131,-2.62617e-05,0.649032,0.2711538102104294,-2.9033995785354705e-07,0.006995666146745627,0.271077543269848,-2.6261355164591826e-05,-0.37936057391145117
556,0.5432,323.627,325.507,2.96301,33.1474,-162.832,0.204663,0.240318,0.240258,-0.477792,-2.75943e-07,0.00694973,-2.42677e-05,0.650116,0.2716534718349204,-2.7594296192479106e-07,0.006973935414745558,0.2715771749155407,-2.4267405541733567e-05,-0.3798488249877836
557,0.5442,323.788,325.875,3.07946,33.1413,-162.924,0.168634,0.240711,0.240651,-0.478575,-2.63803e-07,0.0069281,-2.25831e-05,0.651198,0.2721533298650207,-2.6380296525019276e-07,0.006952154804080735,0.2720770029550592,-2.258284500367136e-05,-0.3803342133034937
558,0.5452,323.773,326.008,2.98965,33.1399,-163.014,0.116947,0.241104,0.241044,-0.479361,-2.57406e-07,0.00690669,-2.16801e-05,0.652281,0.2726533843779335,-2.5740596687473527e-07,0.006930596189232308,0.2725770274656012,-2.167986498835539e-05,-0.38082107924845554
559,0.5462,324.18,325.939,3.03736,33.1956,-163.103,0.194548,0.241497,0.241437,-0.480147,-2.76397e-07,0.00688492,-2.4228e-05,0.653368,0.2731536354508912,-2.7639696176251505e-07,0.006908675548760179,0.27307724852439486,-2.4227706504342805e-05,-0.38130756266713706
560,0.5472,324.513,325.932,3.05766,33.2458,-163.178,0.257173,0.24189,0.241829,-0.480934,-2.95661e-07,0.00686262,-2.68109e-05,0.654454,0.27365408316115736,-2.9566095627320266e-07,0.00688622173565645,0.27357639263166966,-2.681054059106014e-05,-0.381794282066113
561,0.5482,324.779,325.973,3.054,33.2884,-163.245,0.311991,0.242282,0.242222,-0.48172,-3.12424e-07,0.00684009,-2.90514e-05,0.655539,0.274153453431935,-3.1242395115427257e-07,0.006863536844627038,0.27407700651815947,-2.905097801220169e-05,-0.38228000084792146
562,0.5492,324.789,326.388,3.08416,33.2736,-163.315,0.258335,0.242674,0.242614,-0.482502,-2.99485e-07,0.00681775,-2.72538e-05,0.656618,0.2746530194942314,-2.9948495516851636e-07,0.006841043764462595,0.2745765426073914,-2.7253428618534414e-05,-0.38276286906117996
563,0.5502,324.738,326.669,3.03447,33.2681,-163.396,0.204578,0.243067,0.243007,-0.483286,-2.84791e-07,0.00679596,-2.52186e-05,0.657698,0.2751540565782309,-2.8479095948164e-07,0.006819104937143328,0.2750775496300677,-2.5218282013739213e-05,-0.3832465933271467
564,0.5512,324.82,326.953,3.06822,33.259,-163.485,0.174492,0.243459,0.243399,-0.484068,-2.70492e-07,0.00677433,-2.32392e-05,0.658778,0.2756540149538491,-2.704919633833569e-07,0.006797327675425402,0.27557747800908317,-2.323892997191379e-05,-0.3837287059605565
565,0.5522,324.868,327.149,3.04556,33.2554,-163.576,0.133724,0.24385,0.243791,-0.484851,-2.60054e-07,0.0067528,-2.17866e-05,0.659858,0.27615289319803704,-2.6005396613903997e-07,0.006775651562304752,0.2760776023984388,-2.1786362673803517e-05,-0.3842110575185108
566,0.5532,325.211,327.008,3.02619,33.3098,-163.663,0.205911,0.244242,0.244182,-0.485636,-2.79905e-07,0.00673095,-2.44513e-05,0.660942,0.2766532431943627,-2.7990496087593186e-07,0.006753653754645095,0.27657664629770107,-2.4451001069403233e-05,-0.3846942621557251
567,0.5542,325.595,327.041,3.09683,33.36,-163.74,0.270094,0.244634,0.244574,-0.486419,-2.98665e-07,0.00670849,-2.6966e-05,0.662024,0.27715378936633495,-2.9866495543373617e-07,0.0067310423215090065,0.2770771624378039,-2.6965636420683836e-05,-0.38517585797908727
568,0.5552,325.824,327.036,3.0516,33.4027,-163.806,0.324256,0.245025,0.244965,-0.487204,-3.15523e-07,0.00668587,-2.92195e-05,0.663107,0.2776532541369767,-3.155229502116441e-07,0.0067082703228840135,0.27757659724145833,-2.9219073114594707e-05,-0.38565830554512937
569,0.5562,326.097,327.162,3.0897,33.4389,-163.87,0.373742,0.245416,0.245357,-0.487987,-3.29546e-07,0.00666305,-3.1086e-05,0.664188,0.278152914236528,-3.2954594575418383e-07,0.0066852975022761996,0.27807750543916954,-3.1085516835283045e-05,-0.3861391468179626
570,0.5572,326.062,327.592,3.09959,33.4198,-163.938,0.317024,0.245807,0.245748,-0.488767,-3.13067e-07,0.00664058,-2.8805e-05,0.665264,0.2786527697413774,-3.1306695102983895e-07,0.006662677537777606,0.2785773314534141,-2.8804585139985406e-05,-0.386617771595515
571,0.5582,325.996,327.859,3.03512,33.4039,-164.016,0.275012,0.246198,0.246139,-0.489548,-2.96048e-07,0.00661867,-2.6452e-05,0.666341,0.2791528207279437,-2.9604795614979196e-07,0.00664062180013425,0.2790773529378423,-2.6451650148917594e-05,-0.38709663609497125
572,0.5592,326.095,328.181,3.10044,33.3954,-164.107,0.226939,0.246589,0.24653,-0.490328,-2.84577e-07,0.00659683,-2.48556e-05,0.667417,0.27965306727267447,-2.845769595527514e-07,0.0066186370090288715,0.2795775699688978,-2.4855291102188204e-05,-0.3875745143220801
573,0.5602,326.103,328.361,3.05241,33.3884,-164.198,0.181329,0.24698,0.24692,-0.491109,-2.73325e-07,0.00657519,-2.32903e-05,0.668494,0.2801535094520484,-2.733249626629686e-07,0.006596854017416831,0.2800767025457116,-2.329002878309616e-05,-0.38805263189717876
574,0.5612,326.453,328.247,3.05392,33.4415,-164.287,0.249291,0.24737,0.247311,-0.491891,-2.91941e-07,0.00655323,-2.57859e-05,0.669574,0.28065286668906664,-2.919409574086984e-07,0.006574749393212231,0.28057731039886447,-2.578556754651018e-05,-0.3885309876775479
575,0.5622,326.807,328.266,3.10616,33.4901,-164.365,0.308785,0.247761,0.247701,-0.492672,-3.09586e-07,0.00653071,-2.8148e-05,0.670654,0.28115369986644767,-3.095859520962918e-07,0.006552081585096348,0.28107683295048624,-2.8147603848727165e-05,-0.38900835853858573
576,0.5632,327.042,328.275,3.07582,33.5317,-164.432,0.360336,0.248151,0.248091,-0.493454,-3.25143e-07,0.00650799,-3.02239e-05,0.671733,0.2816534472538017,-3.251429471218259e-07,0.006529212981591037,0.2815765503538967,-3.0223443262533678e-05,-0.38948596723287
577,0.5642,327.297,328.387,3.10187,33.5671,-164.497,0.40689,0.248541,0.248481,-0.494235,-3.38233e-07,0.00648509,-3.19626e-05,0.67281,0.28215338958064784,-3.3823294276480453e-07,0.00650616372652868,0.2820764626851029,-3.196208920153154e-05,-0.38996259254604937
578,0.5652,327.267,328.825,3.12228,33.5462,-164.565,0.347467,0.248931,0.248871,-0.495013,-3.21062e-07,0.0064625,-2.95867e-05,0.673883,0.2826535269230268,-3.2106194847170144e-07,0.006483427009102316,0.28257657002014147,-2.958626231785999e-05,-0.39043701707397704
579,0.5662,327.198,329.1,3.0619,33.5305,-164.644,0.29073,0.249321,0.249261,-0.495792,-3.05526e-07,0.00644043,-2.74344e-05,0.674957,0.28315385935700954,-3.0552595331467813e-07,0.006461214164988016,0.28307687243507895,-2.7434023680328323e-05,-0.39091168173178836
580,0.5672,327.264,329.405,3.10524,33.5182,-164.734,0.244993,0.24971,0.249651,-0.496569,-2.90726e-07,0.00641851,-2.53844e-05,0.676029,0.28365310330495186,-2.9072595775225807e-07,0.006439152776967161,0.28357737000601113,-2.5384077818824125e-05,-0.3913847595405532
581,0.5682,327.27,329.613,3.075,33.5155,-164.827,0.192922,0.2501,0.25004,-0.497347,-2.76422e-07,0.00639679,-2.34036e-05,0.677102,0.28415382564975133,-2.7642196176458356e-07,0.006417293155965176,0.28407677873164294,-2.3403326137927394e-05,-0.391858078052855
582,0.5692,327.362,329.843,3.10793,33.515,-164.922,0.147907,0.250489,0.250429,-0.498124,-2.63094e-07,0.00637506,-2.15582e-05,0.678174,0.28465345866024916,-2.6309396539137e-07,0.0063954239457946205,0.2845763817650595,-2.1557967623708763e-05,-0.39233042079728775
583,0.5702,327.429,329.999,3.09027,33.5169,-165.016,0.106288,0.250878,0.250819,-0.498901,-2.51425e-07,0.00635332,-1.99401e-05,0.679247,0.2851532860657955,-2.51424968400471e-07,0.006373545147101423,0.2850774642586831,-1.9939901197529863e-05,-0.3928023966739548
584,0.5712,327.551,330.176,3.11128,33.5213,-165.11,0.0696851,0.251267,0.251208,-0.499678,-2.40723e-07,0.00633148,-1.84556e-05,0.680319,0.2856533079420247,-2.4072297100108386e-07,0.006351566188886659,0.28557745663449174,-1.8455429696473402e-05,-0.3932740059678014
585,0.5722,327.655,330.311,3.10051,33.5279,-165.201,0.0359591,0.251656,0.251596,-0.500454,-2.31243e-07,0.00630957,-1.7139e-05,0.681391,0.28615352436460073,-2.312429732143073e-07,0.006329517267618323,0.28607635746816884,-1.7138853128151332e-05,-0.39374464270849785
586,0.5732,327.795,330.463,3.11432,33.5365,-165.29,0.00615564,0.252044,0.251985,-0.50123,-2.22581e-07,0.00628754,-1.59355e-05,0.682462,0.28665264875592444,-2.225809752065544e-07,0.006307348072547514,0.28657673848902276,-1.5935373030573352e-05,-0.3942149143767498
587,0.5742,327.923,330.592,3.10804,33.5468,-165.376,-0.0210681,0.252433,0.252374,-0.502006,-2.14911e-07,0.00626542,-1.48681e-05,0.683534,0.2871532539976973,-2.149109769034041e-07,0.006285088800196403,0.2870773141959575,-1.4867989470368492e-05,-0.3946848212557439
588,0.5752,328.073,330.734,3.11724,33.5584,-165.461,-0.0452228,0.252821,0.252762,-0.502782,-2.07927e-07,0.00624319,-1.38954e-05,0.684604,0.28765276635938,-2.0792697841276464e-07,0.006262719331310063,0.28757679708728023,-1.3895303459410258e-05,-0.3951543636284466
589,0.5762,328.216,330.863,3.11395,33.5713,-165.543,-0.0672053,0.253209,0.25315,-0.503557,-2.01718e-07,0.00622087,-1.30293e-05,0.685675,0.2881524725694633,-2.0171797965318206e-07,0.006240259798063974,0.2880764738155668,-1.3029215119031434e-05,-0.39562293740084464
590,0.5772,328.372,331.001,3.12033,33.585,-165.624,-0.0867736,0.253598,0.253538,-0.504332,-1.96078e-07,0.00619847,-1.22417e-05,0.686745,0.28865366135619164,-1.960779807408386e-07,0.006217720268688165,0.2885763444560405,-1.2241625070741335e-05,-0.3960911481692513
591,0.5782,328.523,331.132,3.11896,33.5994,-165.703,-0.104535,0.253985,0.253926,-0.505107,-1.91048e-07,0.006176,-1.1538e-05,0.687815,0.28915246683577145,-1.9104798176794446e-07,0.006195110810531812,0.2890764090839537,-1.1537933437555381e-05,-0.39655899621488566
592,0.5792,328.681,331.27,3.12363,33.6144,-165.781,-0.120388,0.254373,0.254314,-0.505881,-1.86488e-07,0.00615347,-1.08989e-05,0.688884,0.2896527550425396,-1.864879826118937e-07,0.006172441490056135,0.28957666777458835,-1.0898840607231897e-05,-0.39702587884492935
593,0.5802,328.836,331.404,3.1235,33.6298,-165.858,-0.134749,0.254761,0.254702,-0.506655,-1.82408e-07,0.00613088,-1.0326e-05,0.689953,0.2901532373987945,-1.82407983384536e-07,0.00614971231132988,0.2900771206032553,-1.0325946687039789e-05,-0.39749240024763033
594,0.5812,328.995,331.543,3.12713,33.6455,-165.934,-0.147594,0.255148,0.255089,-0.507428,-1.78713e-07,0.00610824,-9.80603e-06,0.691022,0.290652623326612,-1.7871298407801106e-07,0.006126933339702045,0.29057647706817247,-9.805981921018336e-06,-0.39795795866073025
595,0.5822,329.151,331.68,3.12779,33.6614,-166.009,-0.159216,0.255536,0.255477,-0.508202,-1.75399e-07,0.00608557,-9.33856e-06,0.69209,0.29115349370703303,-1.7539898466978343e-07,0.00610412470066013,0.29107731789811275,-9.338516395729357e-06,-0.39842375891277515
596,0.5832,329.31,331.821,3.13079,33.6775,-166.084,-0.16963,0.255923,0.255864,-0.508975,-1.72398e-07,0.00606286,-8.9141e-06,0.693158,0.2916532668089553,-1.7239798510981785e-07,0.006081276335432539,0.29157706151429186,-8.914060269482604e-06,-0.39888859766381213
597,0.5842,329.466,331.96,3.13196,33.6936,-166.158,-0.179044,0.25631,0.256251,-0.509748,-1.697e-07,0.00604011,-8.5314e-06,0.694225,0.29215323336049814,-1.6969998561933153e-07,0.006058388246748869,0.2920769985686784,-8.531363607677811e-06,-0.399353077233336
598,0.5852,329.624,332.102,3.13458,33.7097,-166.232,-0.187493,0.256697,0.256638,-0.51052,-1.67255e-07,0.00601735,-8.18363e-06,0.695293,0.29265339343654095,-1.6725498597214283e-07,0.006035490618408357,0.2925771291361472,-8.183596514221847e-06,-0.3998165977157847
599,0.5862,329.779,332.243,3.13607,33.7259,-166.306,-0.195127,0.257083,0.257025,-0.511292,-1.65053e-07,0.00599455,-7.86915e-06,0.696359,0.2931524539588919,-1.6505298638946897e-07,0.006012553270708931,0.2930774532916025,-7.86911903827292e-06,-0.4002797604985109
600,0.5872,329.935,332.385,3.13846,33.742,-166.379,-0.201987,0.25747,0.257411,-0.512064,-1.63056e-07,0.00597174,-7.58295e-06,0.697426,0.29365300080814194,-1.6305598671273458e-07,0.005989606386079149,0.29357667753265315,-7.582921249471575e-06,-0.4007425658575521
601,0.5882,330.09,332.527,3.14016,33.7581,-166.452,-0.208184,0.257856,0.257798,-0.512836,-1.61252e-07,0.00594891,-7.32333e-06,0.698491,0.2941524472534165,-1.612519869853557e-07,0.005966639905528703,0.2940773885881982,-7.323303184536556e-06,-0.4012050140687329
602,0.5892,330.244,332.671,3.14242,33.7741,-166.525,-0.213761,0.258242,0.258184,-0.513607,-1.59614e-07,0.00592606,-7.0866e-06,0.699557,0.29465208652223174,-1.5961398724950726e-07,0.005943653830423834,0.2945769988787761,-7.086574890124986e-06,-0.4016665070744714
603,0.5902,330.397,332.814,3.14425,33.7901,-166.599,-0.218798,0.258629,0.25857,-0.514378,-1.5813e-07,0.0059032,-6.87113e-06,0.700622,0.29515321384159754,-1.581299875486053e-07,0.0059206582213380266,0.2950768020561507,-6.871106393857573e-06,-0.4021276444062323
604,0.5912,330.549,332.957,3.14642,33.8059,-166.672,-0.223337,0.259015,0.258956,-0.515148,-1.56781e-07,0.00588032,-6.67415e-06,0.701687,0.2956532394808804,-1.5678098774785099e-07,0.005897643019972865,0.295576798194791,-6.67412772792364e-06,-0.4025878289262623
605,0.5922,330.701,333.101,3.14834,33.8217,-166.745,-0.227438,0.2594,0.259342,-0.515919,-1.55555e-07,0.00585743,-6.49422e-06,0.702751,0.29615216201450556,-1.5555498789066036e-07,0.00587461828644309,0.2960769873691944,-6.494198912632143e-06,-0.40304825619264095
606,0.5932,330.852,333.245,3.15046,33.8374,-166.818,-0.231137,0.259786,0.259728,-0.516689,-1.54438e-07,0.00583453,-6.32921e-06,0.703815,0.2966525733222123,-1.544379880646929e-07,0.005851584021427714,0.2965773696538869,-6.329189970566418e-06,-0.4035077321144407
607,0.5942,331.002,333.388,3.15242,33.853,-166.891,-0.234482,0.260172,0.260113,-0.517458,-1.5342e-07,0.00581161,-6.17788e-06,0.704879,0.2971531778259682,-1.5341998826912118e-07,0.005828530167320212,0.2970766480461271,-6.177860916944944e-06,-0.40396625834251376
608,0.5952,331.151,333.532,3.15451,33.8686,-166.964,-0.237502,0.260557,0.260499,-0.518228,-1.52489e-07,0.00578868,-6.03859e-06,0.705942,0.29765267794703454,-1.5248898832531665e-07,0.005805466783546098,0.2975774162743232,-6.038571767730261e-06,-0.4044250276747302
609,0.5962,331.3,333.676,3.15651,33.884,-167.037,-0.240235,0.260942,0.260884,-0.518997,-1.51637e-07,0.00576573,-5.91028e-06,0.707004,0.2981523704126716,-1.5163698852127538e-07,0.005782383812961589,0.2980770797586376,-5.910262534380983e-06,-0.4048828487736743
610,0.5972,331.449,333.819,3.15819,33.8993,-167.11,-0.242384,0.261327,0.261269,-0.519766,-1.50856e-07,0.00574278,-5.79169e-06,0.708067,0.29865225529694595,-1.5085598858988192e-07,0.005759301372125103,0.29857693565042953,-5.791673228228156e-06,-0.40534031794352743
611,0.5982,331.597,333.963,3.1608,33.9146,-167.183,-0.244633,0.261712,0.261654,-0.520535,-1.50221e-07,0.0057198,-5.69304e-06,0.709129,0.29915233267395336,-1.502209887593864e-07,0.005736189288938265,0.29907698402379035,-5.693023794717256e-06,-0.40579743545481894
612,0.5992,331.744,334.106,3.16246,33.9298,-167.256,-0.246538,0.262097,0.262039,-0.521303,-1.496e-07,0.00569682,-5.59644e-06,0.71019,0.2996526026178177,-1.4959998884123138e-07,0.0057130777368612495,0.2995772249528392,-5.596424339948669e-06,-0.4062536078317751
613,0.6002,331.891,334.25,3.16483,33.945,-167.329,-0.248251,0.262481,0.262423,-0.522071,-1.49019e-07,0.00567382,-5.50549e-06,0.711251,0.3001517650502763,-1.49018988926386e-07,0.00568994660208233,0.30007635843471636,-5.505474844791358e-06,-0.406709430002842
614,0.6012,332.037,334.393,3.16661,33.9601,-167.402,-0.249821,0.262866,0.262808,-0.522839,-1.48484e-07,0.00565081,-5.42084e-06,0.712312,0.3006524198496854,-1.484839889931422e-07,0.005666805942645237,0.3005769841969892,-5.420825307300703e-06,-0.4071649022368746
615,0.6022,332.183,334.537,3.16884,33.9752,-167.475,-0.251243,0.26325,0.263192,-0.523606,-1.47984e-07,0.00562779,-5.34101e-06,0.713373,0.30115196628568497,-1.479839890627943e-07,0.005643655759232091,0.30107650166013555,-5.340995736791143e-06,-0.40761943242224996
616,0.6032,332.327,334.68,3.17072,33.9902,-167.548,-0.252546,0.263634,0.263577,-0.524373,-1.47519e-07,0.00560475,-5.26613e-06,0.714433,0.3016517045843512,-1.4751898913534234e-07,0.005620485996320257,0.30157751255168286,-5.266116133939569e-06,-0.40807361411663645
617,0.6042,332.472,334.823,3.17287,34.0051,-167.621,-0.25373,0.264018,0.263961,-0.52514,-1.47083e-07,0.0055817,-5.19522e-06,0.715492,0.30215163481937357,-1.470829892324943e-07,0.0055973067112602415,0.30207741429149393,-5.195206504882144e-06,-0.40852744758722426
618,0.6052,332.616,334.966,3.17481,34.02,-167.694,-0.254817,0.264402,0.264345,-0.525907,-1.46675e-07,0.00555864,-5.12825e-06,0.716551,0.3026517570644698,-1.466749892653496e-07,0.005574117904735498,0.3025775080304347,-5.128236850504564e-06,-0.4089809331009986
619,0.6062,332.76,335.108,3.17691,34.0349,-167.767,-0.255808,0.264786,0.264728,-0.526673,-1.4629e-07,0.00553556,-5.06452e-06,0.71761,0.30315207139338596,-1.4628998934451687e-07,0.0055509095219199445,0.30307649076510446,-5.064507175300825e-06,-0.4094334803585157
620,0.6072,332.903,335.251,3.17888,34.0497,-167.839,-0.256719,0.26517,0.265112,-0.527439,-1.45928e-07,0.00551247,-5.00394e-06,0.718669,0.3036525778798962,-1.4592798935897378e-07,0.005527691619470865,0.3035769682230802,-5.003927480262682e-06,-0.40988568109756707
621,0.6082,333.046,335.393,3.18095,34.0644,-167.912,-0.257552,0.265553,0.265496,-0.528204,-1.45585e-07,0.00548936,-4.94601e-06,0.719727,0.30415197244517866,-1.455849893972072e-07,0.005504454143027582,0.30407763790130393,-4.945997768457389e-06,-0.4103369459207249
622,0.6092,333.188,335.535,3.18294,34.0791,-167.985,-0.258321,0.265936,0.265879,-0.52897,-1.4526e-07,0.00546624,-4.8906e-06,0.720784,0.3046515583152123,-1.452599894813389e-07,0.005481207148784195,0.30457719529575455,-4.890588040984412e-06,-0.4107884548701449
623,0.6102,333.331,335.677,3.18499,34.0938,-168.058,-0.259027,0.26632,0.266262,-0.529735,-1.4495e-07,0.00544311,-4.83735e-06,0.721841,0.30515264071526893,-1.4494998945568938e-07,0.005457950637425268,0.30507694405733177,-4.8373383000344106e-06,-0.4112390293354623
624,0.6112,333.473,335.819,3.18699,34.1084,-168.13,-0.25968,0.266703,0.266645,-0.5305,-1.44654e-07,0.00541996,-4.78612e-06,0.722898,0.3056526099146528,-1.44653989564425e-07,0.005434674555289787,0.30557688425934315,-4.786108546595003e-06,-0.41168925924312383
625,0.6122,333.614,335.961,3.18902,34.123,-168.203,-0.260283,0.267085,0.267028,-0.531264,-1.44371e-07,0.0053968,-4.73663e-06,0.723955,0.3061514644867973,-1.4437098960762285e-07,0.005411388957875296,0.30607701597512427,-4.736618782197333e-06,-0.4121385569954662
626,0.6132,333.755,336.102,3.19102,34.1375,-168.275,-0.260842,0.267468,0.267411,-0.532028,-1.44099e-07,0.00537362,-4.68877e-06,0.725011,0.30665181630895333,-1.4409898962952639e-07,0.005388083791987297,0.3065773392780393,-4.688759007720478e-06,-0.41258751161541907
627,0.6142,333.896,336.244,3.19303,34.1521,-168.348,-0.261361,0.267851,0.267793,-0.532792,-1.43837e-07,0.00535043,-4.64232e-06,0.726066,0.30715235980256006,-1.4383698965225733e-07,0.005364769112658818,0.3070765471642791,-4.6423092244785025e-06,-0.4130361233650356
628,0.6152,334.037,336.385,3.19503,34.1665,-168.42,-0.261844,0.268233,0.268176,-0.533556,-1.43585e-07,0.00532722,-4.59717e-06,0.727121,0.3076517873886002,-1.4358498967581568e-07,0.005341434867162764,0.3075772533609591,-4.597159433017417e-06,-0.4134843925061683
629,0.6162,334.177,336.526,3.19704,34.181,-168.493,-0.262295,0.268615,0.268558,-0.534319,-1.4334e-07,0.005304,-4.55315e-06,0.728176,0.3081514057924224,-1.433399897665666e-07,0.005318091110067202,0.30807684328734375,-4.5531396344333785e-06,-0.41393173323249666
630,0.6172,334.318,336.666,3.19904,34.1954,-168.565,-0.262718,0.268997,0.26894,-0.535082,-1.43102e-07,0.00528077,-4.51017e-06,0.729231,0.3086512150869325,-1.4310198981348776e-07,0.005294737842059805,0.3085766240935359,-4.51015982916303e-06,-0.4143787327680317
631,0.6182,334.458,336.807,3.20104,34.2098,-168.637,-0.263115,0.269379,0.269322,-0.535845,-1.4287e-07,0.00525752,-4.4681e-06,0.730285,0.30915121534506484,-1.4286998983870092e-07,0.005271365011115359,0.30907659585246594,-4.468090018083792e-06,-0.41482539137300267
632,0.6192,334.597,336.947,3.20303,34.2242,-168.709,-0.263489,0.269761,0.269704,-0.536607,-1.42644e-07,0.00523425,-4.42684e-06,0.731338,0.3096514066397813,-1.4264398984220605e-07,0.005247972618622976,0.3095767586370912,-4.42683020152046e-06,-0.4152711245788573
633,0.6202,334.737,337.087,3.20502,34.2385,-168.781,-0.263842,0.270143,0.270086,-0.537369,-1.42423e-07,0.00521097,-4.3863e-06,0.732392,0.31015178904407215,-1.424229898461249e-07,0.00522457071821969,0.3100771125203978,-4.386290380242741e-06,-0.4157165182653825
634,0.6212,334.876,337.227,3.207,34.2529,-168.853,-0.264178,0.270524,0.270467,-0.538131,-1.42206e-07,0.00518768,-4.3464e-06,0.733445,0.3106510519792476,-1.4220598987257915e-07,0.005201159310594505,0.3105763469983971,-4.346390554466062e-06,-0.41616157269119314
635,0.6222,335.015,337.367,3.20899,34.2672,-168.925,-0.264499,0.270906,0.270849,-0.538893,-1.41993e-07,0.00516437,-4.30704e-06,0.734497,0.31115181632100364,-1.4199298992156884e-07,0.005177728344659904,0.311077082797399,-4.30703072473726e-06,-0.41660628811470757
636,0.6232,335.153,337.506,3.21067,34.2814,-168.997,-0.264902,0.271287,0.27123,-0.539654,-1.41783e-07,0.00514105,-4.26815e-06,0.735549,0.31165146033916336,-1.4178298990419336e-07,0.005154287873351926,0.31157669833666124,-4.268140891494632e-06,-0.41705008184452064
637,0.6242,335.292,337.646,3.21301,34.2957,-169.068,-0.265153,0.271668,0.271611,-0.540415,-1.4155e-07,0.00511771,-4.22627e-06,0.736601,0.312151294757963,-1.4154998995152823e-07,0.005130827846052455,0.312076504265711,-4.226261069328885e-06,-0.4174935379757777
638,0.6252,335.431,337.785,3.21477,34.3099,-169.14,-0.265439,0.272049,0.271992,-0.541176,-1.41345e-07,0.00509435,-4.18822e-06,0.737652,0.31265131964995896,-1.4134499004558876e-07,0.005107348264156597,0.3125765006571004,-4.188211229383398e-06,-0.4179366567652938
639,0.6262,335.569,337.924,3.21691,34.324,-169.211,-0.265683,0.27243,0.272373,-0.541936,-1.41146e-07,0.00507099,-4.15112e-06,0.738703,0.3131515350877354,-1.4114599000691896e-07,0.005083869230737337,0.3130766875834097,-4.1511113840764224e-06,-0.4183788568488359
640,0.6272,335.707,338.063,3.21923,34.3382,-169.283,-0.266149,0.272811,0.272754,-0.542697,-1.40958e-07,0.0050476,-4.1154e-06,0.739754,0.31365194114390427,-1.4095799005797716e-07,0.005060360593970525,0.31357706511724603,-4.115391531778201e-06,-0.4188213021669779
641,0.6282,335.844,338.202,3.22061,34.3524,-169.354,-0.266351,0.273191,0.273134,-0.543456,-1.40714e-07,0.00502421,-4.07224e-06,0.740804,0.3141512237392241,-1.4071399012660635e-07,0.005036852507064538,0.31407631925426904,-4.072231708396323e-06,-0.4192622494379754
642,0.6292,335.982,338.34,3.22293,34.3665,-169.425,-0.266621,0.273571,0.273515,-0.544216,-1.40505e-07,0.0050008,-4.0338e-06,0.741854,0.3146506960979829,-1.4050499008710915e-07,0.005013324869739266,0.31457707772033516,-4.033791864199721e-06,-0.4197034424538205
643,0.6302,336.119,338.478,3.22457,34.3806,-169.496,-0.266876,0.273952,0.273895,-0.544975,-1.40308e-07,0.00497737,-3.99713e-06,0.742903,0.3151516734433202,-1.4030799011521822e-07,0.004989777683394037,0.3150767119343574,-3.997122011489829e-06,-0.4201437204343681
644,0.6312,336.256,338.617,3.22676,34.3947,-169.567,-0.267088,0.274332,0.274275,-0.545734,-1.40115e-07,0.00495393,-3.96104e-06,0.743952,0.3156515260452082,-1.401149901658627e-07,0.004966220999090609,0.315576536045459,-3.961032155053168e-06,-0.42058366437071426
645,0.6322,336.393,338.754,3.22852,34.4088,-169.638,-0.267278,0.274712,0.274655,-0.546493,-1.39931e-07,0.00493048,-3.92626e-06,0.745,0.31615156862717875,-1.3993099023945632e-07,0.0049426548175226515,0.3160765501258145,-3.9262522922856036e-06,-0.4210232745163024
646,0.6332,336.53,338.892,3.2306,34.4228,-169.709,-0.267433,0.275092,0.275035,-0.547251,-1.39752e-07,0.00490701,-3.89219e-06,0.746049,0.3166518012614381,-1.3975199020244133e-07,0.004919069090193684,0.3165767542476263,-3.89218242546896e-06,-0.4214619725866454
647,0.6342,336.667,339.029,3.23244,34.4368,-169.78,-0.267564,0.275471,0.275415,-0.54801,-1.39581e-07,0.00488353,-3.85924e-06,0.747096,0.31715090686865444,-1.395809902104972e-07,0.004895473867460476,0.31707714848312385,-3.85923255319387e-06,-0.4219009163492219
648,0.6352,336.803,339.167,3.23492,34.4509,-169.85,-0.267913,0.275851,0.275794,-0.548767,-1.39415e-07,0.00486003,-3.82707e-06,0.748144,0.3176515193236069,-1.3941499032998905e-07,0.004871859101299059,0.3175764153274896,-3.82706267676447e-06,-0.4223383717577831
649,0.6362,336.939,339.304,3.23613,34.4649,-169.921,-0.268015,0.27623,0.276174,-0.549525,-1.39195e-07,0.00483652,-3.78763e-06,0.749191,0.318151003895778,-1.3919499031178617e-07,0.004848234841595911,0.3180771895063821,-3.7876228269340118e-06,-0.4227760733621254
650,0.6372,337.075,339.441,3.23853,34.4788,-169.991,-0.268181,0.276609,0.276553,-0.550282,-1.39007e-07,0.004813,-3.75244e-06,0.750237,0.3186506778084799,-1.3900699036284436e-07,0.004824601089046476,0.3185768354381284,-3.7524329595806094e-06,-0.42321286652751855
651,0.6382,337.211,339.578,3.24006,34.4928,-170.061,-0.268338,0.276988,0.276932,-0.551039,-1.38831e-07,0.00478946,-3.71907e-06,0.751284,0.31915054113348607,-1.3883099037048652e-07,0.004800947796337107,0.319076670771572,-3.7190630842731665e-06,-0.4236493291656057
652,0.6392,337.347,339.715,3.24227,34.5067,-170.132,-0.268446,0.277367,0.277311,-0.551796,-1.38658e-07,0.0047659,-3.68612e-06,0.75233,0.3196505939425973,-1.3865799042278582e-07,0.004777274964874234,0.31957669557851,-3.686113206224917e-06,-0.42408546152650173
653,0.6402,337.482,339.851,3.24396,34.5205,-170.202,-0.268533,0.277746,0.27769,-0.552552,-1.38496e-07,0.00474234,-3.65464e-06,0.753375,0.32015083630764174,-1.384959904537908e-07,0.00475360269113656,0.3200769099307663,-3.654633321859002e-06,-0.4245206883811077
654,0.6412,337.618,339.987,3.24653,34.5345,-170.272,-0.268836,0.278125,0.278069,-0.553308,-1.38338e-07,0.00471876,-3.62395e-06,0.75442,0.32065126830047475,-1.383379903963089e-07,0.004729910880512556,0.3205773139001926,-3.623943433450627e-06,-0.4249555863285541
655,0.6422,337.752,340.123,3.24764,34.5484,-170.342,-0.268888,0.278503,0.278447,-0.554064,-1.38129e-07,0.00469516,-3.58611e-06,0.755465,0.32115056884174953,-1.38128990467834e-07,0.004706199534410871,0.3210765864814198,-3.5861035698747656e-06,-0.4253901556174009
656,0.6432,337.888,340.259,3.25006,34.5622,-170.412,-0.268993,0.278882,0.278826,-0.55482,-1.3795e-07,0.00467156,-3.55261e-06,0.756509,0.32165137980502334,-1.3794999043081901e-07,0.004682488747890234,0.321577369400065,-3.5526036894495405e-06,-0.42582439649602
657,0.6442,338.022,340.395,3.25153,34.576,-170.482,-0.269079,0.27926,0.279204,-0.555575,-1.37787e-07,0.00464794,-3.5213e-06,0.757553,0.32215105845990566,-1.3778699048394571e-07,0.0046587584277622,0.3220770200737262,-3.5212938002127103e-06,-0.42625773547061807
658,0.6452,338.157,340.531,3.25421,34.5898,-170.551,-0.26936,0.279638,0.279582,-0.55633,-1.3763e-07,0.0046243,-3.4908e-06,0.758597,0.32265092602902223,-1.376299905153644e-07,0.004635008575437194,0.32257685965104255,-3.4907939071571192e-06,-0.42669074739776625
659,0.6462,338.291,340.665,3.25522,34.6036,-170.621,-0.26939,0.280016,0.27996,-0.557085,-1.37426e-07,0.00460065,-3.45388e-06,0.75964,0.32315098258379593,-1.374259905873032e-07,0.004611249238439585,0.32307688820343317,-3.4538740353307062e-06,-0.4271234325242923
660,0.6472,338.426,340.801,3.25768,34.6174,-170.69,-0.269447,0.280394,0.280338,-0.557839,-1.37253e-07,0.00457699,-3.42139e-06,0.760683,0.3236512281956767,-1.372529905285802e-07,0.0045874804174690365,0.3235771058023442,-3.4213841471064654e-06,-0.42755521865234225
661,0.6482,338.603,340.888,3.24034,34.617,-170.754,-0.226225,0.280771,0.280716,-0.558593,-1.37102e-07,0.00455332,-3.39187e-06,0.761726,0.3241503387851412,-1.3710199064931317e-07,0.004563702113224766,0.32407751251924855,-3.391864247581644e-06,-0.4279866793363595
662,0.6492,338.811,341.025,3.27355,34.6215,-170.821,-0.224383,0.281149,0.281093,-0.559347,-1.47517e-07,0.00452932,-4.80008e-06,0.762769,0.32465096222507106,-1.4751698906856348e-07,0.004539592873686216,0.32457678384820055,-4.8000684795823645e-06,-0.4284178148216363
663,0.6502,338.958,341.125,3.25213,34.6296,-170.884,-0.205311,0.281526,0.281471,-0.5601,-1.52444e-07,0.00450546,-5.46006e-06,0.763812,0.32515044978531904,-1.5244398843261564e-07,0.004515624844939836,0.32507756851483416,-5.460045093941268e-06,-0.42884805420161987
664,0.6512,339.135,341.272,3.27254,34.6398,-170.948,-0.186723,0.281903,0.281848,-0.560853,-1.56467e-07,0.00448155,-5.99657e-06,0.764854,0.32565012568787766,-1.5646698781068835e-07,0.004491607163482403,0.32557721693597386,-5.996552020604007e-06,-0.4292779697332946
665,0.6522,339.273,341.392,3.2599,34.6515,-171.012,-0.170821,0.28228,0.282225,-0.561606,-1.60283e-07,0.00445767,-6.50423e-06,0.765896,0.326149990003765,-1.6028298710502042e-07,0.004467620190308885,0.3260770537600799,-6.5042088475131266e-06,-0.42970756166042634
666,0.6532,339.428,341.539,3.27243,34.6639,-171.077,-0.155993,0.282657,0.282602,-0.562358,-1.63555e-07,0.00443378,-6.93746e-06,0.766937,0.32665004280402665,-1.6355498666520418e-07,0.004443623745501224,0.3265770790581939,-6.937435935827629e-06,-0.4301362603631429
667,0.6542,339.561,341.669,3.26598,34.6768,-171.142,-0.143054,0.283034,0.282979,-0.563111,-1.66588e-07,0.00440992,-7.33768e-06,0.767978,0.32715028415973446,-1.6658798607238623e-07,0.004419658006550975,0.32707729290138365,-7.337653079253492e-06,-0.4305652062406985
668,0.6552,339.704,341.814,3.274,34.6898,-171.208,-0.131094,0.283411,0.283355,-0.563863,-1.69216e-07,0.00438607,-7.68227e-06,0.769019,0.3276507141419871,-1.6921598566810303e-07,0.004395702883373653,0.3275763677837127,-7.682240491413417e-06,-0.4309932602371306
669,0.6562,339.833,341.949,3.27117,34.703,-171.274,-0.120553,0.283787,0.283732,-0.564615,-1.71625e-07,0.00436223,-7.99677e-06,0.770059,0.3281500046712418,-1.7162498522349523e-07,0.004371758375236512,0.3280769584297749,-7.996738025872752e-06,-0.4314209924579603
670,0.6572,339.968,342.091,3.2766,34.7161,-171.341,-0.110876,0.284163,0.284108,-0.565366,-1.73729e-07,0.00433839,-8.26945e-06,0.771098,0.3286494829690336,-1.7372898486467392e-07,0.004347814437929642,0.3285764092570158,-8.269415808226377e-06,-0.4318478349931907
671,0.6582,340.096,342.228,3.27584,34.7292,-171.409,-0.10228,0.28454,0.284485,-0.566117,-1.75642e-07,0.00431457,-8.5159e-06,0.772138,0.3291504782557906,-1.7564198462327596e-07,0.0043238911579173145,0.3290773769897899,-8.515863739844143e-06,-0.43227435709001694
672,0.6592,340.226,342.368,3.27977,34.7423,-171.477,-0.0944223,0.284916,0.284861,-0.566868,-1.77323e-07,0.00429074,-8.73044e-06,0.773177,0.32965033280238054,-1.7732298429606885e-07,0.0042999584047507255,0.3295772040451357,-8.730401889867068e-06,-0.43270055898899773
673,0.6602,340.353,342.504,3.28018,34.7553,-171.545,-0.0874005,0.285292,0.285237,-0.567619,-1.78843e-07,0.00426692,-8.92277e-06,0.774215,0.3301503753296182,-1.78842983977745e-07,0.004276036264655447,0.3300772190707908,-8.922730192151285e-06,-0.43312644093051145
674,0.6612,340.481,342.642,3.28324,34.7682,-171.614,-0.0809965,0.285667,0.285613,-0.568369,-1.80182e-07,0.00424309,-9.09046e-06,0.775253,0.33064927525825705,-1.8018198377767192e-07,0.004252104651857547,0.3305774221374449,-9.09041868191185e-06,-0.4335514367064759
675,0.6622,340.607,342.778,3.2843,34.7811,-171.682,-0.0752456,0.286043,0.285988,-0.569119,-1.81387e-07,0.00421926,-9.23968e-06,0.776291,0.3311496934584801,-1.8138698354430716e-07,0.004228173609343244,0.3310764822386669,-9.239637314251148e-06,-0.4339761138551086
676,0.6632,340.734,342.914,3.28686,34.7939,-171.751,-0.0700058,0.286419,0.286364,-0.569869,-1.82452e-07,0.00419543,-9.36967e-06,0.777329,0.33165029985132466,-1.8245198341038105e-07,0.004204243137098773,0.33157706109891705,-9.369626104760442e-06,-0.43440047261529036
677,0.6642,340.859,343.051,3.28826,34.8073,-171.82,-0.0670245,0.286794,0.286739,-0.570619,-1.83406e-07,0.00417158,-9.48446e-06,0.778366,0.33214976235713567,-1.8340598317845291e-07,0.004180293151504699,0.33207649613504553,-9.484415022686932e-06,-0.434824513225723
678,0.6652,340.983,343.187,3.29037,34.8205,-171.889,-0.0630257,0.287169,0.287115,-0.571368,-1.83826e-07,0.00414774,-9.52653e-06,0.779402,0.3326494121965091,-1.8382598310218157e-07,0.004156353778674404,0.3325774510712185,-9.526484622712772e-06,-0.4352476711728831
679,0.6662,341.108,343.322,3.29226,34.8336,-171.958,-0.0601517,0.287544,0.28749,-0.572117,-1.8433e-07,0.00412388,-9.57996e-06,0.780438,0.3331492494397086,-1.8432998305506487e-07,0.0041323948939038235,0.33307726132393545,-9.579914112323173e-06,-0.43567051229340714
680,0.6672,341.233,343.456,3.29418,34.8466,-172.027,-0.057672,0.287919,0.287865,-0.572865,-1.84751e-07,0.00410001,-9.62203e-06,0.781474,0.33364927415702317,-1.847509829566718e-07,0.0041084265397011155,0.3335772590406443,-9.621983708463233e-06,-0.4360924729172643
681,0.6682,341.358,343.59,3.29607,34.8596,-172.096,-0.0555238,0.288294,0.28824,-0.573614,-1.85091e-07,0.00407613,-9.65309e-06,0.78251,0.3341494864187693,-1.8509098287378123e-07,0.004084448716771716,0.33407744429165764,-9.653043409052486e-06,-0.43651468151818984
682,0.6692,341.483,343.723,3.29796,34.8726,-172.165,-0.0536769,0.288669,0.288614,-0.574362,-1.85359e-07,0.00405224,-9.67436e-06,0.783545,0.33464988629528913,-1.8535898282934227e-07,0.004060461425821282,0.3345764825701638,-9.674313203533735e-06,-0.43693601093956613
683,0.6702,341.607,343.857,3.29982,34.8861,-172.234,-0.0537693,0.289043,0.288989,-0.57511,-1.85563e-07,0.00402833,-9.68689e-06,0.784579,0.335149138707145,-1.8556298275740346e-07,0.004036454627190933,0.3350770426002674,-9.686843082223895e-06,-0.4373570253243735
684,0.6712,341.731,343.99,3.30153,34.8995,-172.302,-0.0526372,0.289418,0.289363,-0.575857,-1.85308e-07,0.00400442,-9.63705e-06,0.785614,0.33564991352357,-1.8530798284732697e-07,0.004012448402556323,0.33557645479845966,-9.637003563822688e-06,-0.43777716268561495
685,0.6722,341.856,344.123,3.30366,34.9128,-172.371,-0.0523955,0.289792,0.289738,-0.576605,-1.85193e-07,0.0039805,-9.60622e-06,0.786647,0.33614954001555786,-1.8519298283781183e-07,0.00398843271201943,0.33607738988846814,-9.606173860365885e-06,-0.43819754812417155
686,0.6732,341.981,344.255,3.30534,34.926,-172.44,-0.0523424,0.290166,0.290112,-0.577352,-1.85047e-07,0.00395656,-9.57123e-06,0.787681,0.3366493534028012,-1.850469828479362e-07,0.0039643975166427925,0.33657717628651707,-9.5711841959778e-06,-0.4386170578493329
687,0.6742,342.106,344.386,3.30735,34.9392,-172.508,-0.0524275,0.29054,0.290486,-0.578098,-1.84864e-07,0.0039326,-9.53133e-06,0.788714,0.3371493537552115,-1.8486398289940809e-07,0.003940342817854603,0.3370771496396374,-9.53128457703567e-06,-0.4390356933537194
688,0.6752,342.231,344.517,3.30909,34.9524,-172.576,-0.0526446,0.290914,0.29086,-0.578845,-1.84651e-07,0.00390863,-9.48746e-06,0.789747,0.33764954114272716,-1.8465098294839777e-07,0.0039162786562474405,0.33757731001776325,-9.487414994180376e-06,-0.4394545772181824
689,0.6762,342.357,344.648,3.31102,34.9655,-172.644,-0.0529761,0.291287,0.291234,-0.579591,-1.84411e-07,0.00388465,-9.43988e-06,0.790779,0.3381485774860655,-1.8441098303956238e-07,0.0038922050325291835,0.3380776574908553,-9.439835444435829e-06,-0.4398725881661082
690,0.6772,342.483,344.779,3.31279,34.9787,-172.712,-0.0534123,0.291661,0.291607,-0.580337,-1.84147e-07,0.00386065,-9.38918e-06,0.791811,0.33864913865314894,-1.8414698299551446e-07,0.0038681119087271565,0.3385768535513769,-9.389135921744618e-06,-0.4402902873941529
691,0.6782,342.609,344.909,3.31466,34.9919,-172.78,-0.0539395,0.292034,0.291981,-0.581083,-1.83862e-07,0.00383664,-9.33559e-06,0.792842,0.33914854791590376,-1.8386198308295576e-07,0.0038440093247127383,0.3390775749236652,-9.335546423461238e-06,-0.4407076751347727
692,0.6792,342.735,345.039,3.31645,35.0051,-172.847,-0.0545493,0.292408,0.292354,-0.581828,-1.83558e-07,0.00381262,-9.27954e-06,0.793874,0.3396494831418726,-1.8355798314662053e-07,0.0038198972811955834,0.3395771440229567,-9.279496945180377e-06,-0.4411241927447228
693,0.6802,342.862,345.169,3.3183,35.0183,-172.915,-0.0552312,0.292781,0.292727,-0.582573,-1.83237e-07,0.00378858,-9.22124e-06,0.794904,0.34014926560271896,-1.8323698325328763e-07,0.003795765740927326,0.34007689949627884,-9.221197484476917e-06,-0.4415404001646136
694,0.6812,342.988,345.298,3.32009,35.0315,-172.982,-0.0559781,0.293154,0.2931,-0.583318,-1.82901e-07,0.00376453,-9.16103e-06,0.795935,0.34064923451719453,-1.8290098324769133e-07,0.003771624743057922,0.340576841413162,-9.160988037937301e-06,-0.44195629762545063
695,0.6822,343.114,345.427,3.32191,35.0447,-173.049,-0.056782,0.293527,0.293473,-0.584062,-1.82552e-07,0.00374046,-9.09909e-06,0.796965,0.34114938995485966,-1.8255198330763278e-07,0.0037474642508230627,0.3410769698431628,-9.099048603355975e-06,-0.442371327729674
696,0.6832,343.241,345.557,3.3237,35.058,-173.116,-0.0576368,0.293899,0.293846,-0.584807,-1.82191e-07,0.00371639,-9.03565e-06,0.797994,0.3416483903362395,-1.8219098341099027e-07,0.003723304340124134,0.34157728485586336,-9.035609178642545e-06,-0.44278660638001066
697,0.6842,343.367,345.686,3.32551,35.0712,-173.183,-0.0585364,0.294272,0.294218,-0.58555,-1.8182e-07,0.0036923,-8.97089e-06,0.799024,0.34214891852853957,-1.8181998351352036e-07,0.0036991249369646706,0.34207644444375696,-8.970849761702482e-06,-0.4432004621650072
698,0.6852,343.494,345.814,3.3273,35.0844,-173.249,-0.0594758,0.294644,0.294591,-0.586294,-1.8144e-07,0.00366819,-8.90497e-06,0.800053,0.3426482908037165,-1.8143998359310132e-07,0.0036749260427813013,0.3425771323300202,-8.904930350883689e-06,-0.4436145669550726
699,0.6862,343.62,345.943,3.3291,35.0976,-173.316,-0.0604502,0.295017,0.294963,-0.587038,-1.81052e-07,0.00364408,-8.83805e-06,0.801081,0.3431491920284573,-1.8105198362761143e-07,0.0036507277320261267,0.34307666393036396,-8.83801094453407e-06,-0.44402836376575683
700,0.6872,343.746,346.071,3.33088,35.1109,-173.382,-0.0614556,0.295389,0.295335,-0.587781,-1.80656e-07,0.00361995,-8.77026e-06,0.802109,0.3436489364745958,-1.80655983728073e-07,0.0036265099321550753,0.3435763813910311,-8.770221541332113e-06,-0.44444129726768633
701,0.6882,343.871,346.201,3.33269,35.1246,-173.449,-0.0641496,0.295761,0.295708,-0.588524,-1.80255e-07,0.00359581,-8.7017e-06,0.803137,0.3441488668602508,-1.8025498371709858e-07,0.003602282680629232,0.3440776288581311,-8.701662140286892e-06,-0.4448539240739754
702,0.6892,343.995,346.33,3.33427,35.1382,-173.515,-0.0653613,0.296133,0.296079,-0.589266,-1.79457e-07,0.00357167,-8.57926e-06,0.804164,0.3446489832546049,-1.7945698393972975e-07,0.0035780560139424544,0.3445763741699721,-8.579223198301733e-06,-0.4452656896783813
703,0.6902,344.12,346.459,3.33635,35.1516,-173.581,-0.0672355,0.296504,0.296451,-0.590008,-1.78859e-07,0.00354751,-8.48421e-06,0.805191,0.3451479405782527,-1.788589839568644e-07,0.0035538098610039537,0.3450766496266291,-8.484174009226741e-06,-0.44567714986603235
704,0.6912,344.245,346.587,3.33793,35.1649,-173.647,-0.0690811,0.296876,0.296823,-0.59075,-1.7828e-07,0.00352334,-8.39191e-06,0.806218,0.3456484286971664,-1.7827998410879786e-07,0.0035295542585496165,0.3455771112203754,-8.391874788071796e-06,-0.44608830486346385
705,0.6922,344.371,346.715,3.33988,35.1782,-173.713,-0.0708698,0.297247,0.297194,-0.591492,-1.7771e-07,0.00349916,-8.30089e-06,0.807244,0.34614775688386423,-1.7770998417265815e-07,0.003505289207293316,0.34607641294338065,-8.300855547704877e-06,-0.4464991548970427
706,0.6932,344.496,346.842,3.34154,35.1915,-173.779,-0.072615,0.297619,0.297566,-0.592234,-1.77151e-07,0.00347497,-8.21148e-06,0.80827,0.3466486170036316,-1.7715098432624643e-07,0.003481014707948704,0.3465772465182648,-8.211446285932844e-06,-0.4469097001929684
707,0.6942,344.621,346.97,3.3434,35.2047,-173.845,-0.0743168,0.29799,0.297937,-0.592975,-1.76601e-07,0.00345077,-8.12335e-06,0.809295,0.347148316329033,-1.7660098439176153e-07,0.003456730761229654,0.34707691936030405,-8.123317005725994e-06,-0.44731938829693696
708,0.6952,344.747,347.097,3.3451,35.2179,-173.91,-0.075981,0.298361,0.298308,-0.593716,-1.7606e-07,0.00342655,-8.03658e-06,0.81032,0.34764820107727834,-1.7605998448022575e-07,0.0034324273335264444,0.34757677761535977,-8.03654770675788e-06,-0.44772877293446856
709,0.6962,344.872,347.223,3.34691,35.2311,-173.976,-0.0776084,0.298732,0.298679,-0.594456,-1.75527e-07,0.00340233,-7.95094e-06,0.811345,0.3481482713171715,-1.7552698461376082e-07,0.003408124494444831,0.3480768213522325,-7.950908391340938e-06,-0.44813730246792705
710,0.6972,344.997,347.35,3.34863,35.2442,-174.041,-0.079203,0.299103,0.29905,-0.595197,-1.75001e-07,0.00337809,-7.86647e-06,0.812369,0.34864852711754324,-1.7500098470346614e-07,0.003383802176294859,0.3485770506397494,-7.866439059367458e-06,-0.4485460812555532
711,0.6982,345.123,347.477,3.35041,35.2574,-174.107,-0.0807657,0.299473,0.299421,-0.595937,-1.74482e-07,0.00335384,-7.78301e-06,0.813393,0.3491476193989549,-1.7448198474934173e-07,0.0033594704141157727,0.3490774655467621,-7.782979712489535e-06,-0.4489540062045779
712,0.6992,345.248,347.603,3.35214,35.2705,-174.172,-0.0822996,0.299844,0.299791,-0.596677,-1.7397e-07,0.00332958,-7.70056e-06,0.814416,0.3496482460262491,-1.739699848624099e-07,0.003335129208623666,0.3495767165647572,-7.700530350818191e-06,-0.4493616294008027
713,0.7002,345.373,347.729,3.3539,35.2836,-174.237,-0.0838059,0.300214,0.300162,-0.597416,-1.73463e-07,0.00330531,-7.61902e-06,0.81544,0.3501477082720963,-1.7346298497589174e-07,0.003310778560533967,0.35007750241663427,-7.618990975344353e-06,-0.449768400836118
714,0.7012,345.498,347.855,3.35564,35.2968,-174.302,-0.0852865,0.300584,0.300532,-0.598156,-1.72963e-07,0.00328103,-7.53835e-06,0.816462,0.3506473553531668,-1.7296298504554386e-07,0.0032864184705632127,0.3505771235167321,-7.538321586730845e-06,-0.45017542160324175
715,0.7022,345.623,347.981,3.35739,35.3099,-174.367,-0.0867427,0.300954,0.300902,-0.598895,-1.72467e-07,0.00325674,-7.4585e-06,0.817485,0.35114718733786243,-1.724669851377314e-07,0.0032620489394277197,0.35107692951084024,-7.4584721854176195e-06,-0.4505815918682792
716,0.7032,345.747,348.107,3.35912,35.3229,-174.431,-0.0881762,0.301324,0.301272,-0.599633,-1.71977e-07,0.00323243,-7.37944e-06,0.818507,0.35164720429460994,-1.7197698520821092e-07,0.0032376599354675406,0.351576920467382,-7.3794127719573055e-06,-0.45098691307156
717,0.7042,345.872,348.233,3.36086,35.336,-174.496,-0.0895878,0.301694,0.301642,-0.600372,-1.71491e-07,0.00320812,-7.30111e-06,0.819528,0.35214740629186214,-1.7149098530122586e-07,0.003213271524396877,0.35207709645480656,-7.3010833470110725e-06,-0.4513924838659341
718,0.7052,345.996,348.358,3.36259,35.3491,-174.561,-0.0909788,0.302064,0.302012,-0.60111,-1.7101e-07,0.0031838,-7.22348e-06,0.82055,0.35264779339809627,-1.710099853946545e-07,0.00318887367431242,0.35257745754158765,-7.223453910687461e-06,-0.4517972068516901
719,0.7062,346.121,348.484,3.36432,35.3621,-174.625,-0.0923502,0.302433,0.302381,-0.601848,-1.70533e-07,0.00315946,-7.14653e-06,0.821571,0.35314701253412606,-1.7053298551061857e-07,0.003164456354287193,0.3530766507188974,-7.146504463650949e-06,-0.4522016312620706
720,0.7072,346.245,348.609,3.36605,35.3751,-174.69,-0.0937028,0.302803,0.302751,-0.602586,-1.70061e-07,0.00313512,-7.07022e-06,0.822591,0.3536477695631013,-1.7006098551597404e-07,0.003140039628572344,0.35357738170918407,-7.07019500600925e-06,-0.45260575731734265
721,0.7082,346.369,348.734,3.36777,35.3881,-174.754,-0.0950374,0.303172,0.30312,-0.603323,-1.69592e-07,0.00311077,-6.99453e-06,0.823611,0.35414735775842354,-1.6959198556598665e-07,0.0031156134659970913,0.3540769439265954,-6.9945055383158206e-06,-0.45300903824692307
722,0.7092,346.493,348.859,3.36949,35.4011,-174.818,-0.0963547,0.303541,0.303489,-0.60406,-1.69126e-07,0.00308641,-6.91943e-06,0.824631,0.3546471303358061,-1.691259856606564e-07,0.0030911778672799706,0.3545766905164798,-6.919406060790223e-06,-0.4534120220679564
723,0.7102,346.616,348.984,3.37121,35.4141,-174.882,-0.0976554,0.30391,0.303858,-0.604797,-1.68665e-07,0.00306204,-6.84491e-06,0.825651,0.3551470873632987,-1.6866498575573985e-07,0.0030667328331392962,0.3550766215468828,-6.844886573653675e-06,-0.45381470899933085
724,0.7112,346.74,349.109,3.37293,35.427,-174.946,-0.09894,0.304279,0.304227,-0.605534,-1.68207e-07,0.00303765,-6.77094e-06,0.82667,0.3556472289089758,-1.6820698589548044e-07,0.003042268333871334,0.355576737085876,-6.77091707723676e-06,-0.4542170992597735
725,0.7122,346.864,349.233,3.37465,35.4399,-175.01,-0.100209,0.304648,0.304596,-0.60627,-1.67752e-07,0.00301326,-6.69751e-06,0.827688,0.35614755504093765,-1.6775198596885588e-07,0.003017804431284965,0.35607703720155515,-6.697487571760696e-06,-0.45461864768677074
726,0.7132,346.987,349.358,3.37636,35.4529,-175.074,-0.101463,0.305016,0.304965,-0.607006,-1.673e-07,0.00298886,-6.62461e-06,0.828707,0.35664670917992103,-1.6729998597586615e-07,0.002993331095432872,0.35657752196204195,-6.6245880573356786e-06,-0.4550199006828577
727,0.7142,347.11,349.482,3.37807,35.4658,-175.138,-0.102702,0.305385,0.305333,-0.607742,-1.66851e-07,0.00296445,-6.55221e-06,0.829725,0.35714740418815616,-1.6685098602753357e-07,0.002968848327034257,0.35707683435797,-6.552188534292291e-06,-0.45542085846539127
728,0.7152,347.233,349.606,3.37977,35.4786,-175.202,-0.103926,0.305753,0.305701,-0.608477,-1.66406e-07,0.00294003,-6.48031e-06,0.830742,0.35764692633933604,-1.664059861017364e-07,0.002944356126808989,0.3575763305346733,-6.4802890028525795e-06,-0.4558209770728182
729,0.7162,347.356,349.73,3.38148,35.4915,-175.266,-0.105137,0.306121,0.30607,-0.609212,-1.65963e-07,0.0029156,-6.4089e-06,0.831759,0.3581466323484952,-1.659629862427181e-07,0.002919854495477603,0.3580773686364851,-6.408879463015715e-06,-0.4562208017011191
730,0.7172,347.479,349.854,3.38318,35.5043,-175.329,-0.106333,0.306489,0.306438,-0.609947,-1.65523e-07,0.00289117,-6.33797e-06,0.832776,0.3586465222833062,-1.6552298631733464e-07,0.0028953534627136346,0.3585772330775594,-6.3379499151139385e-06,-0.45662033256628953
731,0.7182,347.601,349.977,3.38488,35.5172,-175.393,-0.107516,0.306857,0.306806,-0.610682,-1.65087e-07,0.00286672,-6.2675e-06,0.833793,0.3591465962114655,-1.650869864144866e-07,0.0028708329710855907,0.3590772815025989,-6.267480359256616e-06,-0.4570195698841657
732,0.7192,347.724,350.101,3.38657,35.53,-175.456,-0.108685,0.307225,0.307174,-0.611416,-1.64653e-07,0.00284226,-6.1975e-06,0.834809,0.35964685420069586,-1.6465298646739512e-07,0.0028463030505132547,0.35957751397932225,-6.197480795555599e-06,-0.45741797128866857
733,0.7202,347.846,350.224,3.38827,35.5427,-175.52,-0.109841,0.307592,0.307541,-0.61215,-1.64221e-07,0.0028178,-6.12796e-06,0.835824,0.36014593617212753,-1.642209864760602e-07,0.0028217737299354173,0.3600765704982225,-6.127941224121081e-06,-0.4578160803738348
734,0.7212,347.968,350.348,3.38996,35.5555,-175.583,-0.110984,0.30796,0.307909,-0.612884,-1.63793e-07,0.00279333,-6.05887e-06,0.83684,0.360646561986139,-1.63792986618283e-07,0.002797234981365193,0.3605771707809684,-6.058851645063257e-06,-0.4582138973541481
735,0.7222,348.09,350.471,3.39164,35.5683,-175.646,-0.112113,0.308327,0.308276,-0.613618,-1.63367e-07,0.00276884,-5.99022e-06,0.837855,0.36114601091766096,-1.6336698660524007e-07,0.002772676777796912,0.3610765942412444,-5.990202058714367e-06,-0.4586114224439348
736,0.7232,348.212,350.594,3.39333,35.581,-175.709,-0.113229,0.308694,0.308644,-0.614351,-1.62943e-07,0.00274435,-5.92202e-06,0.838869,0.3616456431805801,-1.629429867699983e-07,0.002748119175651542,0.3615775626004496,-5.922002464853193e-06,-0.4590081148657492
737,0.7242,348.334,350.716,3.39501,35.5937,-175.772,-0.114333,0.309062,0.309011,-0.615084,-1.62523e-07,0.00271985,-5.85425e-06,0.839884,0.3621468209883312,-1.6252298684626965e-07,0.0027235521476791646,0.3620773532719026,-5.854232863922171e-06,-0.45940451661856174
738,0.7252,348.455,350.839,3.39669,35.6064,-175.835,-0.115423,0.309428,0.309378,-0.615817,-1.62105e-07,0.00269534,-5.78692e-06,0.840897,0.3626454579698142,-1.6210498687829755e-07,0.0026989756946016463,0.3625773274001942,-5.7869032558111044e-06,-0.4598006279153545
739,0.7262,348.577,350.962,3.39837,35.6191,-175.898,-0.116501,0.309795,0.309745,-0.61655,-1.61689e-07,0.00267082,-5.72002e-06,0.841911,0.36314564063079335,-1.6168898697710432e-07,0.0026743898171417424,0.36307748505266546,-5.720003640741211e-06,-0.46019644896895395
740,0.7272,348.698,351.084,3.40004,35.6317,-175.961,-0.117566,0.310162,0.310111,-0.617282,-1.61276e-07,0.0026463,-5.65355e-06,0.842924,0.3636460068924976,-1.6127598700954593e-07,0.0026498045425200623,0.3635764627195377,-5.653534018712492e-06,-0.46059144058374046
741,0.7282,348.819,351.206,3.40172,35.6444,-176.024,-0.118617,0.310529,0.310478,-0.618014,-1.60866e-07,0.00262176,-5.58751e-06,0.843937,0.3641465568223212,-1.6086598708664468e-07,0.0026251998182178493,0.36407698712196557,-5.58749438994699e-06,-0.46098614317046216
742,0.7292,348.94,351.328,3.40339,35.657,-176.086,-0.119656,0.310895,0.310844,-0.618746,-1.60458e-07,0.00259722,-5.52189e-06,0.844949,0.36464592584107414,-1.604579871195e-07,0.002600595697708208,0.3645763306735481,-5.5218747544438784e-06,-0.4613805569406102
743,0.7302,349.061,351.45,3.40505,35.6696,-176.149,-0.120682,0.311261,0.311211,-0.619477,-1.60053e-07,0.00257267,-5.4567e-06,0.845961,0.36514547766233885,-1.6005298719701244e-07,0.002575982155216261,0.36507722209485904,-5.456685112203985e-06,-0.46177414387993376
744,0.7312,349.182,351.572,3.40672,35.6822,-176.211,-0.121695,0.311627,0.311577,-0.620208,-1.5965e-07,0.0025481,-5.39194e-06,0.846973,0.36564521235303293,-1.5964998723028145e-07,0.0025513491659521215,0.3655769317994435,-5.391925463560376e-06,-0.46216744321233794
745,0.7322,349.302,351.694,3.40838,35.6948,-176.274,-0.122695,0.311993,0.311943,-0.620939,-1.5925e-07,0.00252353,-5.3276e-06,0.847984,0.3661451299800995,-1.592499873082076e-07,0.0025267167819131853,0.36607682443125333,-5.327585808401203e-06,-0.4625604551479864
746,0.7332,349.424,351.813,3.40994,35.7068,-176.336,-0.122061,0.312359,0.312309,-0.62167,-1.58853e-07,0.00249896,-5.26368e-06,0.848995,0.3666452306105048,-1.588529874307909e-07,0.0025020850030845754,0.3665769000572523,-5.263666146837487e-06,-0.46295317989688933
747,0.7342,349.547,351.934,3.41191,35.719,-176.398,-0.122854,0.312725,0.312675,-0.6224,-1.58823e-07,0.00247436,-5.24987e-06,0.850006,0.36714551431124076,-1.588229874283087e-07,0.0024774237551279388,0.3670771587444286,-5.249856219413651e-06,-0.4633450810142531
748,0.7352,349.668,352.054,3.41321,35.7313,-176.46,-0.12306,0.313091,0.313041,-0.62313,-1.58592e-07,0.00244976,-5.20876e-06,0.851016,0.36764598114932334,-1.5859198743140013e-07,0.0024527631138306916,0.36757760055979505,-5.208746434393063e-06,-0.4637366961481979
749,0.7362,349.861,352.102,3.41514,35.7562,-176.519,-0.0884024,0.313456,0.313406,-0.623861,-1.63712e-07,0.00242506,-5.89571e-06,0.852027,0.36814526304584594,-1.637119866337855e-07,0.002428002836372567,0.3680768574928468,-5.895692620327964e-06,-0.46412856137912184
750,0.7372,349.976,352.258,3.42725,35.7672,-176.578,-0.0956756,0.313821,0.313772,-0.62459,-1.63771e-07,0.00240034,-5.8935e-06,0.853036,0.36864472721352315,-1.6377098654984934e-07,0.0024032231224209166,0.36857766526492086,-5.893482633356761e-06,-0.46451906930044484
751,0.7382,350.068,352.381,3.41203,35.7781,-176.638,-0.0990259,0.314187,0.314137,-0.62532,-1.62927e-07,0.00237569,-5.7684e-06,0.854045,0.36914574286395463,-1.629269866798566e-07,0.0023785141875098947,0.3690772872882151,-5.7683833628585646e-06,-0.4649098277356737
752,0.7392,350.299,352.502,3.46777,35.801,-176.695,-0.0525545,0.314552,0.314502,-0.626049,-1.6206e-07,0.00235105,-5.64035e-06,0.855054,0.369645572273418,-1.6205998687457424e-07,0.0023538158852045576,0.36957709170683284,-5.640334093226507e-06,-0.4652997663213708
753,0.7402,350.337,352.595,3.4124,35.8105,-176.757,-0.0795749,0.314917,0.314867,-0.626778,-1.66428e-07,0.00232626,-6.22461e-06,0.856063,0.37014558415391474,-1.6642798617017007e-07,0.0023289678421016813,0.3700770785873606,-6.224590627157411e-06,-0.4656894207454284
754,0.7412,350.526,352.685,3.43249,35.8322,-176.814,-0.0511671,0.315281,0.315232,-0.627507,-1.70447e-07,0.0023015,-6.76091e-06,0.857072,0.37064440792696574,-1.7044698552570736e-07,0.002304150484097933,0.3705772479964091,-6.760887145129679e-06,-0.4660787912149249
755,0.7422,350.61,352.84,3.42807,35.8408,-176.874,-0.0624374,0.315646,0.315597,-0.628235,-1.6951e-07,0.00227678,-6.6225e-06,0.858079,0.3711447844490192,-1.6950998560361086e-07,0.002279373831738818,0.37107760000061374,-6.622478071260929e-06,-0.46646734440439885
756,0.7432,350.699,352.983,3.42437,35.8494,-176.935,-0.0696668,0.316011,0.315961,-0.628963,-1.67821e-07,0.00225213,-6.38186e-06,0.859086,0.37164534364183854,-1.6782098588574712e-07,0.0022546679496751043,0.37157676308918464,-6.381839635971609e-06,-0.4668556148300895
757,0.7442,350.866,353.046,3.42315,35.8708,-176.995,-0.0436461,0.316375,0.316326,-0.629692,-1.7231e-07,0.00222739,-6.98184e-06,0.860094,0.3721447134267113,-1.7230998516915008e-07,0.002229872475911332,0.37207747998298624,-6.981815626971866e-06,-0.46724413545390464
758,0.7452,351.036,353.148,3.43933,35.8904,-177.052,-0.0210469,0.316739,0.31669,-0.630419,-1.75719e-07,0.00220259,-7.43442e-06,0.861101,0.37264426501527215,-1.7571898458523805e-07,0.002205017483277061,0.3725770070941188,-7.434392364724651e-06,-0.46763130821307897
759,0.7462,351.108,353.312,3.434,35.8973,-177.112,-0.0357537,0.317103,0.317054,-0.631147,-1.74033e-07,0.00217786,-7.19358e-06,0.862107,0.37314399847370927,-1.7403298480100915e-07,0.002180233259652775,0.3730767160662165,-7.193554126261326e-06,-0.4680187315814831
760,0.7472,351.257,353.392,3.43025,35.9162,-177.171,-0.0128943,0.317467,0.317418,-0.631874,-1.76814e-07,0.00215311,-7.5604e-06,0.863114,0.3736439138682359,-1.7681398434277185e-07,0.0021554296058261535,0.3735766069654889,-7.56037142024546e-06,-0.4684053414139214
761,0.7482,351.346,353.571,3.44434,35.9225,-177.232,-0.0288262,0.317831,0.317782,-0.632601,-1.74954e-07,0.00212839,-7.29576e-06,0.864119,0.3741440112650882,-1.7495398474398627e-07,0.0021306566298016083,0.3740766798581694,-7.295733385981329e-06,-0.46879167028315405
762,0.7492,351.478,353.629,3.42273,35.9412,-177.292,-0.00875314,0.318195,0.318146,-0.633328,-1.78483e-07,0.00210365,-7.7643e-06,0.865125,0.37464429073052785,-1.7848298405898078e-07,0.0021058642240399106,0.37457693481051546,-7.764269857934991e-06,-0.46917771839336697
763,0.7502,351.646,353.747,3.44801,35.959,-177.351,0.00827546,0.318559,0.31851,-0.634054,-1.81574e-07,0.00207883,-8.17291e-06,0.86613,0.3751447523308391,-1.8157398351537068e-07,0.002080992265152126,0.3750773718888094,-8.172876601819645e-06,-0.4695629555118186
764,0.7512,351.766,353.837,3.43253,35.9755,-177.408,0.0216129,0.318922,0.318873,-0.634781,-1.84351e-07,0.00205402,-8.53848e-06,0.867135,0.37564402048762346,-1.8435098303459796e-07,0.0020561309441400333,0.37557661558205324,-8.538443547312369e-06,-0.46994844310144424
765,0.7522,351.848,354.036,3.45212,35.98,-177.469,0.00457976,0.319286,0.319237,-0.635506,-1.80753e-07,0.00202928,-8.03642e-06,0.868138,0.37614484605580456,-1.807529836916899e-07,0.0020313403821208276,0.37607741661038263,-8.036387708076909e-06,-0.47033259120967996
766,0.7532,351.965,354.1,3.42754,35.9967,-177.529,0.0202544,0.319649,0.3196,-0.636233,-1.8336e-07,0.00200454,-8.37888e-06,0.869143,0.3766444773125095,-1.8335998319685132e-07,0.0020065504334128015,0.37657702338575594,-8.378844897238835e-06,-0.4707175194774914
767,0.7542,352.126,354.226,3.45465,36.0129,-177.589,0.0336157,0.320012,0.319963,-0.636958,-1.85731e-07,0.00197972,-8.68908e-06,0.870147,0.37714428996828264,-1.8573098270469046e-07,0.0019816809394626045,0.377076811551309,-8.689042250042966e-06,-0.4711011102074285
768,0.7552,352.239,354.317,3.43815,36.0281,-177.647,0.0440818,0.320375,0.320326,-0.637684,-1.8792e-07,0.00195491,-8.97409e-06,0.87115,0.37764428408898376,-1.8791998235290208e-07,0.001956822082334053,0.3775767811728983,-8.97404973299043e-06,-0.4714849514501873
769,0.7562,352.377,354.444,3.45284,36.0428,-177.706,0.0542279,0.320738,0.320689,-0.638408,-1.89482e-07,0.00193008,-9.17362e-06,0.872153,0.3781444597404966,-1.894819819936444e-07,0.001931943803306746,0.3780769323164046,-9.173577922516607e-06,-0.4718674578613081
770,0.7572,352.489,354.552,3.44447,36.0567,-177.764,0.0621484,0.3211,0.321052,-0.639133,-1.90966e-07,0.00190526,-9.36249e-06,0.873156,0.3786434383446009,-1.9096598180556867e-07,0.0019070761610702203,0.37857726504773215,-9.362446172000993e-06,-0.4722502151880622
771,0.7582,352.616,354.678,3.45304,36.0702,-177.823,0.0695398,0.321463,0.321414,-0.639858,-1.92091e-07,0.00188043,-9.50222e-06,0.874158,0.37914397675494516,-1.9209098156558468e-07,0.0018821991172190966,0.37907640035571943,-9.502174854070233e-06,-0.47263269511632344
772,0.7592,352.728,354.793,3.44932,36.0833,-177.883,0.0755752,0.321825,0.321777,-0.640582,-1.9313e-07,0.00185562,-9.63015e-06,0.87516,0.3796433172497071,-1.9312998134068948e-07,0.0018573427282038146,0.3795770959598028,-9.63010363030925e-06,-0.47301437086176734
773,0.7602,352.848,354.917,3.45465,36.0962,-177.942,0.0811547,0.322188,0.322139,-0.641306,-1.93948e-07,0.0018308,-9.72788e-06,0.876161,0.38014421868197834,-1.9394798123073542e-07,0.0018324769375428485,0.3800765932720991,-9.727832684380822e-06,-0.47339577037397995
774,0.7612,352.96,355.035,3.45344,36.1088,-178.002,0.085895,0.32255,0.322502,-0.64203,-1.94692e-07,0.00180598,-9.81548e-06,0.877162,0.3806439213298636,-1.9469198109245411e-07,0.0018076117640433154,0.38057765201211624,-9.815431828319454e-06,-0.4737768938528818
775,0.7622,353.076,355.157,3.45703,36.1212,-178.062,0.0902676,0.322912,0.322864,-0.642754,-1.95298e-07,0.00178116,-9.88428e-06,0.878163,0.3811438049028528,-1.9529798089834571e-07,0.0017827472076898943,0.3810775115912697,-9.88423115066972e-06,-0.47415774149824874
776,0.7632,353.189,355.275,3.45716,36.1335,-178.122,0.0941027,0.323274,0.323226,-0.643477,-1.95844e-07,0.00175635,-9.9448e-06,0.879163,0.3816438694664528,-1.958439808102952e-07,0.0017578932860458085,0.3815775521523468,-9.944750550605619e-06,-0.4745377880477628
777,0.7642,353.304,355.395,3.4598,36.1458,-178.182,0.0976425,0.323635,0.323587,-0.6442,-1.96299e-07,0.00173152,-9.99302e-06,0.880163,0.38214273294277,-1.9629898073691976e-07,0.0017330199463592155,0.3820763916837917,-9.99297006998301e-06,-0.47491755992292817
778,0.7652,353.417,355.513,3.46062,36.158,-178.243,0.100815,0.323997,0.323949,-0.644923,-1.96705e-07,0.0017067,-1.00344e-05,0.881163,0.38264315918378,-1.967049806372856e-07,0.0017081572413517598,0.3825767939049187,-1.0034349655629882e-05,-0.4752970573222629
779,0.7662,353.531,355.632,3.46275,36.1702,-178.303,0.103742,0.324359,0.324311,-0.645645,-1.97047e-07,0.00168187,-1.00671e-05,0.882162,0.3831437666118822,-1.9704698062117387e-07,0.001683285136595769,0.38307737730444114,-1.0067049326933919e-05,-0.47567575612015944
780,0.7672,353.644,355.749,3.46393,36.1823,-178.363,0.106396,0.32472,0.324672,-0.646367,-1.97345e-07,0.00165704,-1.00938e-05,0.883161,0.3836431716488149,-1.9734498057921712e-07,0.0016584136494066648,0.383576758370507,-1.009374905780458e-05,-0.47605418159620483
781,0.7682,353.758,355.867,3.46578,36.1944,-178.424,0.108837,0.325081,0.325033,-0.647089,-1.97595e-07,0.0016322,-1.01139e-05,0.88416,0.38414275700351097,-1.975949804888799e-07,0.0016335327634335872,0.3840763197456818,-1.0113848854631513e-05,-0.4764323339476665
782,0.7692,353.872,355.984,3.46714,36.2065,-178.484,0.111056,0.325442,0.325395,-0.647811,-1.97805e-07,0.00160735,-1.01286e-05,0.885158,0.38464252274107746,-1.978049803952331e-07,0.0016086424794075072,0.3845774460718223,-1.0128548705856666e-05,-0.47681021337166896
783,0.7702,353.986,356.101,3.46885,36.2186,-178.544,0.113085,0.325803,0.325756,-0.648533,-1.97974e-07,0.00158249,-1.01378e-05,0.886156,0.38514246892664405,-1.9797398043142067e-07,0.0015837427980596175,0.3850773687604703,-1.013774861269301e-05,-0.4771878200651949
784,0.7712,354.099,356.217,3.4703,36.2307,-178.604,0.114924,0.326164,0.326117,-0.649254,-1.98108e-07,0.00155763,-1.01422e-05,0.887153,0.3856425956253642,-1.9810798035369004e-07,0.001558843735710358,0.3855774719537881,-1.0142148568093035e-05,-0.47756463178997755
785,0.7722,354.213,356.334,3.47193,36.2428,-178.664,0.116597,0.326525,0.326477,-0.649975,-1.98206e-07,0.00153277,-1.01417e-05,0.88815,0.38614290290241504,-1.9820598040620752e-07,0.0015339452923439634,0.3860763696398868,-1.014164857315869e-05,-0.47794117193142427
786,0.7732,354.326,356.45,3.47343,36.2548,-178.724,0.118112,0.326885,0.326838,-0.650696,-1.98273e-07,0.00150789,-1.0137e-05,0.889147,0.3866420041802996,-1.982729803673422e-07,0.0015090274377644874,0.3865768335376254,-1.0136948620842468e-05,-0.47831744068527593
787,0.7742,354.44,356.566,3.47503,36.2669,-178.784,0.119495,0.327246,0.327199,-0.651416,-1.98312e-07,0.00148301,-1.01285e-05,0.890144,0.3871426723089686,-1.9831198028175123e-07,0.0014841102031335485,0.38707747813544535,-1.0128448706958615e-05,-0.47869291694031013
788,0.7752,354.554,356.682,3.47658,36.2789,-178.844,0.120771,0.327606,0.327559,-0.652136,-1.98326e-07,0.00145812,-1.01167e-05,0.89114,0.3876421335686324,-1.9832598030511406e-07,0.0014591835738437808,0.3875769159209814,-1.0116648826330454e-05,-0.4790681229497409
789,0.7762,354.667,356.798,3.47818,36.2909,-178.903,0.121981,0.327966,0.327919,-0.652856,-1.98323e-07,0.00143323,-1.01025e-05,0.892135,0.3881417746667186,-1.9832298037147922e-07,0.001434257564970176,0.38807653353648797,-1.0102448969928624e-05,-0.4794430589080748
790,0.7772,354.781,356.913,3.47978,36.303,-178.963,0.123175,0.328326,0.328279,-0.653576,-1.9831e-07,0.00140832,-1.00871e-05,0.893131,0.38864159566798095,-1.9830998032599467e-07,0.0014093121483105264,0.3885763310467152,-1.0087049125417913e-05,-0.4798177250096789
791,0.7782,354.895,357.028,3.48142,36.315,-179.022,0.124422,0.328686,0.328639,-0.654295,-1.98299e-07,0.00138341,-1.00719e-05,0.894126,0.38914159663719583,-1.98298980347289e-07,0.0013843673530338219,0.3890763085164368,-1.0071849278592282e-05,-0.48019160164064134
792,0.7792,355.01,357.142,3.48309,36.3272,-179.081,0.125803,0.329046,0.328999,-0.655014,-1.98304e-07,0.00135849,-1.00589e-05,0.89512,0.38964177763916363,-1.983039803477027e-07,0.001359413165529677,0.38957646601044993,-1.0058849409411152e-05,-0.48056520955092297
793,0.7802,355.125,357.256,3.48481,36.3394,-179.141,0.127411,0.329406,0.329359,-0.655733,-1.9834e-07,0.00133356,-1.00503e-05,0.896115,0.3901421387387076,-1.9833998032847688e-07,0.0013344495865319494,0.3900768035935749,-1.0050249495852093e-05,-0.4809385489336643
794,0.7812,355.241,357.369,3.48656,36.3518,-179.2,0.129341,0.329765,0.329719,-0.656452,-1.98426e-07,0.00130863,-1.00484e-05,0.897108,0.39064128935869014,-1.984259803133881e-07,0.001309486629868184,0.3905773213306556,-1.0048349515012767e-05,-0.4813116199818672
795,0.7822,355.357,357.482,3.48836,36.3643,-179.258,0.131672,0.330125,0.330078,-0.65717,-1.98579e-07,0.00128368,-1.00556e-05,0.898102,0.3911420103472296,-1.98578980259434e-07,0.0012845042698330644,0.3910766282092355,-1.0055549442666845e-05,-0.4816839045725587
796,0.7832,355.474,357.593,3.49016,36.3769,-179.317,0.134455,0.330484,0.330438,-0.657889,-1.9881e-07,0.00125872,-1.00734e-05,0.899095,0.3916415199855594,-1.9880998025634256e-07,0.001259512520504824,0.39157750594797425,-1.0073349263506337e-05,-0.482056439902671
797,0.7842,355.592,357.704,3.49198,36.3898,-179.375,0.137703,0.330843,0.330797,-0.658607,-1.99125e-07,0.00123376,-1.01027e-05,0.900088,0.39214120898004223,-1.9912498017138347e-07,0.0012345213949627176,0.39207717195729197,-1.010264896794677e-05,-0.4824281899045997
798,0.7852,355.711,357.815,3.49377,36.4028,-179.433,0.141387,0.331202,0.331156,-0.659324,-1.99523e-07,0.00120878,-1.01433e-05,0.901081,0.3926410773950779,-1.9952298013770076e-07,0.001209510869001118,0.3925770173789094,-1.0143248556859774e-05,-0.4827991558852416
799,0.7862,355.83,357.925,3.49553,36.4159,-179.491,0.145455,0.331561,0.331515,-0.660042,-1.99996e-07,0.00118379,-1.0194e-05,0.902073,0.39314112529509027,-1.9999597999920127e-07,0.0011844909559497463,0.3930770422772474,-1.0193948041359313e-05,-0.48317037280849295
800,0.7872,355.949,358.035,3.49726,36.4291,-179.549,0.149838,0.33192,0.331874,-0.660759,-2.00531e-07,0.00115879,-1.02532e-05,0.903065,0.3936413527445257,-2.0053097993244506e-07,0.001159461656543348,0.39357724671674954,-1.0253147436078969e-05,-0.4835408068347211
801,0.7882,356.068,358.145,3.49894,36.4424,-179.606,0.154471,0.332279,0.332233,-0.661476,-2.01117e-07,0.00113378,-1.03192e-05,0.904057,0.3941417598078545,-2.0111697973668186e-07,0.0011344229715173348,0.39407763076188274,-1.031914675719836e-05,-0.48391097535494787
802,0.7892,356.187,358.255,3.5006,36.4557,-179.664,0.159297,0.332637,0.332591,-0.662193,-2.01741e-07,0.00110877,-1.03905e-05,0.905048,0.39464095190792015,-2.01740979699494e-07,0.0011093849127010724,0.3945767998996399,-1.0390446018915256e-05,-0.48428087855947266
803,0.7902,356.306,358.365,3.50222,36.4689,-179.721,0.164275,0.332996,0.33295,-0.662909,-2.02395e-07,0.00108374,-1.04657e-05,0.906039,0.3951417178917709,-2.0239497955376606e-07,0.0010843274583920426,0.39507754284878516,-1.046564523476956e-05,-0.4846500012887175
804,0.7912,356.424,358.475,3.50382,36.4822,-179.778,0.169372,0.333354,0.333308,-0.663625,-2.03074e-07,0.00105871,-1.05442e-05,0.907029,0.39564126804091737,-2.0307397941010663e-07,0.0010592706312633204,0.39557707001915343,-1.0544144410151723e-05,-0.48501885982068227
805,0.7922,356.543,358.586,3.50539,36.4955,-179.835,0.174569,0.333712,0.333666,-0.664341,-2.03772e-07,0.00103368,-1.06252e-05,0.908019,0.39614099706103345,-2.0377197929022373e-07,0.0010342144312989188,0.3960767760522632,-1.0625143552767113e-05,-0.4853874543444643
806,0.7932,356.661,358.696,3.50695,36.5087,-179.892,0.179851,0.33407,0.334024,-0.665057,-2.04486e-07,0.00100863,-1.07085e-05,0.909009,0.3966409050161661,-2.044859790384379e-07,0.0010091388383006716,0.3965766610121588,-1.0708442664264517e-05,-0.48575578504902583
807,0.7942,356.778,358.806,3.50849,36.522,-179.949,0.185208,0.334428,0.334382,-0.665772,-2.05215e-07,0.000983584,-1.07937e-05,0.909999,0.39714099197038566,-2.052149788989155e-07,0.0009840678773742617,0.39707672496290747,-1.0793641748274574e-05,-0.4861233382467891
808,0.7952,356.962,358.903,3.5369,36.5427,-180.003,0.21929,0.334786,0.33474,-0.666488,-2.05957e-07,0.000958529,-1.08805e-05,0.910988,0.39764125798778505,-2.0595697880487762e-07,0.0009589885357363936,0.3975769679685994,-1.088044080754802e-05,-0.48649114224705914
809,0.7962,357.028,359.015,3.51122,36.5519,-180.06,0.204856,0.335143,0.335098,-0.667203,-2.08088e-07,0.000933403,-1.11561e-05,0.911977,0.3981403049914767,-2.0808797840388138e-07,0.0009338387561483863,0.39807739009334786,-1.1156037770909677e-05,-0.48685816985234753
810,0.7972,357.135,359.138,3.51376,36.5631,-180.117,0.205271,0.335501,0.335455,-0.667918,-2.08411e-07,0.00090834,-1.11858e-05,0.912965,0.3986409288269832,-2.0841097825297084e-07,0.0009087526657152178,0.3985765928239966,-1.1185737439189936e-05,-0.4872249351266925
811,0.7982,357.244,359.251,3.51264,36.5749,-180.174,0.208634,0.335858,0.335813,-0.668632,-2.08618e-07,0.000883288,-1.11996e-05,0.913953,0.39914033277687544,-2.0861797822568917e-07,0.000883678213727368,0.39907737287850886,-1.1199537284678485e-05,-0.48759092584877595
812,0.7992,357.422,359.353,3.5421,36.5945,-180.229,0.240235,0.336215,0.33617,-0.669346,-2.09043e-07,0.00085823,-1.1243e-05,0.914941,0.39963991504580587,-2.0904297814983153e-07,0.0008585983847451129,0.3995769326667431,-1.1242936797661862e-05,-0.4879566553467518
813,0.8002,357.488,359.463,3.51679,36.6035,-180.286,0.226599,0.336572,0.336527,-0.670061,-2.10994e-07,0.000833103,-1.1494e-05,0.915929,0.4001396756974458,-2.1099397773394202e-07,0.0008334501266951122,0.4000766708296597,-1.1493933944284329e-05,-0.488322635484688
814,0.8012,357.597,359.584,3.52031,36.6147,-180.343,0.227546,0.336929,0.336884,-0.670774,-2.11375e-07,0.000808029,-1.15312e-05,0.916916,0.40063961479548893,-2.1137497763223934e-07,0.0008083555433786582,0.4005765874309497,-1.1531133515929604e-05,-0.48868733141603793
815,0.8022,357.763,359.682,3.54239,36.6334,-180.398,0.25658,0.337286,0.337241,-0.671488,-2.11706e-07,0.000782961,-1.15616e-05,0.917903,0.4011397324036525,-2.1170597763742194e-07,0.0007832675939756228,0.40107668253432704,-1.15615331649499e-05,-0.4890522783598439
816,0.8032,357.808,359.822,3.5213,36.6384,-180.457,0.230782,0.337643,0.337598,-0.672201,-2.11678e-07,0.000757855,-1.15433e-05,0.918888,0.4016400285856756,-2.116779775906963e-07,0.000758142244659199,0.4015769562035285,-1.1543233376376527e-05,-0.4894164542412437
817,0.8042,357.949,359.883,3.51475,36.6572,-180.513,0.251108,0.338,0.337955,-0.672915,-2.15125e-07,0.000732753,-1.19971e-05,0.919875,0.4021405034053205,-2.151249768322927e-07,0.0007330215290639597,0.4020774085023133,-1.1997028035115598e-05,-0.4897808807771602
818,0.8052,358.126,360.009,3.55567,36.6747,-180.568,0.277778,0.338356,0.338311,-0.673627,-2.15017e-07,0.000707641,-1.19675e-05,0.920861,0.4026397542859168,-2.1501697688997012e-07,0.0007078914369620382,0.4025766369171253,-1.1967428389714208e-05,-0.49014402749447417
819,0.8062,358.148,360.143,3.51878,36.6781,-180.625,0.248917,0.338712,0.338668,-0.67434,-2.14393e-07,0.000682527,-1.18679e-05,0.921846,0.403139182931467,-2.1439297703818028e-07,0.0006827599745535817,0.4030774461656368,-1.1867829576739375e-05,-0.49050742523618074
820,0.8072,358.295,360.218,3.52342,36.696,-180.682,0.268152,0.339069,0.339024,-0.675053,-2.17343e-07,0.000657414,-1.22539e-05,0.922831,0.4036401930447575,-2.1734297639408595e-07,0.000657630143946486,0.4035770306572348,-1.2253824921315548e-05,-0.4908705639676455
821,0.8082,358.435,360.308,3.52826,36.7129,-180.737,0.284247,0.339425,0.33938,-0.675765,-2.20057e-07,0.000632251,-1.26077e-05,0.923816,0.4041399779099091,-2.2005697575266936e-07,0.00063245091279307,0.4040767930325735,-1.2607620523241714e-05,-0.49123293510666655
822,0.8092,358.494,360.487,3.533,36.7156,-180.794,0.26284,0.339781,0.339736,-0.676476,-2.16516e-07,0.000607164,-1.21112e-05,0.9248,0.40463994073014664,-2.165159765921132e-07,0.0006073483613719954,0.40457673335499056,-1.2111126659664073e-05,-0.4915945399240599
823,0.8102,358.62,360.544,3.5177,36.733,-180.851,0.281552,0.340136,0.340092,-0.677188,-2.19036e-07,0.000582061,-1.24386e-05,0.925784,0.4051386764294549,-2.190359760234628e-07,0.0005822304303753079,0.40507685168784624,-1.2438522640989547e-05,-0.4919563957756641
824,0.8112,358.774,360.65,3.53912,36.7496,-180.907,0.297178,0.340492,0.340448,-0.6779,-2.21473e-07,0.000556888,-1.27545e-05,0.926768,0.4056389948496584,-2.2147297551455836e-07,0.0005570430909103141,0.4055771480945236,-1.2754418661664602e-05,-0.49231799407760046
825,0.8122,358.889,360.734,3.52748,36.7651,-180.961,0.310048,0.340848,0.340804,-0.678611,-2.23699e-07,0.000531709,-1.30414e-05,0.927751,0.40613949141492767,-2.2369897501040015e-07,0.0005318503822873133,0.4060776226384284,-1.30413149612707e-05,-0.49267882769226046
826,0.8132,358.951,360.932,3.5435,36.7662,-181.019,0.285352,0.341203,0.341159,-0.679321,-2.19423e-07,0.000506605,-1.2445e-05,0.928733,0.40663875954923046,-2.194229759000521e-07,0.0005067333459856105,0.40657686880541655,-1.2444922561360983e-05,-0.4930388978845548
827,0.8142,359.064,360.984,3.51955,36.7828,-181.076,0.301818,0.341559,0.341514,-0.680033,-2.21644e-07,0.000481498,-1.27314e-05,0.929717,0.40713961209409333,-2.216439753954802e-07,0.0004816139387693319,0.4070762922362565,-1.2731318956071824e-05,-0.49339972571930857
828,0.8152,359.221,361.097,3.54746,36.7988,-181.132,0.316021,0.341914,0.34187,-0.680743,-2.23728e-07,0.000456318,-1.29991e-05,0.930699,0.4076392353342646,-2.2372797492398178e-07,0.00045642212889651645,0.4075773005704848,-1.2999015512105139e-05,-0.49375928425566296
829,0.8162,359.33,361.176,3.53141,36.8139,-181.186,0.327397,0.342269,0.342225,-0.681454,-2.25729e-07,0.000431135,-1.32553e-05,0.931681,0.4081390359721726,-2.2572897451222929e-07,0.0004312279520519713,0.40807707921764846,-1.3255212148899354e-05,-0.4941190934772214
830,0.8172,359.464,361.291,3.54538,36.8283,-181.241,0.338368,0.342624,0.34258,-0.682163,-2.27212e-07,0.000405928,-1.3441e-05,0.932663,0.4086390140708045,-2.2721197423525297e-07,0.00040601039991972065,0.4085770353177278,-1.3440909670148216e-05,-0.4944776359216301
831,0.8182,359.502,361.472,3.54149,36.8283,-181.298,0.310578,0.342979,0.342935,-0.682873,-2.22932e-07,0.000380815,-1.28437e-05,0.933643,0.4091391696931699,-2.229319751023695e-07,0.0003808875192372607,0.40907716893373003,-1.2843617520075234e-05,-0.4948364294133638
832,0.8192,359.625,361.541,3.53276,36.8442,-181.355,0.325882,0.343333,0.34329,-0.683582,-2.2451e-07,0.000355696,-1.30425e-05,0.934624,0.40963809326350287,-2.2450997483325352e-07,0.0003557592673233412,0.40957748012868445,-1.3042414946928815e-05,-0.4951944634468468
833,0.8202,359.769,361.645,3.55017,36.8596,-181.412,0.337964,0.343688,0.343644,-0.684292,-2.26325e-07,0.000330512,-1.32734e-05,0.935605,0.41013860362194365,-2.2632497442831578e-07,0.0003305666251089967,0.4100765588883786,-1.3273311908812424e-05,-0.4955527481716713
834,0.8212,359.882,361.731,3.54184,36.8743,-181.467,0.348107,0.344042,0.343999,-0.685001,-2.27984e-07,0.000305316,-1.34829e-05,0.936585,0.4106378810545175,-2.27983974032675e-07,0.00030536261367375417,0.41057722492974813,-1.3482809106069027e-05,-0.495910274515152
835,0.8222,360.009,361.84,3.55036,36.8884,-181.522,0.357625,0.344397,0.344353,-0.68571,-2.29273e-07,0.000280101,-1.36421e-05,0.937565,0.41113874640063064,-2.292729737174426e-07,0.0002801402319478896,0.4110766576617513,-1.3642006946978924e-05,-0.49626754746229484
836,0.8232,360.12,361.94,3.5465,36.9019,-181.576,0.365635,0.344751,0.344708,-0.686418,-2.30464e-07,0.000254885,-1.37878e-05,0.938545,0.41163837794642233,-2.30463973460715e-07,0.00025491748594164143,0.41157767880121177,-1.3787704948753365e-05,-0.4966240638170095
837,0.8242,360.238,362.051,3.55143,36.9151,-181.631,0.373012,0.345105,0.345062,-0.687127,-2.31426e-07,0.000229663,-1.39024e-05,0.939524,0.4121381863930911,-2.3142597327385772e-07,0.0002296893745659112,0.4120774657565791,-1.390230336206777e-05,-0.49698083086689915
838,0.8252,360.347,362.158,3.55019,36.9278,-181.685,0.379401,0.345459,0.345416,-0.687835,-2.32297e-07,0.000204445,-1.40044e-05,0.940503,0.41263817180327056,-2.3229697299065322e-07,0.0002044659003033189,0.41257742966784816,-1.4004301938874697e-05,-0.49733684239569276
839,0.8262,360.46,362.27,3.5534,36.9402,-181.74,0.385283,0.345813,0.34577,-0.688543,-2.33019e-07,0.000179227,-1.40862e-05,0.941481,0.4131383342396169,-2.3301897289496054e-07,0.0001792430621183616,0.41307757059767214,-1.408610078990069e-05,-0.49769260195753096
840,0.8272,360.568,362.379,3.5535,36.9524,-181.795,0.390514,0.346166,0.346123,-0.68925,-2.33668e-07,0.000154012,-1.41579e-05,0.94246,0.41363726012684165,-2.336679727488189e-07,0.00015402386045693106,0.41357647503154515,-1.4157799777425595e-05,-0.4980476077786018
841,0.8282,360.678,362.49,3.55585,36.9644,-181.85,0.395364,0.34652,0.346477,-0.689958,-2.3422e-07,0.000128797,-1.42164e-05,0.943437,0.4141377763030629,-2.3421997252803806e-07,0.00012880529468972668,0.41407696968603336,-1.4216298947489214e-05,-0.4984028642966474
842,0.8292,360.785,362.599,3.55663,36.9763,-181.906,0.399783,0.346873,0.346831,-0.690665,-2.34716e-07,0.000103583,-1.42674e-05,0.944415,0.4146370550556131,-2.3471597243585052e-07,0.00010358836490409473,0.4145776415469933,-1.4267298221182223e-05,-0.4987573681397146
843,0.8302,360.894,362.71,3.55854,36.9882,-181.961,0.403922,0.347227,0.347184,-0.691372,-2.35148e-07,7.83688e-05,-1.43096e-05,0.945392,0.41513792522189163,-2.3514797231616313e-07,7.837187091452869e-05,0.41507707559938334,-1.4309497618159028e-05,-0.49911162143714305
844,0.8312,361.001,362.819,3.55966,36.9999,-182.017,0.407772,0.34758,0.347537,-0.692078,-2.35539e-07,5.31532e-05,-1.43461e-05,0.946369,0.41563755708933137,-2.3553897221528786e-07,5.315461265631427e-05,0.4155766859831147,-1.4345997095155383e-05,-0.4994651238313801
845,0.8322,361.109,362.928,3.56134,37.0117,-182.072,0.411417,0.347933,0.34789,-0.692785,-2.35886e-07,2.79354e-05,-1.43768e-05,0.947345,0.4161373653579532,-2.3588597219958984e-07,2.7935790196886856e-05,0.41607647276044313,-1.4376696654272436e-05,-0.49981887692237836
846,0.8332,361.216,363.037,3.56263,37.0234,-182.128,0.414861,0.348286,0.348243,-0.693491,-2.36203e-07,2.71504e-06,-1.44032e-05,0.948321,0.416637350090038,-2.3620297207038732e-07,2.715043685652674e-06,0.4165764359936466,-1.440309627442904e-05,-0.5001718801704622
847,0.8342,361.323,363.146,3.56419,37.0351,-182.184,0.418153,0.348639,0.348596,-0.694197,-2.36488e-07,-2.25086e-05,-1.44254e-05,0.949297,0.4171375113478879,-2.3648797198294602e-07,-2.2508346683380864e-05,0.417076575745025,-1.442529595441222e-05,-0.5005246342862069
848,0.8352,361.43,363.254,3.56555,37.0468,-182.239,0.421301,0.348991,0.348949,-0.694902,-2.3675e-07,-4.77359e-05,-1.44443e-05,0.950272,0.4176364315566876,-2.3674997196021508e-07,-4.773476066000093e-05,0.4175768920769001,-1.4444195681639904e-05,-0.5008766403223277
849,0.8362,361.538,363.362,3.56704,37.0585,-182.295,0.424333,0.349344,0.349302,-0.695608,-2.36988e-07,-7.29671e-05,-1.44602e-05,0.951248,0.4181369455525501,-2.369879719132939e-07,-7.296443796589447e-05,0.4180773850516162,-1.4460095451807042e-05,-0.5012288970530028
850,0.8372,361.645,363.469,3.56844,37.0702,-182.35,0.427257,0.349696,0.349654,-0.696313,-2.37209e-07,-9.82026e-05,-1.44736e-05,0.952222,0.41863621762411407,-2.3720897190937507e-07,-9.819777828246057e-05,0.4185766361541934,-1.44734952579606e-05,-0.50158040675885
851,0.8382,361.752,363.577,3.5699,37.0819,-182.406,0.430091,0.350049,0.350007,-0.697018,-2.37411e-07,-0.000123443,-1.44845e-05,0.953197,0.4191370846067568,-2.374109717706574e-07,-0.00012343538122638886,0.4190774821008647,-1.4484395100100578e-05,-0.5019316687376887
852,0.8392,361.86,363.684,3.57131,37.0936,-182.461,0.43284,0.350401,0.350359,-0.697722,-2.37599e-07,-0.000148687,-1.44935e-05,0.954171,0.41963670878923565,-2.375989717195992e-07,-0.0001486759466358123,0.4195770852995686,-1.4493394969727902e-05,-0.5022821854465389
853,0.8402,361.967,363.791,3.57274,37.1054,-182.516,0.435516,0.350753,0.350711,-0.698427,-2.37772e-07,-0.000173936,-1.45005e-05,0.955144,0.420136508870383,-2.377719717783222e-07,-0.00017392087401091327,0.4200768643895534,-1.4500394868277589e-05,-0.5026329528457626
854,0.8412,362.074,363.898,3.57415,37.1171,-182.571,0.438124,0.351105,0.351063,-0.699131,-2.37932e-07,-0.00019919,-1.45058e-05,0.956118,0.42063648491212646,-2.3793197168053837e-07,-0.00019917016298909296,0.42057681943274394,-1.450569479144459e-05,-0.5029829760243438
855,0.8422,362.182,364.004,3.57558,37.1289,-182.626,0.440671,0.351457,0.351415,-0.699835,-2.38081e-07,-0.000224448,-1.45095e-05,0.957091,0.4211366369764147,-2.3808097160404884e-07,-0.00022442281343204584,0.4210769504910865,-1.4509394737682868e-05,-0.5033327528733256
856,0.8432,362.289,364.111,3.57699,37.1406,-182.682,0.443163,0.351808,0.351767,-0.700539,-2.38219e-07,-0.000249711,-1.45118e-05,0.958063,0.42163554348896404,-2.3821897165987593e-07,-0.00024967982480317286,0.4215772576265493,-1.4511694704344436e-05,-0.5036822835660629
857,0.8442,362.396,364.217,3.5784,37.1523,-182.736,0.445603,0.35216,0.352118,-0.701242,-2.38347e-07,-0.000274978,-1.45127e-05,0.959036,0.4221360472837723,-2.3834697160385332e-07,-0.00027494019701479466,0.4220763188240928,-1.451259469131827e-05,-0.504031072307109
858,0.8452,362.504,364.323,3.57981,37.1641,-182.791,0.447996,0.352512,0.35247,-0.701946,-2.38466e-07,-0.00030025,-1.45124e-05,0.960008,0.4226367272869269,-2.384659715248816e-07,-0.000300204929479686,0.42257697779912906,-1.4512294695623318e-05,-0.5043801115559734
859,0.8462,362.611,364.429,3.58122,37.1758,-182.846,0.450345,0.352863,0.352821,-0.702649,-2.38576e-07,-0.000325526,-1.45109e-05,0.960979,0.4231361604235926,-2.38575971533983e-07,-0.0003254730221603497,0.4230763899600434,-1.4510794717370601e-05,-0.5047284098963385
860,0.8472,362.718,364.535,3.58262,37.1876,-182.901,0.452654,0.353214,0.353173,-0.703351,-2.38678e-07,-0.000350807,-1.45084e-05,0.961951,0.42363576889205823,-2.386779714980136e-07,-0.00035074547441915627,0.4235774010220832,-1.4508294753690087e-05,-0.5050759685452323
861,0.8482,362.825,364.641,3.58403,37.1993,-182.955,0.454925,0.353565,0.353524,-0.704054,-2.38773e-07,-0.000376091,-1.45048e-05,0.962922,0.42413555275387593,-2.3877297150587395e-07,-0.0003760202866450735,0.42407716439318266,-1.4504694805905771e-05,-0.5054237778700431
862,0.8492,362.932,364.747,3.58542,37.211,-183.01,0.457161,0.353916,0.353875,-0.704756,-2.3886e-07,-0.00040138,-1.45003e-05,0.963892,0.42463551207061956,-2.3885997146866345e-07,-0.0004012994578241891,0.4245771032120145,-1.450019487114762e-05,-0.5057708485419194
863,0.8502,363.039,364.852,3.58682,37.2227,-183.065,0.459364,0.354267,0.354226,-0.705458,-2.3894e-07,-0.000426673,-1.44949e-05,0.964863,0.42513564690388495,-2.389399714752827e-07,-0.00042658198802014713,0.425077217540172,-1.4494794949415635e-05,-0.5061176756556829
864,0.8512,363.146,364.958,3.58822,37.2344,-183.119,0.461536,0.354618,0.354577,-0.70616,-2.39014e-07,-0.000451971,-1.44886e-05,0.965833,0.4256359573152888,-2.390139713925876e-07,-0.00045186887649373286,0.4255775074392696,-1.4488495040709815e-05,-0.5064642593822515
865,0.8522,363.253,365.063,3.58961,37.2461,-183.173,0.46368,0.354968,0.354927,-0.706861,-2.39082e-07,-0.000477272,-1.44815e-05,0.966802,0.4261350172307399,-2.390819714426229e-07,-0.00047715812383641865,0.42607654689368335,-1.4481395143595144e-05,-0.5068101067027762
866,0.8532,363.36,365.169,3.591,37.2578,-183.228,0.465796,0.355319,0.355278,-0.707563,-2.39144e-07,-0.000502577,-1.44737e-05,0.967772,0.42663567848269723,-2.3914397140334387e-07,-0.0005024507293339697,0.42657718761895036,-1.4473595256525584e-05,-0.5071562045133261
867,0.8542,363.466,365.274,3.59239,37.2695,-183.282,0.467887,0.355669,0.355628,-0.708264,-2.392e-07,-0.000527886,-1.44651e-05,0.96874,0.42713508836179703,-2.3919997138577287e-07,-0.0005277466926993934,0.42707657702266477,-1.4464995380936152e-05,-0.5075015669502855
868,0.8552,363.573,365.379,3.59378,37.2812,-183.336,0.469953,0.356019,0.355979,-0.708965,-2.39251e-07,-0.000553198,-1.44558e-05,0.969709,0.42763467306494674,-2.3925097136778817e-07,-0.0005530450141981724,0.42757756882011666,-1.4455695515391831e-05,-0.5078466873730124
869,0.8562,363.679,365.484,3.59516,37.2928,-183.39,0.471997,0.356369,0.356329,-0.709665,-2.39297e-07,-0.000578515,-1.44459e-05,0.970677,0.4281344326533456,-2.3929697134938976e-07,-0.0005783476924622333,0.42807730841853187,-1.4445795658457605e-05,-0.5081910741424196
870,0.8572,363.786,365.588,3.59655,37.3045,-183.444,0.47402,0.356719,0.356679,-0.710366,-2.39339e-07,-0.000603835,-1.44353e-05,0.971645,0.42863436718821446,-2.3933897130845594e-07,-0.0006036527283356241,0.4285772229564193,-1.4435195811568491e-05,-0.5085357113899776
871,0.8582,363.892,365.693,3.59793,37.3161,-183.498,0.476021,0.357069,0.357029,-0.711066,-2.39375e-07,-0.000629158,-1.44242e-05,0.972613,0.42913447673079497,-2.3937497140025243e-07,-0.0006289601216066254,0.429077312495018,-1.4424095971743434e-05,-0.5088796160113442
872,0.8592,363.998,365.798,3.59931,37.3277,-183.552,0.478004,0.357419,0.357379,-0.711766,-2.39407e-07,-0.000654486,-1.44125e-05,0.97358,0.4296347613423508,-2.394069713584912e-07,-0.0006542718707552853,0.42957757709558964,-1.441239614041745e-05,-0.5092232799837131
873,0.8602,364.104,365.902,3.60069,37.3393,-183.606,0.479967,0.357769,0.357728,-0.712465,-2.39435e-07,-0.000679816,-1.44002e-05,0.974547,0.43013522108416646,-2.3943497129419455e-07,-0.0006795849774570151,0.43007658674211435,-1.4400096317590538e-05,-0.5095662130419376
874,0.8612,364.21,366.007,3.60206,37.3509,-183.659,0.481913,0.358118,0.358078,-0.713165,-2.39459e-07,-0.000705151,-1.43873e-05,0.975514,0.4306344253824079,-2.394589713183848e-07,-0.0007049024394613079,0.43057720114988496,-1.43871965032627e-05,-0.509909396564562
875,0.8622,364.316,366.111,3.60344,37.3625,-183.713,0.483842,0.358467,0.358427,-0.713864,-2.39478e-07,-0.000730488,-1.4374e-05,0.97648,0.43113380393335476,-2.394779713421613e-07,-0.0007302212585953427,0.43107655972608927,-1.4373896694563904e-05,-0.510251850194876
876,0.8632,364.422,366.215,3.60481,37.3741,-183.767,0.485755,0.358817,0.358777,-0.714563,-2.39494e-07,-0.00075583,-1.43601e-05,0.977446,0.4316347884319045,-2.394939713212807e-07,-0.000755544432456956,0.43157752418565987,-1.4359996894253158e-05,-0.5105940645337443
877,0.8642,364.528,366.319,3.60618,37.3856,-183.82,0.487652,0.359166,0.359126,-0.715261,-2.39506e-07,-0.000781174,-1.43458e-05,0.978411,0.4321345161704855,-2.3950597127786466e-07,-0.0007808689630249832,0.4320772319355308,-1.434569709946043e-05,-0.5109355506841688
878,0.8652,364.633,366.423,3.60755,37.3972,-183.874,0.489534,0.359515,0.359475,-0.71596,-2.39514e-07,-0.000806522,-1.4331e-05,0.979377,0.43263441834448413,-2.395139713229355e-07,-0.0008061968485515436,0.4325771141138426,-1.433089731173176e-05,-0.5112772872833848
879,0.8662,364.739,366.527,3.60891,37.4087,-183.927,0.491402,0.359864,0.359824,-0.716658,-2.39519e-07,-0.000831873,-1.43158e-05,0.980342,0.4331344950147895,-2.395189713233492e-07,-0.0008315270895804527,0.43307717078148134,-1.4315697529410087e-05,-0.5116182967107258
880,0.8672,364.844,366.631,3.61028,37.4202,-183.981,0.493255,0.360212,0.360173,-0.717356,-2.3952e-07,-0.000857227,-1.43001e-05,0.981306,0.43363331260828186,-2.395199713012275e-07,-0.00085685968589988,0.43357740199935413,-1.4299997754041449e-05,-0.5119590681965377
881,0.8682,364.95,366.734,3.61164,37.4317,-184.034,0.495095,0.360561,0.360521,-0.718054,-2.39518e-07,-0.000882585,-1.42839e-05,0.982271,0.4341337379535257,-2.395179713454709e-07,-0.0008821956364161165,0.43407637375129915,-1.4283797985625846e-05,-0.5122996019068459
882,0.8692,365.055,366.838,3.613,37.4432,-184.088,0.496922,0.360909,0.36087,-0.718751,-2.39513e-07,-0.000907946,-1.42674e-05,0.983234,0.4346329033440739,-2.395129713450572e-07,-0.000907533941748806,0.43457695375186756,-1.4267298221182223e-05,-0.5126394106472139
883,0.8702,365.16,366.941,3.61436,37.4547,-184.141,0.498736,0.361258,0.361219,-0.719449,-2.39504e-07,-0.00093331,-1.42504e-05,0.984198,0.4351336776073669,-2.395039713221081e-07,-0.0009328746016863398,0.4350777084853452,-1.4250298463580613e-05,-0.5129794696441857
884,0.8712,365.265,367.045,3.61572,37.4662,-184.194,0.500538,0.361606,0.361567,-0.720146,-2.39492e-07,-0.000958677,-1.42331e-05,0.985161,0.43563319103747,-2.3949197136552414e-07,-0.0009582176160168876,0.4355772024348046,-1.4232998709950984e-05,-0.5133188046818453
885,0.8722,365.37,367.148,3.61708,37.4776,-184.247,0.502327,0.361954,0.361915,-0.720842,-2.39477e-07,-0.000984046,-1.42153e-05,0.986124,0.4361328783284968,-2.3947697136428303e-07,-0.0009835619855120825,0.436076870238407,-1.4215198963052345e-05,-0.5136574169430508
886,0.8732,365.474,367.251,3.61843,37.4891,-184.3,0.504105,0.362302,0.362263,-0.721539,-2.39459e-07,-0.00100942,-1.41971e-05,0.987087,0.4366327395409615,-2.394589713183848e-07,-0.0010089107070097025,0.43657671195666437,-1.4196999221671724e-05,-0.5139962796160815
887,0.8742,365.579,367.354,3.61979,37.5005,-184.353,0.505871,0.36265,0.362611,-0.722235,-2.39437e-07,-0.0010348,-1.41786e-05,0.988049,0.43713277473539924,-2.394369713609734e-07,-0.0010342647791113935,0.43707672765010996,-1.4178499484152063e-05,-0.5143344205187844
888,0.8752,365.683,367.457,3.62114,37.5119,-184.406,0.507626,0.362998,0.362959,-0.722931,-2.39413e-07,-0.00106017,-1.41597e-05,0.989011,0.4376329839723663,-2.394129713367832e-07,-0.0010596082183310651,0.43757691737929716,-1.4159599751928376e-05,-0.5146723261573005
889,0.8762,365.788,367.56,3.62249,37.5233,-184.459,0.50937,0.363346,0.363307,-0.723627,-2.39386e-07,-0.00108556,-1.41405e-05,0.989973,0.4381333673124401,-2.393859713789581e-07,-0.0010849709928966167,0.43807728120480105,-1.4140400023565647e-05,-0.5150099966953168
890,0.8772,365.892,367.663,3.62383,37.5347,-184.512,0.511104,0.363693,0.363654,-0.724323,-2.39356e-07,-0.00111094,-1.41209e-05,0.990934,0.4386324861830133,-2.393559713764759e-07,-0.0011103231346127895,0.43857638061011794,-1.4120800300609915e-05,-0.5153474322964061
891,0.8782,365.996,367.765,3.62518,37.5461,-184.565,0.512826,0.364041,0.364002,-0.725018,-2.39323e-07,-0.00113633,-1.41009e-05,0.991895,0.43913321741038525,-2.3932297132933655e-07,-0.0011356846215430094,0.43907709230935277,-1.4100800582728112e-05,-0.5156841488084186
892,0.8792,366.084,367.871,3.61961,37.5552,-184.618,0.507846,0.364388,0.364349,-0.725713,-2.39287e-07,-0.00116172,-1.40806e-05,0.992855,0.43963268328914484,-2.3928697134856236e-07,-0.001161045464553201,0.4395765387093229,-1.4080500868818291e-05,-0.5160206313837578
893,0.8802,366.189,367.99,3.62976,37.5646,-184.671,0.507703,0.364735,0.364697,-0.726408,-2.3793e-07,-0.00118709,-1.38812e-05,0.993815,0.4401323225126379,-2.379299717247818e-07,-0.0011863856873877143,0.44007759852414496,-1.3881103656632199e-05,-0.516356880184953
894,0.8812,366.282,368.093,3.62692,37.5742,-184.725,0.505535,0.365082,0.365044,-0.727102,-2.37309e-07,-0.00121246,-1.37819e-05,0.994775,0.44063213514102584,-2.373089718066268e-07,-0.0012117252673488066,0.44057739216001357,-1.3781805030088634e-05,-0.5166924120670744
895,0.8822,366.384,368.202,3.63156,37.584,-184.779,0.503796,0.365429,0.365391,-0.727797,-2.36711e-07,-0.00123783,-1.36856e-05,0.995735,0.4411321212344901,-2.3671097193478374e-07,-0.00123706420445302,0.4410773592543673,-1.3685506352612009e-05,-0.5170281941429005
896,0.8832,366.482,368.304,3.63093,37.5941,-184.832,0.502259,0.365776,0.365738,-0.728491,-2.3618e-07,-0.0012632,-1.35985e-05,0.996694,0.4416322808532336,-2.3617997213509767e-07,-0.0012624024987165638,0.44157749986740646,-1.3598407540782453e-05,-0.5173632602947623
897,0.8842,366.583,368.409,3.63375,37.6044,-184.886,0.501039,0.366123,0.366084,-0.729185,-2.35673e-07,-0.00128858,-1.35149e-05,0.997653,0.44213261405748017,-2.3567297224857953e-07,-0.0012877501372782207,0.4420763719822596,-1.3514808674175427e-05,-0.517698093991386
898,0.8852,366.683,368.51,3.63418,37.6148,-184.939,0.50001,0.366469,0.366431,-0.729878,-2.35212e-07,-0.00131397,-1.34375e-05,0.998611,0.442631678275075,-2.3521197234366298e-07,-0.0013131071193940302,0.4425768593128674,-1.3437409717154125e-05,-0.5180322134264941
899,0.8862,366.785,368.613,3.63619,37.6254,-184.993,0.499214,0.366816,0.366778,-0.730572,-2.34776e-07,-0.00133936,-1.33636e-05,0.99957,0.4431323583304021,-2.3477597244081494e-07,-0.0013384634577041643,0.44307752034271397,-1.3363510707464776e-05,-0.5183665830307029
900,0.8872,366.887,368.714,3.63712,37.636,-185.046,0.498584,0.367162,0.367124,-0.731265,-2.34373e-07,-0.00136475,-1.32943e-05,1.00053,0.4436317685193649,-2.3437297258510625e-07,-0.0013638191522250542,0.4435769115544501,-1.3294211631209585e-05,-0.5187002393633903
901,0.8882,366.989,368.816,3.63875,37.6468,-185.098,0.498133,0.367508,0.36747,-0.731958,-2.33992e-07,-0.00139015,-1.3228e-05,1.00149,0.44413135153415007,-2.3399197257578663e-07,-0.001389184189081294,0.4440764755854414,-1.3227912510349604e-05,-0.5190336645523395
902,0.8892,367.091,368.917,3.6399,37.6576,-185.151,0.497821,0.367854,0.367817,-0.73265,-2.33636e-07,-0.00141556,-1.31651e-05,1.00244,0.4446311074345659,-2.3363597267955782e-07,-0.0014145585675281458,0.4445776570724287,-1.3165013340477039e-05,-0.5193663781242963
903,0.8902,367.194,369.018,3.64136,37.6685,-185.204,0.497648,0.3682,0.368163,-0.733343,-2.33298e-07,-0.00144097,-1.31048e-05,1.0034,0.44513103628044126,-2.3329797282922726e-07,-0.0014399323012203036,0.4450775674212788,-1.3104714132516904e-05,-0.5196993418390037
904,0.8912,367.296,369.119,3.6426,37.6794,-185.256,0.49759,0.368546,0.368509,-0.734035,-2.32978e-07,-0.00146638,-1.30471e-05,1.00436,0.44563113813162536,-2.3297797291377265e-07,-0.0014653053901740876,0.44557765076903677,-1.3047014886913288e-05,-0.5200315949216258
905,0.8922,367.399,369.22,3.64399,37.6903,-185.309,0.49764,0.368892,0.368854,-0.734727,-2.32674e-07,-0.0014918,-1.29914e-05,1.00531,0.44613141304798853,-2.3267397297743742e-07,-0.0014906878194990147,0.4460764610983863,-1.2991315612165266e-05,-0.5203636181646485
906,0.8932,367.502,369.321,3.64527,37.7013,-185.361,0.497783,0.369237,0.3692,-0.735419,-2.32384e-07,-0.00151722,-1.29378e-05,1.00627,0.4466304144582838,-2.323839729534427e-07,-0.0015160696036108368,0.44657689012315505,-1.2937716307059866e-05,-0.5206954117270656
907,0.8942,367.596,369.431,3.6476,37.7102,-185.413,0.49393,0.369583,0.369546,-0.73611,-2.31483e-07,-0.00154264,-1.28016e-05,1.00722,0.4471310351840776,-2.31482973234165e-07,-0.0015414507425258739,0.44707749232632477,-1.280151805982399e-05,-0.5210264967944975
908,0.8952,367.691,369.537,3.64727,37.7194,-185.466,0.490542,0.369928,0.369891,-0.736801,-2.30662e-07,-0.00156805,-1.26763e-05,1.00818,0.44763038152350676,-2.3066197341048422e-07,-0.0015668212519287517,0.4475768201902812,-1.2676219656060361e-05,-0.521357353161173
909,0.8962,367.788,369.643,3.6495,37.7289,-185.518,0.487614,0.370274,0.370236,-0.737492,-2.29897e-07,-0.00159346,-1.25587e-05,1.00913,0.448131348297768,-2.2989697356923244e-07,-0.0015921911166753011,0.44807632035207035,-1.2558621139802106e-05,-0.5216879809850697
910,0.8972,367.886,369.746,3.65026,37.7386,-185.571,0.485045,0.370619,0.370582,-0.738183,-2.29197e-07,-0.00161887,-1.24499e-05,1.01009,0.44863103980475927,-2.291969737333588e-07,-0.0016175603367817315,0.44857744144786227,-1.2449822500371077e-05,-0.5220183804240563
911,0.8982,367.985,369.849,3.65205,37.7485,-185.624,0.482832,0.370964,0.370927,-0.738873,-2.28544e-07,-0.00164429,-1.23476e-05,1.01104,0.4491309037350619,-2.28543973856965e-07,-0.001642938895835111,0.44907728688354176,-1.2347523768663216e-05,-0.5223480739842048
912,0.8992,368.084,369.95,3.65314,37.7586,-185.677,0.480913,0.371309,0.371272,-0.739564,-2.2794e-07,-0.00166971,-1.22521e-05,1.012,0.4496309401481722,-2.2793997400682997e-07,-0.001668316809773751,0.44957730479564684,-1.2252024943371076e-05,-0.5226780174564836
913,0.9002,368.184,370.051,3.65467,37.7689,-185.729,0.479277,0.371653,0.371617,-0.740254,-2.27375e-07,-0.00169513,-1.21621e-05,1.01295,0.45012969897318267,-2.2737497418212627e-07,-0.001693694078613972,0.45007749524369234,-1.216202604192862e-05,-0.5230072560240703
914,0.9012,368.285,370.151,3.65588,37.7792,-185.781,0.477884,0.371998,0.371961,-0.740943,-2.2685e-07,-0.00172056,-1.20774e-05,1.0139,0.4506300800300975,-2.2684997424970987e-07,-0.001719080685181451,0.45057640771008045,-1.2077327068538146e-05,-0.5233357908314317
915,0.9022,368.386,370.251,3.65729,37.7897,-185.833,0.476718,0.372343,0.372306,-0.741633,-2.26357e-07,-0.00174599,-1.19972e-05,1.01486,0.45113063374825924,-2.2635697438655455e-07,-0.0017444666461757796,0.4510769429080974,-1.1997128033902626e-05,-0.5236645756919366
916,0.9032,368.487,370.351,3.65855,37.8003,-185.885,0.475751,0.372687,0.372651,-0.742322,-2.25894e-07,-0.00177142,-1.19212e-05,1.01581,0.4516299085566122,-2.2589397452588145e-07,-0.001769851961613278,0.4515776508205491,-1.1921128942771198e-05,-0.5239926577620327
917,0.9042,368.588,370.45,3.6599,37.8109,-185.937,0.474966,0.373031,0.372995,-0.743011,-2.25458e-07,-0.00179686,-1.18489e-05,1.01676,0.4521293551450438,-2.254579746230334e-07,-0.0017952466135581213,0.45207707942922704,-1.1848829802096894e-05,-0.5243205138614384
918,0.9052,368.689,370.55,3.66118,37.8216,-185.989,0.474344,0.373375,0.373339,-0.7437,-2.25047e-07,-0.00182231,-1.178e-05,1.01771,0.4526289735726563,-2.2504697472225388e-07,-0.001820650601264684,0.4525766798708999,-1.1779930616073742e-05,-0.5246481441457939
919,0.9062,368.79,370.649,3.6625,37.8323,-186.04,0.47387,0.37372,0.373683,-0.744389,-2.24656e-07,-0.00184776,-1.1714e-05,1.01866,0.45313021702806333,-2.2465597471210685e-07,-0.0018460539424479672,0.4530764522046886,-1.1713931391321708e-05,-0.524975548770632
920,0.9072,368.892,370.749,3.66378,37.843,-186.092,0.473527,0.374063,0.374027,-0.745077,-2.24286e-07,-0.00187321,-1.16507e-05,1.01962,0.4536287261819363,-2.2428597479251522e-07,-0.0018714566371244024,0.4535763964897339,-1.1650632130821847e-05,-0.5253022531938693
921,0.9082,368.993,370.848,3.66508,37.8538,-186.143,0.473304,0.374407,0.374371,-0.745765,-2.23932e-07,-0.00189866,-1.15898e-05,1.02057,0.4541288604819105,-2.2393197496306527e-07,-0.0018968586853106428,0.45407651278519734,-1.158973283854614e-05,-0.5256287329217674
922,0.9092,369.094,370.947,3.66637,37.8645,-186.194,0.473187,0.374751,0.374715,-0.746453,-2.23594e-07,-0.00192412,-1.15311e-05,1.02152,0.4546291668576792,-2.235939750017124e-07,-0.0019222700678002136,0.45457680115026067,-1.1531033517142575e-05,-0.5259549881088637
923,0.9102,369.196,371.047,3.66767,37.8753,-186.245,0.473167,0.375095,0.375059,-0.747141,-2.23269e-07,-0.00194958,-1.14743e-05,1.02247,0.4551296453684468,-2.232689750858441e-07,-0.0019476808033241921,0.4550772616441261,-1.1474234170472108e-05,-0.5262810189095889
924,0.9112,369.297,371.146,3.66895,37.8861,-186.297,0.473232,0.375438,0.375402,-0.747828,-2.22956e-07,-0.00197504,-1.14192e-05,1.02342,0.4556288404438693,-2.2295597512655974e-07,-0.001973090891899232,0.4555764387488497,-1.1419134801182729e-05,-0.5266063520848567
925,0.9122,369.398,371.245,3.67024,37.8969,-186.348,0.473376,0.375781,0.375746,-0.748515,-2.22655e-07,-0.0020005,-1.13656e-05,1.02437,0.45612820677257115,-2.2265497523488165e-07,-0.001998500333541542,0.4560772431772022,-1.13655354118114e-05,-0.526931461832989
926,0.9132,369.499,371.344,3.67153,37.9077,-186.398,0.473589,0.376125,0.376089,-0.749202,-2.22363e-07,-0.00202597,-1.13134e-05,1.02532,0.45662920104177473,-2.2236297525513038e-07,-0.0020239191080285712,0.45657676333442176,-1.1313336003682117e-05,-0.5272563483074277
927,0.9142,369.599,371.443,3.67281,37.9184,-186.449,0.473864,0.376468,0.376432,-0.749889,-2.22079e-07,-0.00205144,-1.12624e-05,1.02627,0.4571289105530141,-2.2207897532044996e-07,-0.0020493372351076955,0.4570764548564423,-1.1262336579442866e-05,-0.5275810116615092
928,0.9152,369.7,371.542,3.67409,37.9292,-186.5,0.474196,0.376811,0.376775,-0.750575,-2.21804e-07,-0.00207691,-1.12125e-05,1.02722,0.45762879149401425,-2.2180397540871866e-07,-0.002074754714795346,0.45757631780205266,-1.1212437140195597e-05,-0.5279049799536804
929,0.9162,369.801,371.641,3.67537,37.9399,-186.551,0.474578,0.377154,0.377118,-0.751262,-2.21534e-07,-0.00210238,-1.11635e-05,1.02816,0.45812884392358577,-2.2153397549740106e-07,-0.002100171547107954,0.4580763522300608,-1.1163437688366251e-05,-0.5282291978508528
930,0.9172,369.901,371.74,3.67665,37.9507,-186.602,0.475005,0.377496,0.377461,-0.751948,-2.21271e-07,-0.00212785,-1.11154e-05,1.02911,0.4586276092722208,-2.2127097554225372e-07,-0.002125587732062173,0.4585765581992953,-1.1115338224176874e-05,-0.5285527216397801
931,0.9182,370.001,371.839,3.67793,37.9614,-186.652,0.475473,0.377839,0.377804,-0.752633,-2.21013e-07,-0.00215333,-1.1068e-05,1.03006,0.4591280043550521,-2.210129755875201e-07,-0.0021510132481643573,0.4590769357686051,-1.1067938749942385e-05,-0.5288755524432833
932,0.9192,370.101,371.938,3.67921,37.9721,-186.703,0.475977,0.378182,0.378147,-0.753319,-2.2076e-07,-0.0021788,-1.10214e-05,1.03101,0.4596285711028354,-2.2075997563320016e-07,-0.002176428138196851,0.459577484996859,-1.1021339264560837e-05,-0.5291986329850114
933,0.9202,370.201,372.036,3.68049,37.9828,-186.754,0.476514,0.378524,0.378489,-0.754004,-2.2051e-07,-0.00220428,-1.09753e-05,1.03195,0.4601278494458829,-2.2050997572353737e-07,-0.0022018523589020234,0.4600767458654702,-1.0975239771560119e-05,-0.5295210214907473
934,0.9212,370.301,372.135,3.68176,37.9935,-186.804,0.47708,0.378866,0.378832,-0.754689,-2.20264e-07,-0.00222976,-1.09297e-05,1.0329,0.46062729857132556,-2.202639757253877e-07,-0.002227275931806161,0.46057763808740715,-1.0929640271051255e-05,-0.5298431892359761
935,0.9222,370.401,372.233,3.68304,38.0042,-186.855,0.477673,0.379209,0.379174,-0.755374,-2.20022e-07,-0.00225524,-1.08847e-05,1.03385,0.46112837966523057,-2.2002197574977345e-07,-0.0022526988569260276,0.4610772410668731,-1.0884640761821274e-05,-0.5301651363718665
936,0.9232,370.5,372.332,3.68431,38.0148,-186.905,0.47829,0.379551,0.379516,-0.756059,-2.19781e-07,-0.00228072,-1.084e-05,1.03479,0.4616281710305281,-2.1978097586305978e-07,-0.002278121134277944,0.4615770149397789,-1.0839941247398066e-05,-0.5304868630494846
937,0.9242,370.6,372.43,3.68558,38.0255,-186.956,0.478927,0.379893,0.379858,-0.756743,-2.19544e-07,-0.00230621,-1.07957e-05,1.03574,0.4621281333537046,-2.1954397588785923e-07,-0.00230355274084304,0.4620769597645802,-1.0795641726679683e-05,-0.5308079002279271
938,0.9252,370.699,372.528,3.68685,38.0361,-187.006,0.479584,0.380234,0.3802,-0.757427,-2.19308e-07,-0.00233169,-1.07517e-05,1.03669,0.46262680406570245,-2.1930797600155927e-07,-0.0023289737224545526,0.4625770755997529,-1.0751642200657052e-05,-0.5311287178920219
939,0.9262,370.798,372.626,3.68812,38.0467,-187.056,0.480258,0.380576,0.380542,-0.758111,-2.19074e-07,-0.00235718,-1.0708e-05,1.03763,0.46312710797978585,-2.1907397595999356e-07,-0.0023544040328036253,0.4630773625037923,-1.0707942669552217e-05,-0.5314493161918658
940,0.9272,370.897,372.724,3.68938,38.0573,-187.107,0.480947,0.380918,0.380883,-0.758795,-2.18841e-07,-0.00238267,-1.06645e-05,1.03858,0.46362758302706975,-2.1884097600732844e-07,-0.002379833694942435,0.4635763569581255,-1.0664443134467128e-05,-0.5317696952774523
941,0.9282,370.996,372.822,3.69065,38.0679,-187.157,0.48165,0.381259,0.381225,-0.759478,-2.1861e-07,-0.00240815,-1.06213e-05,1.03952,0.46412676513859497,-2.1860997612144217e-07,-0.0024052527329399,0.4640769856748359,-1.0621243594188812e-05,-0.5320893873882943
942,0.9292,371.095,372.92,3.69191,38.0785,-187.207,0.482365,0.3816,0.381566,-0.760162,-2.18379e-07,-0.00243364,-1.05782e-05,1.04046,0.4646261175002462,-2.183789761245336e-07,-0.002430681098961829,0.4645763210587954,-1.057814405103219e-05,-0.5324093288148789
943,0.9302,371.194,373.018,3.69318,38.089,-187.257,0.483091,0.381942,0.381908,-0.760845,-2.18149e-07,-0.00245914,-1.05353e-05,1.04141,0.4651271052964612,-2.1814897621652563e-07,-0.00245611879226193,0.465077291821715,-1.0535244503895314e-05,-0.5327285842051718
944,0.9312,371.292,373.116,3.69444,38.0996,-187.307,0.483827,0.382283,0.382249,-0.761527,-2.1792e-07,-0.00248463,-1.04925e-05,1.04235,0.4656267988322731,-2.1791997628639592e-07,-0.0024815458617245545,0.4655769683682356,-1.0492444953880131e-05,-0.5330471546658688
945,0.9322,371.379,373.215,3.69094,38.1084,-187.358,0.480076,0.382624,0.38259,-0.76221,-2.17692e-07,-0.00251012,-1.04499e-05,1.0433,0.46612666279263637,-2.176919763341445e-07,-0.0025069722830594054,0.4660768153335131,-1.0449845399995716e-05,-0.533365974569841
946,0.9332,371.479,373.324,3.69841,38.1176,-187.408,0.47949,0.382965,0.382931,-0.762892,-2.16623e-07,-0.0025356,-1.02938e-05,1.04424,0.46662669723567585,-2.166229765565575e-07,-0.00253238808160694,0.4665768327756705,-1.0293747018996768e-05,-0.5336841104785085
947,0.9342,371.57,373.422,3.69676,38.1269,-187.459,0.47771,0.383306,0.383272,-0.763574,-2.16048e-07,-0.00256108,-1.02045e-05,1.04518,0.4671269022195359,-2.1604797662000408e-07,-0.0025578032325682676,0.4670770207528503,-1.0204447934314409e-05,-0.5340020294924557
948,0.9352,371.667,373.524,3.70026,38.1364,-187.509,0.476292,0.383646,0.383613,-0.764256,-2.15497e-07,-0.00258657,-1.01185e-05,1.04612,0.46762581017583704,-2.154969768186632e-07,-0.0025832277101275336,0.46757737932321475,-1.0118448808160707e-05,-0.5343197317595546
949,0.9362,371.762,373.621,3.7002,38.1461,-187.56,0.475077,0.383987,0.383953,-0.764938,-2.14997e-07,-0.00261205,-1.00395e-05,1.04707,0.46812635591530527,-2.1499697688831532e-07,-0.0026086415657115003,0.4680764404677715,-1.0039449604426487e-05,-0.534637217427576
950,0.9372,371.859,373.719,3.70241,38.1559,-187.611,0.474125,0.384327,0.384294,-0.765619,-2.14518e-07,-0.00263753,-9.96348e-06,1.04801,0.4686256037436378,-2.1451797693750052e-07,-0.002634054773758776,0.46857713989837224,-9.963430364745562e-06,-0.5349540215984441
951,0.9382,371.954,373.816,3.70309,38.1659,-187.661,0.473349,0.384668,0.384634,-0.7663,-2.14074e-07,-0.00266302,-9.89225e-06,1.04895,0.46912649047084787,-2.1407397710060394e-07,-0.002659477307691005,0.4690765410193172,-9.892201071837192e-06,-0.5352706100991159
952,0.9392,372.052,373.913,3.70476,38.1759,-187.711,0.472766,0.385008,0.384975,-0.766981,-2.13651e-07,-0.00268851,-9.82383e-06,1.04989,0.46962607840274373,-2.1365097713221815e-07,-0.0026848991936111455,0.46957758154235885,-9.823781746298721e-06,-0.5355869830764128
953,0.9402,372.148,374.01,3.70576,38.186,-187.761,0.472328,0.385348,0.385315,-0.767662,-2.13252e-07,-0.00271401,-9.75879e-06,1.05083,0.47012583622341575,-2.1325197729904488e-07,-0.0027103304044323595,0.4700773228712951,-9.758742383181307e-06,-0.5359031406770564
954,0.9412,372.246,374.106,3.70718,38.1962,-187.811,0.472034,0.385688,0.385655,-0.768342,-2.1287e-07,-0.00273951,-9.69613e-06,1.05177,0.47062576399063616,-2.1286997731184698e-07,-0.0027357609667660876,0.47057723414117136,-9.696082992727284e-06,-0.536218619266519
955,0.9422,372.343,374.202,3.70832,38.2064,-187.861,0.471858,0.386028,0.385995,-0.769022,-2.12506e-07,-0.00276501,-9.63595e-06,1.05271,0.4711258617621965,-2.1250597737054733e-07,-0.00276119088062865,0.4710773154097776,-9.635903574389815e-06,-0.5365338834034632
956,0.9432,372.441,374.298,3.70964,38.2167,-187.911,0.471792,0.386367,0.386335,-0.769702,-2.12156e-07,-0.00279051,-9.5777e-06,1.05365,0.47162465797051434,-2.121559774526105e-07,-0.0027866201460367,0.4715775667349231,-9.577654134007574e-06,-0.5368489332336666
957,0.9442,372.538,374.394,3.71083,38.227,-187.961,0.471819,0.386707,0.386674,-0.770382,-2.11819e-07,-0.00281601,-9.5213e-06,1.05459,0.47212509542377057,-2.1181897758015822e-07,-0.0028120487630066693,0.47207651609718493,-9.521254672573143e-06,-0.5371637689028086
958,0.9452,372.635,374.49,3.7121,38.2373,-188.01,0.471932,0.387046,0.387014,-0.771061,-2.11493e-07,-0.00284152,-9.46643e-06,1.05553,0.47262423042972257,-2.1149297768641162e-07,-0.002837486703180403,0.47257710720832447,-9.466385193501736e-06,-0.5374779280346282
959,0.9462,372.733,374.586,3.71331,38.2477,-188.06,0.472118,0.387386,0.387353,-0.771741,-2.11177e-07,-0.00286703,-9.41297e-06,1.05647,0.4731250077953968,-2.1117697768247012e-07,-0.002862923994440547,0.4730763954722472,-9.412925698115693e-06,-0.5377923361326962
960,0.9472,372.83,374.682,3.71456,38.258,-188.109,0.472371,0.387725,0.387693,-0.77242,-2.1087e-07,-0.00289253,-9.3607e-06,1.05741,0.47362448182910466,-2.1086997781250005e-07,-0.002888350665687267,0.47357732660017393,-9.3606561888393e-06,-0.5381060686122316
961,0.9482,372.927,374.778,3.71579,38.2684,-188.159,0.472681,0.388064,0.388032,-0.773099,-2.1057e-07,-0.00291805,-9.30951e-06,1.05834,0.47412412521321357,-2.1056997778767794e-07,-0.002913796630286458,0.4740769539959502,-9.309466666662658e-06,-0.5384195881397189
962,0.9492,373.025,374.874,3.71702,38.2787,-188.208,0.473044,0.388403,0.388371,-0.773777,-2.10276e-07,-0.00294356,-9.25924e-06,1.05928,0.47462393800514247,-2.1027597785217012e-07,-0.0029392319749051987,0.47457675079412565,-9.259197133348884e-06,-0.5387324335923676
963,0.9502,373.122,374.969,3.71825,38.2891,-188.257,0.473451,0.388742,0.38871,-0.774456,-2.09988e-07,-0.00296907,-9.20979e-06,1.06022,0.4751239202623305,-2.0998797800597657e-07,-0.00296466667067663,0.4750767170521375,-9.209747589999928e-06,-0.5390455279623907
964,0.9512,373.219,375.065,3.71948,38.2994,-188.306,0.473899,0.389081,0.389049,-0.775134,-2.09705e-07,-0.00299459,-9.16106e-06,1.06116,0.4756240720422362,-2.0970497804917443e-07,-0.002990110687716152,0.47557685282744244,-9.161018037606716e-06,-0.5393579491716742
965,0.9522,373.315,375.161,3.7207,38.3097,-188.355,0.474382,0.38942,0.389388,-0.775812,-2.09426e-07,-0.0030201,-9.11295e-06,1.06209,0.4761243934023376,-2.094259781149077e-07,-0.003015544085588129,0.4760771581775165,-9.112908477160175e-06,-0.5396701586311692
966,0.9532,373.412,375.256,3.72193,38.3201,-188.404,0.474897,0.389758,0.389727,-0.776489,-2.09151e-07,-0.00304562,-9.06539e-06,1.06303,0.4766234077759861,-2.091509780921541e-07,-0.0030409868042525767,0.47657763315985524,-9.06534890943167e-06,-0.5399816964663199
967,0.9542,373.509,375.352,3.72315,38.3304,-188.453,0.47544,0.390097,0.390065,-0.777167,-2.08879e-07,-0.00307113,-9.0183e-06,1.06397,0.47712406796832996,-2.0887897822507995e-07,-0.003066418904291379,0.47707680075443437,-9.018259335302758e-06,-0.54029348316848
968,0.9552,373.605,375.447,3.72438,38.3407,-188.502,0.476007,0.390435,0.390404,-0.777844,-2.0861e-07,-0.00309665,-8.97162e-06,1.0649,0.47762342028909144,-2.0860997829164063e-07,-0.0030918603246470333,0.47757761467305326,-8.971579755101544e-06,-0.5406045991557304
969,0.9562,373.702,375.542,3.7256,38.351,-188.551,0.476597,0.390773,0.390742,-0.778521,-2.08343e-07,-0.00312217,-8.9253e-06,1.06584,0.47812294141946454,-2.0834297831395787e-07,-0.003117301095745928,0.47807712031851146,-8.925260169601046e-06,-0.5409155045887383
970,0.9572,373.798,375.638,3.72682,38.3612,-188.6,0.477205,0.391112,0.39108,-0.779198,-2.08078e-07,-0.00314769,-8.87929e-06,1.06677,0.47862411003988736,-2.0807797840305398e-07,-0.0031427412176046055,0.4785767948254136,-8.879250579241216e-06,-0.5412261996100003
971,0.9582,373.894,375.733,3.72804,38.3715,-188.649,0.47783,0.39145,0.391418,-0.779874,-2.07814e-07,-0.00317321,-8.83354e-06,1.06771,0.47912396946056424,-2.0781397835900606e-07,-0.003168180690239719,0.4790766382508449,-8.833500984350984e-06,-0.5415362258983722
972,0.9592,373.99,375.828,3.72925,38.3818,-188.698,0.47847,0.391787,0.391756,-0.780551,-2.07552e-07,-0.00319873,-8.78803e-06,1.06864,0.47962251823902324,-2.075519784927593e-07,-0.0031936195136677004,0.479576650651909,-8.787991385372784e-06,-0.5418465008335228
973,0.9602,374.086,375.923,3.73047,38.392,-188.746,0.479123,0.392125,0.392094,-0.781227,-2.07291e-07,-0.00322425,-8.7427e-06,1.06958,0.48012271517870886,-2.0729097849336853e-07,-0.0032190576879052024,0.4800768320857298,-8.742661782745742e-06,-0.5421561079399672
974,0.9612,374.182,376.018,3.73169,38.4022,-188.795,0.479788,0.392463,0.392432,-0.781903,-2.07031e-07,-0.00324977,-8.69754e-06,1.07051,0.4806230812135355,-2.0703097858287833e-07,-0.0032444952129688787,0.4805771826094498,-8.69750217646903e-06,-0.542465505822733
975,0.9622,374.278,376.113,3.7329,38.4124,-188.844,0.480462,0.3928,0.39277,-0.782578,-2.06771e-07,-0.00327529,-8.65251e-06,1.07145,0.48112213527779124,-2.0677097867238814e-07,-0.0032699320888750494,0.48107770228023106,-8.652472567094449e-06,-0.542774237397674
976,0.9632,374.373,376.208,3.73411,38.4226,-188.892,0.481146,0.393138,0.393107,-0.783254,-2.06512e-07,-0.00330082,-8.6076e-06,1.07238,0.4816228391737065,-2.0651197862875392e-07,-0.0032953782826867783,0.4815769095776046,-8.607562954732195e-06,-0.5430832175661299
977,0.9642,374.469,376.302,3.73532,38.4328,-188.941,0.481837,0.393475,0.393444,-0.783929,-2.06253e-07,-0.00332634,-8.56278e-06,1.07331,0.482122230213172,-2.06252978696142e-07,-0.003320813860073657,0.4820762851361877,-8.562743339490808e-06,-0.5433915323263349
978,0.9652,374.564,376.397,3.73653,38.443,-188.989,0.482535,0.393812,0.393782,-0.784604,-2.05995e-07,-0.00335186,-8.51803e-06,1.07425,0.4826217895757785,-2.0599497874140837e-07,-0.003346248788352879,0.4825773115892644,-8.5179937217017e-06,-0.5436996390442987
979,0.9662,374.659,376.492,3.73774,38.4532,-189.038,0.483239,0.39415,0.394119,-0.785279,-2.05736e-07,-0.00337739,-8.47333e-06,1.07518,0.4831230004405196,-2.0573597880879646e-07,-0.00337169303382423,0.4830770243401392,-8.473294101474238e-06,-0.544007537860403
980,0.9672,374.755,376.586,3.73895,38.4633,-189.086,0.483947,0.394487,0.394456,-0.785953,-2.05478e-07,-0.00340291,-8.42868e-06,1.07611,0.48362289711952733,-2.0547797885406283e-07,-0.003397126663683414,0.48357690552259003,-8.428644478808422e-06,-0.5443147732299347
981,0.9682,374.85,376.68,3.74015,38.4735,-189.135,0.48466,0.394823,0.394793,-0.786627,-2.05219e-07,-0.00342843,-8.38406e-06,1.07704,0.48412147816988527,-2.052189789214509e-07,-0.0034225596444847906,0.48407695519338834,-8.38402485381362e-06,-0.5446218015925965
982,0.9692,374.945,376.775,3.74136,38.4836,-189.183,0.485377,0.39516,0.39513,-0.787302,-2.0496e-07,-0.00345396,-8.33945e-06,1.07797,0.48462171139259236,-2.04959978988839e-07,-0.0034480019417647556,0.4845771734093238,-8.339415226932267e-06,-0.5449290781590135
983,0.9702,375.04,376.869,3.74256,38.4937,-189.232,0.486096,0.395497,0.395467,-0.787975,-2.04701e-07,-0.00347949,-8.29485e-06,1.07891,0.48512211322230425,-2.0470097905622708e-07,-0.0034734435895111826,0.4850775602272057,-8.294815597831295e-06,-0.5452352378551191
984,0.9712,375.134,376.963,3.74376,38.5038,-189.28,0.486818,0.395833,0.395803,-0.788649,-2.04441e-07,-0.00350501,-8.25024e-06,1.07984,0.48562119809391,-2.044409791457369e-07,-0.0034988746227293532,0.4855766301264901,-8.250205966842117e-06,-0.5455416460336491
985,0.9722,375.229,377.057,3.74496,38.5139,-189.328,0.487542,0.39617,0.39614,-0.789322,-2.04181e-07,-0.00353054,-8.20562e-06,1.08077,0.4861219368074019,-2.041809791242244e-07,-0.003524314971712794,0.4860773538180456,-8.205586333964732e-06,-0.5458473936102686
986,0.9732,375.324,377.151,3.74616,38.524,-189.376,0.488268,0.396506,0.396476,-0.789996,-2.0392e-07,-0.00355606,-8.16099e-06,1.0817,0.4866213576761764,-2.0391997923585592e-07,-0.0035497447067099897,0.48657675970441905,-8.16095669919914e-06,-0.5461533893348323
987,0.9742,375.418,377.245,3.74736,38.5341,-189.424,0.488995,0.396842,0.396812,-0.790669,-2.03659e-07,-0.00358159,-8.11632e-06,1.08263,0.4871209463785575,-2.0365897923646514e-07,-0.003575183756996725,0.48707633341936396,-8.116287062764904e-06,-0.5464587253467172
988,0.9752,375.513,377.339,3.74856,38.5442,-189.473,0.489724,0.397178,0.397149,-0.791341,-2.03398e-07,-0.00360712,-8.07163e-06,1.08356,0.4876207029709465,-2.0339797934809667e-07,-0.0036006221578328557,0.48757756259609875,-8.071597424441634e-06,-0.5467634027002279
989,0.9762,375.607,377.432,3.74975,38.5542,-189.521,0.490452,0.397514,0.397485,-0.792014,-2.03135e-07,-0.00363265,-8.0269e-06,1.08449,0.48812062750976404,-2.0313497939294933e-07,-0.0036260599092349244,0.48807747263731494,-8.026867784560743e-06,-0.5470683283112334
990,0.9772,375.701,377.526,3.75095,38.5643,-189.569,0.491181,0.39785,0.397821,-0.792686,-2.02872e-07,-0.00365817,-7.98213e-06,1.08542,0.4886207200514494,-2.02871979437802e-07,-0.0036514870477343253,0.48857755067652686,-7.982098142900185e-06,-0.5473725961491644
991,0.9782,375.795,377.619,3.75214,38.5743,-189.617,0.491911,0.398186,0.398156,-0.793358,-2.02609e-07,-0.0036837,-7.93731e-06,1.08634,0.48912098065246123,-2.0260897948265466e-07,-0.00367692350057236,0.4890763076931395,-7.937278499681177e-06,-0.5476766595877944
992,0.9792,375.889,377.713,3.75333,38.5843,-189.665,0.49264,0.398521,0.398492,-0.79403,-2.02344e-07,-0.00370923,-7.89245e-06,1.08727,0.4896199197486124,-2.0234397957175076e-07,-0.0037023593040259595,0.4895767213973188,-7.892418854682504e-06,-0.5479805187644332
993,0.9802,375.983,377.806,3.75452,38.5944,-189.712,0.493369,0.398857,0.398828,-0.794702,-2.02079e-07,-0.00373476,-7.84753e-06,1.0882,0.4901205161371316,-2.0207897954982457e-07,-0.0037277944581117772,0.4900773032687531,-7.847499208235575e-06,-0.5482841738162989
994,0.9812,376.077,377.899,3.75571,38.6044,-189.76,0.494098,0.399192,0.399163,-0.795373,-2.01813e-07,-0.00376029,-7.80255e-06,1.08913,0.49061979013376256,-2.018129796610424e-07,-0.0037532289628464666,0.4905765627866483,-7.80251956022937e-06,-0.5485871734679165
995,0.9822,376.171,377.993,3.75689,38.6144,-189.808,0.494826,0.399528,0.399499,-0.796044,-2.01547e-07,-0.00378582,-7.75752e-06,1.09006,0.49112072253517813,-2.015469796612379e-07,-0.0037786628182464588,0.4910774806612348,-7.757489910553694e-06,-0.5488899698749641
996,0.9832,376.264,378.086,3.75808,38.6243,-189.856,0.495553,0.399863,0.399834,-0.796715,-2.01279e-07,-0.00381135,-7.71243e-06,1.09098,0.4916203316570831,-2.0127897970567687e-07,-0.003804096024328407,0.4915770752946853,-7.712400259318741e-06,-0.5491925631737729
997,0.9842,376.358,378.179,3.75926,38.6343,-189.904,0.496279,0.400198,0.400169,-0.797386,-2.01011e-07,-0.00383688,-7.66728e-06,1.09191,0.4921201081760811,-2.0101097975011584e-07,-0.003829528581108965,0.49207683732037455,-7.667250606524512e-06,-0.5494949535005829
998,0.9852,376.451,378.272,3.76044,38.6443,-189.951,0.497005,0.400533,0.400504,-0.798056,-2.00742e-07,-0.00386241,-7.62206e-06,1.09284,0.49262005214826,-2.0074197981667652e-07,-0.003854960488604675,0.49257676679438833,-7.622030952170178e-06,-0.5497966907884586
999,0.9862,376.545,378.364,3.76162,38.6542,-189.999,0.497729,0.400868,0.400839,-0.798727,-2.00472e-07,-0.00388793,-7.57677e-06,1.09376,0.49312016362972577,-2.0047197990535892e-07,-0.003880381785635878,0.49307686377283133,-7.576741296366762e-06,-0.5500986758816102
